 # Lammps sturcture data file
  
          32  atoms
           2  atom types
 
      0.000000000000      11.812586509067  xlo xhi
      0.000000000000      13.639999998328  ylo yhi
      0.000000000000     100.000000000000  zlo zhi
 
Masses
 
            1   26.98153860             # Al
            2   14.00700000             # N
 
Atoms # atomic
 
         1    1        0.984382203622       1.704999995691      50.000000000000
         2    1        3.937528836356       0.000000000000      50.000000000000
         3    1        0.984382203622       5.114999998006      50.000000000000
         4    1        3.937528836356       3.410000002316      50.000000000000
         5    1        0.984382203622       8.525000000322      50.000000000000
         6    1        3.937528836356       6.819999993697      50.000000000000
         7    1        0.984382203622      11.935000002638      50.000000000000
         8    1        3.937528836356      10.229999996013      50.000000000000
         9    1        6.890675458156       1.704999995691      50.000000000000
        10    1        9.843822090889       0.000000000000      50.000000000000
        11    1        6.890675458156       5.114999998006      50.000000000000
        12    1        9.843822090889       3.410000002316      50.000000000000
        13    1        6.890675458156       8.525000000322      50.000000000000
        14    1        9.843822090889       6.819999993697      50.000000000000
        15    1        6.890675458156      11.935000002638      50.000000000000
        16    1        9.843822090889      10.229999996013      50.000000000000
        17    2        0.000000000000       0.000000000000      50.000000000000
        18    2        2.953146621800       1.704999995691      50.000000000000
        19    2        0.000000000000       3.410000002316      50.000000000000
        20    2        2.953146621800       5.114999998006      50.000000000000
        21    2        0.000000000000       6.819999993697      50.000000000000
        22    2        2.953146621800       8.525000000322      50.000000000000
        23    2        0.000000000000      10.229999996013      50.000000000000
        24    2        2.953146621800      11.935000002638      50.000000000000
        25    2        5.906293254534       0.000000000000      50.000000000000
        26    2        8.859439876334       1.704999995691      50.000000000000
        27    2        5.906293254534       3.410000002316      50.000000000000
        28    2        8.859439876334       5.114999998006      50.000000000000
        29    2        5.906293254534       6.819999993697      50.000000000000
        30    2        8.859439876334       8.525000000322      50.000000000000
        31    2        5.906293254534      10.229999996013      50.000000000000
        32    2        8.859439876334      11.935000002638      50.000000000000
