 # Lammps sturcture data file
  
          48  atoms
          12  atom types
 
      0.000000000000      10.803736500000  xlo xhi
      0.000000000000      12.475080350000  ylo yhi
      0.000000000000     163.118785000000  zlo zhi
 
Masses
 
            1   32.06000000             # S
            2   95.96000000             # Mo
            3   32.06000000             # S
            4   32.06000000             # S
            5   95.96000000             # Mo
            6   32.06000000             # S
            7   32.06000000             # S
            8   95.96000000             # Mo
            9   32.06000000             # S
           10   32.06000000             # S
           11   95.96000000             # Mo
           12   32.06000000             # S
 
Atoms # atomic
 
         1    1        0.000000000000       0.000000000000      53.313885040000
         2    2        0.900311370000       1.559385040000      51.754500000000
         3    3        0.000000000000       0.000000000000      50.195114960000
         4    4        2.700934120000       1.559385040000      53.313885040000
         5    5        3.601245500000       0.000000000000      51.754500000000
         6    6        2.700934120000       1.559385040000      50.195114960000
         7    7        0.000000000000       3.118770090000      53.313885040000
         8    8        0.900311370000       4.678155130000      51.754500000000
         9    9        0.000000000000       3.118770090000      50.195114960000
        10   10        2.700934120000       4.678155130000      53.313885040000
        11   11        3.601245500000       3.118770090000      51.754500000000
        12   12        2.700934120000       4.678155130000      50.195114960000
        13    1        0.000000000000       6.237540170000      53.313885040000
        14    2        0.900311370000       7.796925220000      51.754500000000
        15    3        0.000000000000       6.237540170000      50.195114960000
        16    4        2.700934120000       7.796925220000      53.313885040000
        17    5        3.601245500000       6.237540170000      51.754500000000
        18    6        2.700934120000       7.796925220000      50.195114960000
        19    7        0.000000000000       9.356310260000      53.313885040000
        20    8        0.900311370000      10.915695310000      51.754500000000
        21    9        0.000000000000       9.356310260000      50.195114960000
        22   10        2.700934120000      10.915695310000      53.313885040000
        23   11        3.601245500000       9.356310260000      51.754500000000
        24   12        2.700934120000      10.915695310000      50.195114960000
        25    1        5.401868250000       0.000000000000      53.313885040000
        26    2        6.302179620000       1.559385040000      51.754500000000
        27    3        5.401868250000       0.000000000000      50.195114960000
        28    4        8.102802370000       1.559385040000      53.313885040000
        29    5        9.003113750000       0.000000000000      51.754500000000
        30    6        8.102802370000       1.559385040000      50.195114960000
        31    7        5.401868250000       3.118770090000      53.313885040000
        32    8        6.302179620000       4.678155130000      51.754500000000
        33    9        5.401868250000       3.118770090000      50.195114960000
        34   10        8.102802370000       4.678155130000      53.313885040000
        35   11        9.003113750000       3.118770090000      51.754500000000
        36   12        8.102802370000       4.678155130000      50.195114960000
        37    1        5.401868250000       6.237540170000      53.313885040000
        38    2        6.302179620000       7.796925220000      51.754500000000
        39    3        5.401868250000       6.237540170000      50.195114960000
        40    4        8.102802370000       7.796925220000      53.313885040000
        41    5        9.003113750000       6.237540170000      51.754500000000
        42    6        8.102802370000       7.796925220000      50.195114960000
        43    7        5.401868250000       9.356310260000      53.313885040000
        44    8        6.302179620000      10.915695310000      51.754500000000
        45    9        5.401868250000       9.356310260000      50.195114960000
        46   10        8.102802370000      10.915695310000      53.313885040000
        47   11        9.003113750000       9.356310260000      51.754500000000
        48   12        8.102802370000      10.915695310000      50.195114960000
