 # Lammps sturcture data file
  
        7744  atoms
           2  atom types
 
      0.000000000000     259.876903199474  xlo xhi
      0.000000000000     150.039999981608  ylo yhi
      0.000000000000     100.000000000000  zlo zhi
 
Masses
 
            1   26.98153860             # Al
            2   14.00700000             # N
 
Atoms # atomic
 
         1    1        0.984382203622       1.704999995691      50.000000000000
         2    1        3.937528836356       0.000000000000      50.000000000000
         3    1        0.984382203622       5.114999998006      50.000000000000
         4    1        3.937528836356       3.410000002316      50.000000000000
         5    1        0.984382203622       8.525000000322      50.000000000000
         6    1        3.937528836356       6.819999993697      50.000000000000
         7    1        0.984382203622      11.935000002638      50.000000000000
         8    1        3.937528836356      10.229999996013      50.000000000000
         9    1        6.890675458156       1.704999995691      50.000000000000
        10    1        9.843822090889       0.000000000000      50.000000000000
        11    1        6.890675458156       5.114999998006      50.000000000000
        12    1        9.843822090889       3.410000002316      50.000000000000
        13    1        6.890675458156       8.525000000322      50.000000000000
        14    1        9.843822090889       6.819999993697      50.000000000000
        15    1        6.890675458156      11.935000002638      50.000000000000
        16    1        9.843822090889      10.229999996013      50.000000000000
        17    2        0.000000000000       0.000000000000      50.000000000000
        18    2        2.953146621800       1.704999995691      50.000000000000
        19    2        0.000000000000       3.410000002316      50.000000000000
        20    2        2.953146621800       5.114999998006      50.000000000000
        21    2        0.000000000000       6.819999993697      50.000000000000
        22    2        2.953146621800       8.525000000322      50.000000000000
        23    2        0.000000000000      10.229999996013      50.000000000000
        24    2        2.953146621800      11.935000002638      50.000000000000
        25    2        5.906293254534       0.000000000000      50.000000000000
        26    2        8.859439876334       1.704999995691      50.000000000000
        27    2        5.906293254534       3.410000002316      50.000000000000
        28    2        8.859439876334       5.114999998006      50.000000000000
        29    2        5.906293254534       6.819999993697      50.000000000000
        30    2        8.859439876334       8.525000000322      50.000000000000
        31    2        5.906293254534      10.229999996013      50.000000000000
        32    2        8.859439876334      11.935000002638      50.000000000000
        33    1       12.796968712689       1.704999995691      50.000000000000
        34    1       15.750115345423       0.000000000000      50.000000000000
        35    1       12.796968712689       5.114999998006      50.000000000000
        36    1       15.750115345423       3.410000002316      50.000000000000
        37    1       12.796968712689       8.525000000322      50.000000000000
        38    1       15.750115345423       6.819999993697      50.000000000000
        39    1       12.796968712689      11.935000002638      50.000000000000
        40    1       15.750115345423      10.229999996013      50.000000000000
        41    1       18.703261967223       1.704999995691      50.000000000000
        42    1       21.656408599956       0.000000000000      50.000000000000
        43    1       18.703261967223       5.114999998006      50.000000000000
        44    1       21.656408599956       3.410000002316      50.000000000000
        45    1       18.703261967223       8.525000000322      50.000000000000
        46    1       21.656408599956       6.819999993697      50.000000000000
        47    1       18.703261967223      11.935000002638      50.000000000000
        48    1       21.656408599956      10.229999996013      50.000000000000
        49    2       11.812586509067       0.000000000000      50.000000000000
        50    2       14.765733130867       1.704999995691      50.000000000000
        51    2       11.812586509067       3.410000002316      50.000000000000
        52    2       14.765733130867       5.114999998006      50.000000000000
        53    2       11.812586509067       6.819999993697      50.000000000000
        54    2       14.765733130867       8.525000000322      50.000000000000
        55    2       11.812586509067      10.229999996013      50.000000000000
        56    2       14.765733130867      11.935000002638      50.000000000000
        57    2       17.718879763601       0.000000000000      50.000000000000
        58    2       20.672026385401       1.704999995691      50.000000000000
        59    2       17.718879763601       3.410000002316      50.000000000000
        60    2       20.672026385401       5.114999998006      50.000000000000
        61    2       17.718879763601       6.819999993697      50.000000000000
        62    2       20.672026385401       8.525000000322      50.000000000000
        63    2       17.718879763601      10.229999996013      50.000000000000
        64    2       20.672026385401      11.935000002638      50.000000000000
        65    1       24.609555221756       1.704999995691      50.000000000000
        66    1       27.562701854490       0.000000000000      50.000000000000
        67    1       24.609555221756       5.114999998006      50.000000000000
        68    1       27.562701854490       3.410000002316      50.000000000000
        69    1       24.609555221756       8.525000000322      50.000000000000
        70    1       27.562701854490       6.819999993697      50.000000000000
        71    1       24.609555221756      11.935000002638      50.000000000000
        72    1       27.562701854490      10.229999996013      50.000000000000
        73    1       30.515848476290       1.704999995691      50.000000000000
        74    1       33.468995109023       0.000000000000      50.000000000000
        75    1       30.515848476290       5.114999998006      50.000000000000
        76    1       33.468995109023       3.410000002316      50.000000000000
        77    1       30.515848476290       8.525000000322      50.000000000000
        78    1       33.468995109023       6.819999993697      50.000000000000
        79    1       30.515848476290      11.935000002638      50.000000000000
        80    1       33.468995109023      10.229999996013      50.000000000000
        81    2       23.625173018134       0.000000000000      50.000000000000
        82    2       26.578319639934       1.704999995691      50.000000000000
        83    2       23.625173018134       3.410000002316      50.000000000000
        84    2       26.578319639934       5.114999998006      50.000000000000
        85    2       23.625173018134       6.819999993697      50.000000000000
        86    2       26.578319639934       8.525000000322      50.000000000000
        87    2       23.625173018134      10.229999996013      50.000000000000
        88    2       26.578319639934      11.935000002638      50.000000000000
        89    2       29.531466272668       0.000000000000      50.000000000000
        90    2       32.484612894468       1.704999995691      50.000000000000
        91    2       29.531466272668       3.410000002316      50.000000000000
        92    2       32.484612894468       5.114999998006      50.000000000000
        93    2       29.531466272668       6.819999993697      50.000000000000
        94    2       32.484612894468       8.525000000322      50.000000000000
        95    2       29.531466272668      10.229999996013      50.000000000000
        96    2       32.484612894468      11.935000002638      50.000000000000
        97    1       36.422141730823       1.704999995691      50.000000000000
        98    1       39.375288363557       0.000000000000      50.000000000000
        99    1       36.422141730823       5.114999998006      50.000000000000
       100    1       39.375288363557       3.410000002316      50.000000000000
       101    1       36.422141730823       8.525000000322      50.000000000000
       102    1       39.375288363557       6.819999993697      50.000000000000
       103    1       36.422141730823      11.935000002638      50.000000000000
       104    1       39.375288363557      10.229999996013      50.000000000000
       105    1       42.328434985357       1.704999995691      50.000000000000
       106    1       45.281581618090       0.000000000000      50.000000000000
       107    1       42.328434985357       5.114999998006      50.000000000000
       108    1       45.281581618090       3.410000002316      50.000000000000
       109    1       42.328434985357       8.525000000322      50.000000000000
       110    1       45.281581618090       6.819999993697      50.000000000000
       111    1       42.328434985357      11.935000002638      50.000000000000
       112    1       45.281581618090      10.229999996013      50.000000000000
       113    2       35.437759527201       0.000000000000      50.000000000000
       114    2       38.390906149001       1.704999995691      50.000000000000
       115    2       35.437759527201       3.410000002316      50.000000000000
       116    2       38.390906149001       5.114999998006      50.000000000000
       117    2       35.437759527201       6.819999993697      50.000000000000
       118    2       38.390906149001       8.525000000322      50.000000000000
       119    2       35.437759527201      10.229999996013      50.000000000000
       120    2       38.390906149001      11.935000002638      50.000000000000
       121    2       41.344052781735       0.000000000000      50.000000000000
       122    2       44.297199403535       1.704999995691      50.000000000000
       123    2       41.344052781735       3.410000002316      50.000000000000
       124    2       44.297199403535       5.114999998006      50.000000000000
       125    2       41.344052781735       6.819999993697      50.000000000000
       126    2       44.297199403535       8.525000000322      50.000000000000
       127    2       41.344052781735      10.229999996013      50.000000000000
       128    2       44.297199403535      11.935000002638      50.000000000000
       129    1       48.234728239890       1.704999995691      50.000000000000
       130    1       51.187874872624       0.000000000000      50.000000000000
       131    1       48.234728239890       5.114999998006      50.000000000000
       132    1       51.187874872624       3.410000002316      50.000000000000
       133    1       48.234728239890       8.525000000322      50.000000000000
       134    1       51.187874872624       6.819999993697      50.000000000000
       135    1       48.234728239890      11.935000002638      50.000000000000
       136    1       51.187874872624      10.229999996013      50.000000000000
       137    1       54.141021494424       1.704999995691      50.000000000000
       138    1       57.094168127157       0.000000000000      50.000000000000
       139    1       54.141021494424       5.114999998006      50.000000000000
       140    1       57.094168127157       3.410000002316      50.000000000000
       141    1       54.141021494424       8.525000000322      50.000000000000
       142    1       57.094168127157       6.819999993697      50.000000000000
       143    1       54.141021494424      11.935000002638      50.000000000000
       144    1       57.094168127157      10.229999996013      50.000000000000
       145    2       47.250346036268       0.000000000000      50.000000000000
       146    2       50.203492658068       1.704999995691      50.000000000000
       147    2       47.250346036268       3.410000002316      50.000000000000
       148    2       50.203492658068       5.114999998006      50.000000000000
       149    2       47.250346036268       6.819999993697      50.000000000000
       150    2       50.203492658068       8.525000000322      50.000000000000
       151    2       47.250346036268      10.229999996013      50.000000000000
       152    2       50.203492658068      11.935000002638      50.000000000000
       153    2       53.156639290802       0.000000000000      50.000000000000
       154    2       56.109785912602       1.704999995691      50.000000000000
       155    2       53.156639290802       3.410000002316      50.000000000000
       156    2       56.109785912602       5.114999998006      50.000000000000
       157    2       53.156639290802       6.819999993697      50.000000000000
       158    2       56.109785912602       8.525000000322      50.000000000000
       159    2       53.156639290802      10.229999996013      50.000000000000
       160    2       56.109785912602      11.935000002638      50.000000000000
       161    1       60.047314748957       1.704999995691      50.000000000000
       162    1       63.000461381691       0.000000000000      50.000000000000
       163    1       60.047314748957       5.114999998006      50.000000000000
       164    1       63.000461381691       3.410000002316      50.000000000000
       165    1       60.047314748957       8.525000000322      50.000000000000
       166    1       63.000461381691       6.819999993697      50.000000000000
       167    1       60.047314748957      11.935000002638      50.000000000000
       168    1       63.000461381691      10.229999996013      50.000000000000
       169    1       65.953608003491       1.704999995691      50.000000000000
       170    1       68.906754636224       0.000000000000      50.000000000000
       171    1       65.953608003491       5.114999998006      50.000000000000
       172    1       68.906754636224       3.410000002316      50.000000000000
       173    1       65.953608003491       8.525000000322      50.000000000000
       174    1       68.906754636224       6.819999993697      50.000000000000
       175    1       65.953608003491      11.935000002638      50.000000000000
       176    1       68.906754636224      10.229999996013      50.000000000000
       177    2       59.062932545335       0.000000000000      50.000000000000
       178    2       62.016079167135       1.704999995691      50.000000000000
       179    2       59.062932545335       3.410000002316      50.000000000000
       180    2       62.016079167135       5.114999998006      50.000000000000
       181    2       59.062932545335       6.819999993697      50.000000000000
       182    2       62.016079167135       8.525000000322      50.000000000000
       183    2       59.062932545335      10.229999996013      50.000000000000
       184    2       62.016079167135      11.935000002638      50.000000000000
       185    2       64.969225799869       0.000000000000      50.000000000000
       186    2       67.922372421669       1.704999995691      50.000000000000
       187    2       64.969225799869       3.410000002316      50.000000000000
       188    2       67.922372421669       5.114999998006      50.000000000000
       189    2       64.969225799869       6.819999993697      50.000000000000
       190    2       67.922372421669       8.525000000322      50.000000000000
       191    2       64.969225799869      10.229999996013      50.000000000000
       192    2       67.922372421669      11.935000002638      50.000000000000
       193    1       71.859901258024       1.704999995691      50.000000000000
       194    1       74.813047890758       0.000000000000      50.000000000000
       195    1       71.859901258024       5.114999998006      50.000000000000
       196    1       74.813047890758       3.410000002316      50.000000000000
       197    1       71.859901258024       8.525000000322      50.000000000000
       198    1       74.813047890758       6.819999993697      50.000000000000
       199    1       71.859901258024      11.935000002638      50.000000000000
       200    1       74.813047890758      10.229999996013      50.000000000000
       201    1       77.766194512558       1.704999995691      50.000000000000
       202    1       80.719341145291       0.000000000000      50.000000000000
       203    1       77.766194512558       5.114999998006      50.000000000000
       204    1       80.719341145291       3.410000002316      50.000000000000
       205    1       77.766194512558       8.525000000322      50.000000000000
       206    1       80.719341145291       6.819999993697      50.000000000000
       207    1       77.766194512558      11.935000002638      50.000000000000
       208    1       80.719341145291      10.229999996013      50.000000000000
       209    2       70.875519054402       0.000000000000      50.000000000000
       210    2       73.828665676202       1.704999995691      50.000000000000
       211    2       70.875519054402       3.410000002316      50.000000000000
       212    2       73.828665676202       5.114999998006      50.000000000000
       213    2       70.875519054402       6.819999993697      50.000000000000
       214    2       73.828665676202       8.525000000322      50.000000000000
       215    2       70.875519054402      10.229999996013      50.000000000000
       216    2       73.828665676202      11.935000002638      50.000000000000
       217    2       76.781812308936       0.000000000000      50.000000000000
       218    2       79.734958930736       1.704999995691      50.000000000000
       219    2       76.781812308936       3.410000002316      50.000000000000
       220    2       79.734958930736       5.114999998006      50.000000000000
       221    2       76.781812308936       6.819999993697      50.000000000000
       222    2       79.734958930736       8.525000000322      50.000000000000
       223    2       76.781812308936      10.229999996013      50.000000000000
       224    2       79.734958930736      11.935000002638      50.000000000000
       225    1       83.672487767091       1.704999995691      50.000000000000
       226    1       86.625634399825       0.000000000000      50.000000000000
       227    1       83.672487767091       5.114999998006      50.000000000000
       228    1       86.625634399825       3.410000002316      50.000000000000
       229    1       83.672487767091       8.525000000322      50.000000000000
       230    1       86.625634399825       6.819999993697      50.000000000000
       231    1       83.672487767091      11.935000002638      50.000000000000
       232    1       86.625634399825      10.229999996013      50.000000000000
       233    1       89.578781021625       1.704999995691      50.000000000000
       234    1       92.531927654358       0.000000000000      50.000000000000
       235    1       89.578781021625       5.114999998006      50.000000000000
       236    1       92.531927654358       3.410000002316      50.000000000000
       237    1       89.578781021625       8.525000000322      50.000000000000
       238    1       92.531927654358       6.819999993697      50.000000000000
       239    1       89.578781021625      11.935000002638      50.000000000000
       240    1       92.531927654358      10.229999996013      50.000000000000
       241    2       82.688105563469       0.000000000000      50.000000000000
       242    2       85.641252185269       1.704999995691      50.000000000000
       243    2       82.688105563469       3.410000002316      50.000000000000
       244    2       85.641252185269       5.114999998006      50.000000000000
       245    2       82.688105563469       6.819999993697      50.000000000000
       246    2       85.641252185269       8.525000000322      50.000000000000
       247    2       82.688105563469      10.229999996013      50.000000000000
       248    2       85.641252185269      11.935000002638      50.000000000000
       249    2       88.594398818003       0.000000000000      50.000000000000
       250    2       91.547545439803       1.704999995691      50.000000000000
       251    2       88.594398818003       3.410000002316      50.000000000000
       252    2       91.547545439803       5.114999998006      50.000000000000
       253    2       88.594398818003       6.819999993697      50.000000000000
       254    2       91.547545439803       8.525000000322      50.000000000000
       255    2       88.594398818003      10.229999996013      50.000000000000
       256    2       91.547545439803      11.935000002638      50.000000000000
       257    1       95.485074276158       1.704999995691      50.000000000000
       258    1       98.438220908892       0.000000000000      50.000000000000
       259    1       95.485074276158       5.114999998006      50.000000000000
       260    1       98.438220908892       3.410000002316      50.000000000000
       261    1       95.485074276158       8.525000000322      50.000000000000
       262    1       98.438220908892       6.819999993697      50.000000000000
       263    1       95.485074276158      11.935000002638      50.000000000000
       264    1       98.438220908892      10.229999996013      50.000000000000
       265    1      101.391367530692       1.704999995691      50.000000000000
       266    1      104.344514163425       0.000000000000      50.000000000000
       267    1      101.391367530692       5.114999998006      50.000000000000
       268    1      104.344514163425       3.410000002316      50.000000000000
       269    1      101.391367530692       8.525000000322      50.000000000000
       270    1      104.344514163425       6.819999993697      50.000000000000
       271    1      101.391367530692      11.935000002638      50.000000000000
       272    1      104.344514163425      10.229999996013      50.000000000000
       273    2       94.500692072536       0.000000000000      50.000000000000
       274    2       97.453838694336       1.704999995691      50.000000000000
       275    2       94.500692072536       3.410000002316      50.000000000000
       276    2       97.453838694336       5.114999998006      50.000000000000
       277    2       94.500692072536       6.819999993697      50.000000000000
       278    2       97.453838694336       8.525000000322      50.000000000000
       279    2       94.500692072536      10.229999996013      50.000000000000
       280    2       97.453838694336      11.935000002638      50.000000000000
       281    2      100.406985327070       0.000000000000      50.000000000000
       282    2      103.360131948870       1.704999995691      50.000000000000
       283    2      100.406985327070       3.410000002316      50.000000000000
       284    2      103.360131948870       5.114999998006      50.000000000000
       285    2      100.406985327070       6.819999993697      50.000000000000
       286    2      103.360131948870       8.525000000322      50.000000000000
       287    2      100.406985327070      10.229999996013      50.000000000000
       288    2      103.360131948870      11.935000002638      50.000000000000
       289    1      107.297660785225       1.704999995691      50.000000000000
       290    1      110.250807417959       0.000000000000      50.000000000000
       291    1      107.297660785225       5.114999998006      50.000000000000
       292    1      110.250807417959       3.410000002316      50.000000000000
       293    1      107.297660785225       8.525000000322      50.000000000000
       294    1      110.250807417959       6.819999993697      50.000000000000
       295    1      107.297660785225      11.935000002638      50.000000000000
       296    1      110.250807417959      10.229999996013      50.000000000000
       297    1      113.203954039759       1.704999995691      50.000000000000
       298    1      116.157100672492       0.000000000000      50.000000000000
       299    1      113.203954039759       5.114999998006      50.000000000000
       300    1      116.157100672492       3.410000002316      50.000000000000
       301    1      113.203954039759       8.525000000322      50.000000000000
       302    1      116.157100672492       6.819999993697      50.000000000000
       303    1      113.203954039759      11.935000002638      50.000000000000
       304    1      116.157100672492      10.229999996013      50.000000000000
       305    2      106.313278581603       0.000000000000      50.000000000000
       306    2      109.266425203403       1.704999995691      50.000000000000
       307    2      106.313278581603       3.410000002316      50.000000000000
       308    2      109.266425203403       5.114999998006      50.000000000000
       309    2      106.313278581603       6.819999993697      50.000000000000
       310    2      109.266425203403       8.525000000322      50.000000000000
       311    2      106.313278581603      10.229999996013      50.000000000000
       312    2      109.266425203403      11.935000002638      50.000000000000
       313    2      112.219571836137       0.000000000000      50.000000000000
       314    2      115.172718457937       1.704999995691      50.000000000000
       315    2      112.219571836137       3.410000002316      50.000000000000
       316    2      115.172718457937       5.114999998006      50.000000000000
       317    2      112.219571836137       6.819999993697      50.000000000000
       318    2      115.172718457937       8.525000000322      50.000000000000
       319    2      112.219571836137      10.229999996013      50.000000000000
       320    2      115.172718457937      11.935000002638      50.000000000000
       321    1      119.110247294292       1.704999995691      50.000000000000
       322    1      122.063393927026       0.000000000000      50.000000000000
       323    1      119.110247294292       5.114999998006      50.000000000000
       324    1      122.063393927026       3.410000002316      50.000000000000
       325    1      119.110247294292       8.525000000322      50.000000000000
       326    1      122.063393927026       6.819999993697      50.000000000000
       327    1      119.110247294292      11.935000002638      50.000000000000
       328    1      122.063393927026      10.229999996013      50.000000000000
       329    1      125.016540548826       1.704999995691      50.000000000000
       330    1      127.969687181559       0.000000000000      50.000000000000
       331    1      125.016540548826       5.114999998006      50.000000000000
       332    1      127.969687181559       3.410000002316      50.000000000000
       333    1      125.016540548826       8.525000000322      50.000000000000
       334    1      127.969687181559       6.819999993697      50.000000000000
       335    1      125.016540548826      11.935000002638      50.000000000000
       336    1      127.969687181559      10.229999996013      50.000000000000
       337    2      118.125865090670       0.000000000000      50.000000000000
       338    2      121.079011712470       1.704999995691      50.000000000000
       339    2      118.125865090670       3.410000002316      50.000000000000
       340    2      121.079011712470       5.114999998006      50.000000000000
       341    2      118.125865090670       6.819999993697      50.000000000000
       342    2      121.079011712470       8.525000000322      50.000000000000
       343    2      118.125865090670      10.229999996013      50.000000000000
       344    2      121.079011712470      11.935000002638      50.000000000000
       345    2      124.032158345204       0.000000000000      50.000000000000
       346    2      126.985304967004       1.704999995691      50.000000000000
       347    2      124.032158345204       3.410000002316      50.000000000000
       348    2      126.985304967004       5.114999998006      50.000000000000
       349    2      124.032158345204       6.819999993697      50.000000000000
       350    2      126.985304967004       8.525000000322      50.000000000000
       351    2      124.032158345204      10.229999996013      50.000000000000
       352    2      126.985304967004      11.935000002638      50.000000000000
       353    1      130.922833803359       1.704999995691      50.000000000000
       354    1      133.875980436093       0.000000000000      50.000000000000
       355    1      130.922833803359       5.114999998006      50.000000000000
       356    1      133.875980436093       3.410000002316      50.000000000000
       357    1      130.922833803359       8.525000000322      50.000000000000
       358    1      133.875980436093       6.819999993697      50.000000000000
       359    1      130.922833803359      11.935000002638      50.000000000000
       360    1      133.875980436093      10.229999996013      50.000000000000
       361    1      136.829127057893       1.704999995691      50.000000000000
       362    1      139.782273690626       0.000000000000      50.000000000000
       363    1      136.829127057893       5.114999998006      50.000000000000
       364    1      139.782273690626       3.410000002316      50.000000000000
       365    1      136.829127057893       8.525000000322      50.000000000000
       366    1      139.782273690626       6.819999993697      50.000000000000
       367    1      136.829127057893      11.935000002638      50.000000000000
       368    1      139.782273690626      10.229999996013      50.000000000000
       369    2      129.938451599737       0.000000000000      50.000000000000
       370    2      132.891598221537       1.704999995691      50.000000000000
       371    2      129.938451599737       3.410000002316      50.000000000000
       372    2      132.891598221537       5.114999998006      50.000000000000
       373    2      129.938451599737       6.819999993697      50.000000000000
       374    2      132.891598221537       8.525000000322      50.000000000000
       375    2      129.938451599737      10.229999996013      50.000000000000
       376    2      132.891598221537      11.935000002638      50.000000000000
       377    2      135.844744854271       0.000000000000      50.000000000000
       378    2      138.797891476071       1.704999995691      50.000000000000
       379    2      135.844744854271       3.410000002316      50.000000000000
       380    2      138.797891476071       5.114999998006      50.000000000000
       381    2      135.844744854271       6.819999993697      50.000000000000
       382    2      138.797891476071       8.525000000322      50.000000000000
       383    2      135.844744854271      10.229999996013      50.000000000000
       384    2      138.797891476071      11.935000002638      50.000000000000
       385    1      142.735420312426       1.704999995691      50.000000000000
       386    1      145.688566945160       0.000000000000      50.000000000000
       387    1      142.735420312426       5.114999998006      50.000000000000
       388    1      145.688566945160       3.410000002316      50.000000000000
       389    1      142.735420312426       8.525000000322      50.000000000000
       390    1      145.688566945160       6.819999993697      50.000000000000
       391    1      142.735420312426      11.935000002638      50.000000000000
       392    1      145.688566945160      10.229999996013      50.000000000000
       393    1      148.641713566960       1.704999995691      50.000000000000
       394    1      151.594860199693       0.000000000000      50.000000000000
       395    1      148.641713566960       5.114999998006      50.000000000000
       396    1      151.594860199693       3.410000002316      50.000000000000
       397    1      148.641713566960       8.525000000322      50.000000000000
       398    1      151.594860199693       6.819999993697      50.000000000000
       399    1      148.641713566960      11.935000002638      50.000000000000
       400    1      151.594860199693      10.229999996013      50.000000000000
       401    2      141.751038108804       0.000000000000      50.000000000000
       402    2      144.704184730604       1.704999995691      50.000000000000
       403    2      141.751038108804       3.410000002316      50.000000000000
       404    2      144.704184730604       5.114999998006      50.000000000000
       405    2      141.751038108804       6.819999993697      50.000000000000
       406    2      144.704184730604       8.525000000322      50.000000000000
       407    2      141.751038108804      10.229999996013      50.000000000000
       408    2      144.704184730604      11.935000002638      50.000000000000
       409    2      147.657331363338       0.000000000000      50.000000000000
       410    2      150.610477985138       1.704999995691      50.000000000000
       411    2      147.657331363338       3.410000002316      50.000000000000
       412    2      150.610477985138       5.114999998006      50.000000000000
       413    2      147.657331363338       6.819999993697      50.000000000000
       414    2      150.610477985138       8.525000000322      50.000000000000
       415    2      147.657331363338      10.229999996013      50.000000000000
       416    2      150.610477985138      11.935000002638      50.000000000000
       417    1      154.548006821493       1.704999995691      50.000000000000
       418    1      157.501153454227       0.000000000000      50.000000000000
       419    1      154.548006821493       5.114999998006      50.000000000000
       420    1      157.501153454227       3.410000002316      50.000000000000
       421    1      154.548006821493       8.525000000322      50.000000000000
       422    1      157.501153454227       6.819999993697      50.000000000000
       423    1      154.548006821493      11.935000002638      50.000000000000
       424    1      157.501153454227      10.229999996013      50.000000000000
       425    1      160.454300076027       1.704999995691      50.000000000000
       426    1      163.407446708760       0.000000000000      50.000000000000
       427    1      160.454300076027       5.114999998006      50.000000000000
       428    1      163.407446708760       3.410000002316      50.000000000000
       429    1      160.454300076027       8.525000000322      50.000000000000
       430    1      163.407446708760       6.819999993697      50.000000000000
       431    1      160.454300076027      11.935000002638      50.000000000000
       432    1      163.407446708760      10.229999996013      50.000000000000
       433    2      153.563624617871       0.000000000000      50.000000000000
       434    2      156.516771239671       1.704999995691      50.000000000000
       435    2      153.563624617871       3.410000002316      50.000000000000
       436    2      156.516771239671       5.114999998006      50.000000000000
       437    2      153.563624617871       6.819999993697      50.000000000000
       438    2      156.516771239671       8.525000000322      50.000000000000
       439    2      153.563624617871      10.229999996013      50.000000000000
       440    2      156.516771239671      11.935000002638      50.000000000000
       441    2      159.469917872405       0.000000000000      50.000000000000
       442    2      162.423064494205       1.704999995691      50.000000000000
       443    2      159.469917872405       3.410000002316      50.000000000000
       444    2      162.423064494205       5.114999998006      50.000000000000
       445    2      159.469917872405       6.819999993697      50.000000000000
       446    2      162.423064494205       8.525000000322      50.000000000000
       447    2      159.469917872405      10.229999996013      50.000000000000
       448    2      162.423064494205      11.935000002638      50.000000000000
       449    1      166.360593330560       1.704999995691      50.000000000000
       450    1      169.313739963294       0.000000000000      50.000000000000
       451    1      166.360593330560       5.114999998006      50.000000000000
       452    1      169.313739963294       3.410000002316      50.000000000000
       453    1      166.360593330560       8.525000000322      50.000000000000
       454    1      169.313739963294       6.819999993697      50.000000000000
       455    1      166.360593330560      11.935000002638      50.000000000000
       456    1      169.313739963294      10.229999996013      50.000000000000
       457    1      172.266886585094       1.704999995691      50.000000000000
       458    1      175.220033217827       0.000000000000      50.000000000000
       459    1      172.266886585094       5.114999998006      50.000000000000
       460    1      175.220033217827       3.410000002316      50.000000000000
       461    1      172.266886585094       8.525000000322      50.000000000000
       462    1      175.220033217827       6.819999993697      50.000000000000
       463    1      172.266886585094      11.935000002638      50.000000000000
       464    1      175.220033217827      10.229999996013      50.000000000000
       465    2      165.376211126938       0.000000000000      50.000000000000
       466    2      168.329357748738       1.704999995691      50.000000000000
       467    2      165.376211126938       3.410000002316      50.000000000000
       468    2      168.329357748738       5.114999998006      50.000000000000
       469    2      165.376211126938       6.819999993697      50.000000000000
       470    2      168.329357748738       8.525000000322      50.000000000000
       471    2      165.376211126938      10.229999996013      50.000000000000
       472    2      168.329357748738      11.935000002638      50.000000000000
       473    2      171.282504381472       0.000000000000      50.000000000000
       474    2      174.235651003272       1.704999995691      50.000000000000
       475    2      171.282504381472       3.410000002316      50.000000000000
       476    2      174.235651003272       5.114999998006      50.000000000000
       477    2      171.282504381472       6.819999993697      50.000000000000
       478    2      174.235651003272       8.525000000322      50.000000000000
       479    2      171.282504381472      10.229999996013      50.000000000000
       480    2      174.235651003272      11.935000002638      50.000000000000
       481    1      178.173179839627       1.704999995691      50.000000000000
       482    1      181.126326472361       0.000000000000      50.000000000000
       483    1      178.173179839627       5.114999998006      50.000000000000
       484    1      181.126326472361       3.410000002316      50.000000000000
       485    1      178.173179839627       8.525000000322      50.000000000000
       486    1      181.126326472361       6.819999993697      50.000000000000
       487    1      178.173179839627      11.935000002638      50.000000000000
       488    1      181.126326472361      10.229999996013      50.000000000000
       489    1      184.079473094161       1.704999995691      50.000000000000
       490    1      187.032619726894       0.000000000000      50.000000000000
       491    1      184.079473094161       5.114999998006      50.000000000000
       492    1      187.032619726894       3.410000002316      50.000000000000
       493    1      184.079473094161       8.525000000322      50.000000000000
       494    1      187.032619726894       6.819999993697      50.000000000000
       495    1      184.079473094161      11.935000002638      50.000000000000
       496    1      187.032619726894      10.229999996013      50.000000000000
       497    2      177.188797636005       0.000000000000      50.000000000000
       498    2      180.141944257805       1.704999995691      50.000000000000
       499    2      177.188797636005       3.410000002316      50.000000000000
       500    2      180.141944257805       5.114999998006      50.000000000000
       501    2      177.188797636005       6.819999993697      50.000000000000
       502    2      180.141944257805       8.525000000322      50.000000000000
       503    2      177.188797636005      10.229999996013      50.000000000000
       504    2      180.141944257805      11.935000002638      50.000000000000
       505    2      183.095090890539       0.000000000000      50.000000000000
       506    2      186.048237512339       1.704999995691      50.000000000000
       507    2      183.095090890539       3.410000002316      50.000000000000
       508    2      186.048237512339       5.114999998006      50.000000000000
       509    2      183.095090890539       6.819999993697      50.000000000000
       510    2      186.048237512339       8.525000000322      50.000000000000
       511    2      183.095090890539      10.229999996013      50.000000000000
       512    2      186.048237512339      11.935000002638      50.000000000000
       513    1      189.985766348694       1.704999995691      50.000000000000
       514    1      192.938912981428       0.000000000000      50.000000000000
       515    1      189.985766348694       5.114999998006      50.000000000000
       516    1      192.938912981428       3.410000002316      50.000000000000
       517    1      189.985766348694       8.525000000322      50.000000000000
       518    1      192.938912981428       6.819999993697      50.000000000000
       519    1      189.985766348694      11.935000002638      50.000000000000
       520    1      192.938912981428      10.229999996013      50.000000000000
       521    1      195.892059603228       1.704999995691      50.000000000000
       522    1      198.845206235961       0.000000000000      50.000000000000
       523    1      195.892059603228       5.114999998006      50.000000000000
       524    1      198.845206235961       3.410000002316      50.000000000000
       525    1      195.892059603228       8.525000000322      50.000000000000
       526    1      198.845206235961       6.819999993697      50.000000000000
       527    1      195.892059603228      11.935000002638      50.000000000000
       528    1      198.845206235961      10.229999996013      50.000000000000
       529    2      189.001384145072       0.000000000000      50.000000000000
       530    2      191.954530766872       1.704999995691      50.000000000000
       531    2      189.001384145072       3.410000002316      50.000000000000
       532    2      191.954530766872       5.114999998006      50.000000000000
       533    2      189.001384145072       6.819999993697      50.000000000000
       534    2      191.954530766872       8.525000000322      50.000000000000
       535    2      189.001384145072      10.229999996013      50.000000000000
       536    2      191.954530766872      11.935000002638      50.000000000000
       537    2      194.907677399606       0.000000000000      50.000000000000
       538    2      197.860824021406       1.704999995691      50.000000000000
       539    2      194.907677399606       3.410000002316      50.000000000000
       540    2      197.860824021406       5.114999998006      50.000000000000
       541    2      194.907677399606       6.819999993697      50.000000000000
       542    2      197.860824021406       8.525000000322      50.000000000000
       543    2      194.907677399606      10.229999996013      50.000000000000
       544    2      197.860824021406      11.935000002638      50.000000000000
       545    1      201.798352857761       1.704999995691      50.000000000000
       546    1      204.751499490495       0.000000000000      50.000000000000
       547    1      201.798352857761       5.114999998006      50.000000000000
       548    1      204.751499490495       3.410000002316      50.000000000000
       549    1      201.798352857761       8.525000000322      50.000000000000
       550    1      204.751499490495       6.819999993697      50.000000000000
       551    1      201.798352857761      11.935000002638      50.000000000000
       552    1      204.751499490495      10.229999996013      50.000000000000
       553    1      207.704646112295       1.704999995691      50.000000000000
       554    1      210.657792745028       0.000000000000      50.000000000000
       555    1      207.704646112295       5.114999998006      50.000000000000
       556    1      210.657792745028       3.410000002316      50.000000000000
       557    1      207.704646112295       8.525000000322      50.000000000000
       558    1      210.657792745028       6.819999993697      50.000000000000
       559    1      207.704646112295      11.935000002638      50.000000000000
       560    1      210.657792745028      10.229999996013      50.000000000000
       561    2      200.813970654139       0.000000000000      50.000000000000
       562    2      203.767117275939       1.704999995691      50.000000000000
       563    2      200.813970654139       3.410000002316      50.000000000000
       564    2      203.767117275939       5.114999998006      50.000000000000
       565    2      200.813970654139       6.819999993697      50.000000000000
       566    2      203.767117275939       8.525000000322      50.000000000000
       567    2      200.813970654139      10.229999996013      50.000000000000
       568    2      203.767117275939      11.935000002638      50.000000000000
       569    2      206.720263908673       0.000000000000      50.000000000000
       570    2      209.673410530473       1.704999995691      50.000000000000
       571    2      206.720263908673       3.410000002316      50.000000000000
       572    2      209.673410530473       5.114999998006      50.000000000000
       573    2      206.720263908673       6.819999993697      50.000000000000
       574    2      209.673410530473       8.525000000322      50.000000000000
       575    2      206.720263908673      10.229999996013      50.000000000000
       576    2      209.673410530473      11.935000002638      50.000000000000
       577    1      213.610939366828       1.704999995691      50.000000000000
       578    1      216.564085999562       0.000000000000      50.000000000000
       579    1      213.610939366828       5.114999998006      50.000000000000
       580    1      216.564085999562       3.410000002316      50.000000000000
       581    1      213.610939366828       8.525000000322      50.000000000000
       582    1      216.564085999562       6.819999993697      50.000000000000
       583    1      213.610939366828      11.935000002638      50.000000000000
       584    1      216.564085999562      10.229999996013      50.000000000000
       585    1      219.517232621362       1.704999995691      50.000000000000
       586    1      222.470379254095       0.000000000000      50.000000000000
       587    1      219.517232621362       5.114999998006      50.000000000000
       588    1      222.470379254095       3.410000002316      50.000000000000
       589    1      219.517232621362       8.525000000322      50.000000000000
       590    1      222.470379254095       6.819999993697      50.000000000000
       591    1      219.517232621362      11.935000002638      50.000000000000
       592    1      222.470379254095      10.229999996013      50.000000000000
       593    2      212.626557163206       0.000000000000      50.000000000000
       594    2      215.579703785006       1.704999995691      50.000000000000
       595    2      212.626557163206       3.410000002316      50.000000000000
       596    2      215.579703785006       5.114999998006      50.000000000000
       597    2      212.626557163206       6.819999993697      50.000000000000
       598    2      215.579703785006       8.525000000322      50.000000000000
       599    2      212.626557163206      10.229999996013      50.000000000000
       600    2      215.579703785006      11.935000002638      50.000000000000
       601    2      218.532850417740       0.000000000000      50.000000000000
       602    2      221.485997039540       1.704999995691      50.000000000000
       603    2      218.532850417740       3.410000002316      50.000000000000
       604    2      221.485997039540       5.114999998006      50.000000000000
       605    2      218.532850417740       6.819999993697      50.000000000000
       606    2      221.485997039540       8.525000000322      50.000000000000
       607    2      218.532850417740      10.229999996013      50.000000000000
       608    2      221.485997039540      11.935000002638      50.000000000000
       609    1      225.423525875895       1.704999995691      50.000000000000
       610    1      228.376672508629       0.000000000000      50.000000000000
       611    1      225.423525875895       5.114999998006      50.000000000000
       612    1      228.376672508629       3.410000002316      50.000000000000
       613    1      225.423525875895       8.525000000322      50.000000000000
       614    1      228.376672508629       6.819999993697      50.000000000000
       615    1      225.423525875895      11.935000002638      50.000000000000
       616    1      228.376672508629      10.229999996013      50.000000000000
       617    1      231.329819130429       1.704999995691      50.000000000000
       618    1      234.282965763162       0.000000000000      50.000000000000
       619    1      231.329819130429       5.114999998006      50.000000000000
       620    1      234.282965763162       3.410000002316      50.000000000000
       621    1      231.329819130429       8.525000000322      50.000000000000
       622    1      234.282965763162       6.819999993697      50.000000000000
       623    1      231.329819130429      11.935000002638      50.000000000000
       624    1      234.282965763162      10.229999996013      50.000000000000
       625    2      224.439143672273       0.000000000000      50.000000000000
       626    2      227.392290294073       1.704999995691      50.000000000000
       627    2      224.439143672273       3.410000002316      50.000000000000
       628    2      227.392290294073       5.114999998006      50.000000000000
       629    2      224.439143672273       6.819999993697      50.000000000000
       630    2      227.392290294073       8.525000000322      50.000000000000
       631    2      224.439143672273      10.229999996013      50.000000000000
       632    2      227.392290294073      11.935000002638      50.000000000000
       633    2      230.345436926807       0.000000000000      50.000000000000
       634    2      233.298583548607       1.704999995691      50.000000000000
       635    2      230.345436926807       3.410000002316      50.000000000000
       636    2      233.298583548607       5.114999998006      50.000000000000
       637    2      230.345436926807       6.819999993697      50.000000000000
       638    2      233.298583548607       8.525000000322      50.000000000000
       639    2      230.345436926807      10.229999996013      50.000000000000
       640    2      233.298583548607      11.935000002638      50.000000000000
       641    1      237.236112384962       1.704999995691      50.000000000000
       642    1      240.189259017696       0.000000000000      50.000000000000
       643    1      237.236112384962       5.114999998006      50.000000000000
       644    1      240.189259017696       3.410000002316      50.000000000000
       645    1      237.236112384962       8.525000000322      50.000000000000
       646    1      240.189259017696       6.819999993697      50.000000000000
       647    1      237.236112384962      11.935000002638      50.000000000000
       648    1      240.189259017696      10.229999996013      50.000000000000
       649    1      243.142405639496       1.704999995691      50.000000000000
       650    1      246.095552272229       0.000000000000      50.000000000000
       651    1      243.142405639496       5.114999998006      50.000000000000
       652    1      246.095552272229       3.410000002316      50.000000000000
       653    1      243.142405639496       8.525000000322      50.000000000000
       654    1      246.095552272229       6.819999993697      50.000000000000
       655    1      243.142405639496      11.935000002638      50.000000000000
       656    1      246.095552272229      10.229999996013      50.000000000000
       657    2      236.251730181340       0.000000000000      50.000000000000
       658    2      239.204876803140       1.704999995691      50.000000000000
       659    2      236.251730181340       3.410000002316      50.000000000000
       660    2      239.204876803140       5.114999998006      50.000000000000
       661    2      236.251730181340       6.819999993697      50.000000000000
       662    2      239.204876803140       8.525000000322      50.000000000000
       663    2      236.251730181340      10.229999996013      50.000000000000
       664    2      239.204876803140      11.935000002638      50.000000000000
       665    2      242.158023435874       0.000000000000      50.000000000000
       666    2      245.111170057674       1.704999995691      50.000000000000
       667    2      242.158023435874       3.410000002316      50.000000000000
       668    2      245.111170057674       5.114999998006      50.000000000000
       669    2      242.158023435874       6.819999993697      50.000000000000
       670    2      245.111170057674       8.525000000322      50.000000000000
       671    2      242.158023435874      10.229999996013      50.000000000000
       672    2      245.111170057674      11.935000002638      50.000000000000
       673    1      249.048698894029       1.704999995691      50.000000000000
       674    1      252.001845526763       0.000000000000      50.000000000000
       675    1      249.048698894029       5.114999998006      50.000000000000
       676    1      252.001845526763       3.410000002316      50.000000000000
       677    1      249.048698894029       8.525000000322      50.000000000000
       678    1      252.001845526763       6.819999993697      50.000000000000
       679    1      249.048698894029      11.935000002638      50.000000000000
       680    1      252.001845526763      10.229999996013      50.000000000000
       681    1      254.954992148563       1.704999995691      50.000000000000
       682    1      257.908138781296       0.000000000000      50.000000000000
       683    1      254.954992148563       5.114999998006      50.000000000000
       684    1      257.908138781296       3.410000002316      50.000000000000
       685    1      254.954992148563       8.525000000322      50.000000000000
       686    1      257.908138781296       6.819999993697      50.000000000000
       687    1      254.954992148563      11.935000002638      50.000000000000
       688    1      257.908138781296      10.229999996013      50.000000000000
       689    2      248.064316690407       0.000000000000      50.000000000000
       690    2      251.017463312207       1.704999995691      50.000000000000
       691    2      248.064316690407       3.410000002316      50.000000000000
       692    2      251.017463312207       5.114999998006      50.000000000000
       693    2      248.064316690407       6.819999993697      50.000000000000
       694    2      251.017463312207       8.525000000322      50.000000000000
       695    2      248.064316690407      10.229999996013      50.000000000000
       696    2      251.017463312207      11.935000002638      50.000000000000
       697    2      253.970609944941       0.000000000000      50.000000000000
       698    2      256.923756566741       1.704999995691      50.000000000000
       699    2      253.970609944941       3.410000002316      50.000000000000
       700    2      256.923756566741       5.114999998006      50.000000000000
       701    2      253.970609944941       6.819999993697      50.000000000000
       702    2      256.923756566741       8.525000000322      50.000000000000
       703    2      253.970609944941      10.229999996013      50.000000000000
       704    2      256.923756566741      11.935000002638      50.000000000000
       705    1        0.984382203622      15.344999994019      50.000000000000
       706    1        3.937528836356      13.639999998328      50.000000000000
       707    1        0.984382203622      18.754999996334      50.000000000000
       708    1        3.937528836356      17.050000000644      50.000000000000
       709    1        0.984382203622      22.164999998650      50.000000000000
       710    1        3.937528836356      20.459999992025      50.000000000000
       711    1        0.984382203622      25.575000000966      50.000000000000
       712    1        3.937528836356      23.869999994341      50.000000000000
       713    1        6.890675458156      15.344999994019      50.000000000000
       714    1        9.843822090889      13.639999998328      50.000000000000
       715    1        6.890675458156      18.754999996334      50.000000000000
       716    1        9.843822090889      17.050000000644      50.000000000000
       717    1        6.890675458156      22.164999998650      50.000000000000
       718    1        9.843822090889      20.459999992025      50.000000000000
       719    1        6.890675458156      25.575000000966      50.000000000000
       720    1        9.843822090889      23.869999994341      50.000000000000
       721    2        0.000000000000      13.639999998328      50.000000000000
       722    2        2.953146621800      15.344999994019      50.000000000000
       723    2        0.000000000000      17.050000000644      50.000000000000
       724    2        2.953146621800      18.754999996334      50.000000000000
       725    2        0.000000000000      20.459999992025      50.000000000000
       726    2        2.953146621800      22.164999998650      50.000000000000
       727    2        0.000000000000      23.869999994341      50.000000000000
       728    2        2.953146621800      25.575000000966      50.000000000000
       729    2        5.906293254534      13.639999998328      50.000000000000
       730    2        8.859439876334      15.344999994019      50.000000000000
       731    2        5.906293254534      17.050000000644      50.000000000000
       732    2        8.859439876334      18.754999996334      50.000000000000
       733    2        5.906293254534      20.459999992025      50.000000000000
       734    2        8.859439876334      22.164999998650      50.000000000000
       735    2        5.906293254534      23.869999994341      50.000000000000
       736    2        8.859439876334      25.575000000966      50.000000000000
       737    1       12.796968712689      15.344999994019      50.000000000000
       738    1       15.750115345423      13.639999998328      50.000000000000
       739    1       12.796968712689      18.754999996334      50.000000000000
       740    1       15.750115345423      17.050000000644      50.000000000000
       741    1       12.796968712689      22.164999998650      50.000000000000
       742    1       15.750115345423      20.459999992025      50.000000000000
       743    1       12.796968712689      25.575000000966      50.000000000000
       744    1       15.750115345423      23.869999994341      50.000000000000
       745    1       18.703261967223      15.344999994019      50.000000000000
       746    1       21.656408599956      13.639999998328      50.000000000000
       747    1       18.703261967223      18.754999996334      50.000000000000
       748    1       21.656408599956      17.050000000644      50.000000000000
       749    1       18.703261967223      22.164999998650      50.000000000000
       750    1       21.656408599956      20.459999992025      50.000000000000
       751    1       18.703261967223      25.575000000966      50.000000000000
       752    1       21.656408599956      23.869999994341      50.000000000000
       753    2       11.812586509067      13.639999998328      50.000000000000
       754    2       14.765733130867      15.344999994019      50.000000000000
       755    2       11.812586509067      17.050000000644      50.000000000000
       756    2       14.765733130867      18.754999996334      50.000000000000
       757    2       11.812586509067      20.459999992025      50.000000000000
       758    2       14.765733130867      22.164999998650      50.000000000000
       759    2       11.812586509067      23.869999994341      50.000000000000
       760    2       14.765733130867      25.575000000966      50.000000000000
       761    2       17.718879763601      13.639999998328      50.000000000000
       762    2       20.672026385401      15.344999994019      50.000000000000
       763    2       17.718879763601      17.050000000644      50.000000000000
       764    2       20.672026385401      18.754999996334      50.000000000000
       765    2       17.718879763601      20.459999992025      50.000000000000
       766    2       20.672026385401      22.164999998650      50.000000000000
       767    2       17.718879763601      23.869999994341      50.000000000000
       768    2       20.672026385401      25.575000000966      50.000000000000
       769    1       24.609555221756      15.344999994019      50.000000000000
       770    1       27.562701854490      13.639999998328      50.000000000000
       771    1       24.609555221756      18.754999996334      50.000000000000
       772    1       27.562701854490      17.050000000644      50.000000000000
       773    1       24.609555221756      22.164999998650      50.000000000000
       774    1       27.562701854490      20.459999992025      50.000000000000
       775    1       24.609555221756      25.575000000966      50.000000000000
       776    1       27.562701854490      23.869999994341      50.000000000000
       777    1       30.515848476290      15.344999994019      50.000000000000
       778    1       33.468995109023      13.639999998328      50.000000000000
       779    1       30.515848476290      18.754999996334      50.000000000000
       780    1       33.468995109023      17.050000000644      50.000000000000
       781    1       30.515848476290      22.164999998650      50.000000000000
       782    1       33.468995109023      20.459999992025      50.000000000000
       783    1       30.515848476290      25.575000000966      50.000000000000
       784    1       33.468995109023      23.869999994341      50.000000000000
       785    2       23.625173018134      13.639999998328      50.000000000000
       786    2       26.578319639934      15.344999994019      50.000000000000
       787    2       23.625173018134      17.050000000644      50.000000000000
       788    2       26.578319639934      18.754999996334      50.000000000000
       789    2       23.625173018134      20.459999992025      50.000000000000
       790    2       26.578319639934      22.164999998650      50.000000000000
       791    2       23.625173018134      23.869999994341      50.000000000000
       792    2       26.578319639934      25.575000000966      50.000000000000
       793    2       29.531466272668      13.639999998328      50.000000000000
       794    2       32.484612894468      15.344999994019      50.000000000000
       795    2       29.531466272668      17.050000000644      50.000000000000
       796    2       32.484612894468      18.754999996334      50.000000000000
       797    2       29.531466272668      20.459999992025      50.000000000000
       798    2       32.484612894468      22.164999998650      50.000000000000
       799    2       29.531466272668      23.869999994341      50.000000000000
       800    2       32.484612894468      25.575000000966      50.000000000000
       801    1       36.422141730823      15.344999994019      50.000000000000
       802    1       39.375288363557      13.639999998328      50.000000000000
       803    1       36.422141730823      18.754999996334      50.000000000000
       804    1       39.375288363557      17.050000000644      50.000000000000
       805    1       36.422141730823      22.164999998650      50.000000000000
       806    1       39.375288363557      20.459999992025      50.000000000000
       807    1       36.422141730823      25.575000000966      50.000000000000
       808    1       39.375288363557      23.869999994341      50.000000000000
       809    1       42.328434985357      15.344999994019      50.000000000000
       810    1       45.281581618090      13.639999998328      50.000000000000
       811    1       42.328434985357      18.754999996334      50.000000000000
       812    1       45.281581618090      17.050000000644      50.000000000000
       813    1       42.328434985357      22.164999998650      50.000000000000
       814    1       45.281581618090      20.459999992025      50.000000000000
       815    1       42.328434985357      25.575000000966      50.000000000000
       816    1       45.281581618090      23.869999994341      50.000000000000
       817    2       35.437759527201      13.639999998328      50.000000000000
       818    2       38.390906149001      15.344999994019      50.000000000000
       819    2       35.437759527201      17.050000000644      50.000000000000
       820    2       38.390906149001      18.754999996334      50.000000000000
       821    2       35.437759527201      20.459999992025      50.000000000000
       822    2       38.390906149001      22.164999998650      50.000000000000
       823    2       35.437759527201      23.869999994341      50.000000000000
       824    2       38.390906149001      25.575000000966      50.000000000000
       825    2       41.344052781735      13.639999998328      50.000000000000
       826    2       44.297199403535      15.344999994019      50.000000000000
       827    2       41.344052781735      17.050000000644      50.000000000000
       828    2       44.297199403535      18.754999996334      50.000000000000
       829    2       41.344052781735      20.459999992025      50.000000000000
       830    2       44.297199403535      22.164999998650      50.000000000000
       831    2       41.344052781735      23.869999994341      50.000000000000
       832    2       44.297199403535      25.575000000966      50.000000000000
       833    1       48.234728239890      15.344999994019      50.000000000000
       834    1       51.187874872624      13.639999998328      50.000000000000
       835    1       48.234728239890      18.754999996334      50.000000000000
       836    1       51.187874872624      17.050000000644      50.000000000000
       837    1       48.234728239890      22.164999998650      50.000000000000
       838    1       51.187874872624      20.459999992025      50.000000000000
       839    1       48.234728239890      25.575000000966      50.000000000000
       840    1       51.187874872624      23.869999994341      50.000000000000
       841    1       54.141021494424      15.344999994019      50.000000000000
       842    1       57.094168127157      13.639999998328      50.000000000000
       843    1       54.141021494424      18.754999996334      50.000000000000
       844    1       57.094168127157      17.050000000644      50.000000000000
       845    1       54.141021494424      22.164999998650      50.000000000000
       846    1       57.094168127157      20.459999992025      50.000000000000
       847    1       54.141021494424      25.575000000966      50.000000000000
       848    1       57.094168127157      23.869999994341      50.000000000000
       849    2       47.250346036268      13.639999998328      50.000000000000
       850    2       50.203492658068      15.344999994019      50.000000000000
       851    2       47.250346036268      17.050000000644      50.000000000000
       852    2       50.203492658068      18.754999996334      50.000000000000
       853    2       47.250346036268      20.459999992025      50.000000000000
       854    2       50.203492658068      22.164999998650      50.000000000000
       855    2       47.250346036268      23.869999994341      50.000000000000
       856    2       50.203492658068      25.575000000966      50.000000000000
       857    2       53.156639290802      13.639999998328      50.000000000000
       858    2       56.109785912602      15.344999994019      50.000000000000
       859    2       53.156639290802      17.050000000644      50.000000000000
       860    2       56.109785912602      18.754999996334      50.000000000000
       861    2       53.156639290802      20.459999992025      50.000000000000
       862    2       56.109785912602      22.164999998650      50.000000000000
       863    2       53.156639290802      23.869999994341      50.000000000000
       864    2       56.109785912602      25.575000000966      50.000000000000
       865    1       60.047314748957      15.344999994019      50.000000000000
       866    1       63.000461381691      13.639999998328      50.000000000000
       867    1       60.047314748957      18.754999996334      50.000000000000
       868    1       63.000461381691      17.050000000644      50.000000000000
       869    1       60.047314748957      22.164999998650      50.000000000000
       870    1       63.000461381691      20.459999992025      50.000000000000
       871    1       60.047314748957      25.575000000966      50.000000000000
       872    1       63.000461381691      23.869999994341      50.000000000000
       873    1       65.953608003491      15.344999994019      50.000000000000
       874    1       68.906754636224      13.639999998328      50.000000000000
       875    1       65.953608003491      18.754999996334      50.000000000000
       876    1       68.906754636224      17.050000000644      50.000000000000
       877    1       65.953608003491      22.164999998650      50.000000000000
       878    1       68.906754636224      20.459999992025      50.000000000000
       879    1       65.953608003491      25.575000000966      50.000000000000
       880    1       68.906754636224      23.869999994341      50.000000000000
       881    2       59.062932545335      13.639999998328      50.000000000000
       882    2       62.016079167135      15.344999994019      50.000000000000
       883    2       59.062932545335      17.050000000644      50.000000000000
       884    2       62.016079167135      18.754999996334      50.000000000000
       885    2       59.062932545335      20.459999992025      50.000000000000
       886    2       62.016079167135      22.164999998650      50.000000000000
       887    2       59.062932545335      23.869999994341      50.000000000000
       888    2       62.016079167135      25.575000000966      50.000000000000
       889    2       64.969225799869      13.639999998328      50.000000000000
       890    2       67.922372421669      15.344999994019      50.000000000000
       891    2       64.969225799869      17.050000000644      50.000000000000
       892    2       67.922372421669      18.754999996334      50.000000000000
       893    2       64.969225799869      20.459999992025      50.000000000000
       894    2       67.922372421669      22.164999998650      50.000000000000
       895    2       64.969225799869      23.869999994341      50.000000000000
       896    2       67.922372421669      25.575000000966      50.000000000000
       897    1       71.859901258024      15.344999994019      50.000000000000
       898    1       74.813047890758      13.639999998328      50.000000000000
       899    1       71.859901258024      18.754999996334      50.000000000000
       900    1       74.813047890758      17.050000000644      50.000000000000
       901    1       71.859901258024      22.164999998650      50.000000000000
       902    1       74.813047890758      20.459999992025      50.000000000000
       903    1       71.859901258024      25.575000000966      50.000000000000
       904    1       74.813047890758      23.869999994341      50.000000000000
       905    1       77.766194512558      15.344999994019      50.000000000000
       906    1       80.719341145291      13.639999998328      50.000000000000
       907    1       77.766194512558      18.754999996334      50.000000000000
       908    1       80.719341145291      17.050000000644      50.000000000000
       909    1       77.766194512558      22.164999998650      50.000000000000
       910    1       80.719341145291      20.459999992025      50.000000000000
       911    1       77.766194512558      25.575000000966      50.000000000000
       912    1       80.719341145291      23.869999994341      50.000000000000
       913    2       70.875519054402      13.639999998328      50.000000000000
       914    2       73.828665676202      15.344999994019      50.000000000000
       915    2       70.875519054402      17.050000000644      50.000000000000
       916    2       73.828665676202      18.754999996334      50.000000000000
       917    2       70.875519054402      20.459999992025      50.000000000000
       918    2       73.828665676202      22.164999998650      50.000000000000
       919    2       70.875519054402      23.869999994341      50.000000000000
       920    2       73.828665676202      25.575000000966      50.000000000000
       921    2       76.781812308936      13.639999998328      50.000000000000
       922    2       79.734958930736      15.344999994019      50.000000000000
       923    2       76.781812308936      17.050000000644      50.000000000000
       924    2       79.734958930736      18.754999996334      50.000000000000
       925    2       76.781812308936      20.459999992025      50.000000000000
       926    2       79.734958930736      22.164999998650      50.000000000000
       927    2       76.781812308936      23.869999994341      50.000000000000
       928    2       79.734958930736      25.575000000966      50.000000000000
       929    1       83.672487767091      15.344999994019      50.000000000000
       930    1       86.625634399825      13.639999998328      50.000000000000
       931    1       83.672487767091      18.754999996334      50.000000000000
       932    1       86.625634399825      17.050000000644      50.000000000000
       933    1       83.672487767091      22.164999998650      50.000000000000
       934    1       86.625634399825      20.459999992025      50.000000000000
       935    1       83.672487767091      25.575000000966      50.000000000000
       936    1       86.625634399825      23.869999994341      50.000000000000
       937    1       89.578781021625      15.344999994019      50.000000000000
       938    1       92.531927654358      13.639999998328      50.000000000000
       939    1       89.578781021625      18.754999996334      50.000000000000
       940    1       92.531927654358      17.050000000644      50.000000000000
       941    1       89.578781021625      22.164999998650      50.000000000000
       942    1       92.531927654358      20.459999992025      50.000000000000
       943    1       89.578781021625      25.575000000966      50.000000000000
       944    1       92.531927654358      23.869999994341      50.000000000000
       945    2       82.688105563469      13.639999998328      50.000000000000
       946    2       85.641252185269      15.344999994019      50.000000000000
       947    2       82.688105563469      17.050000000644      50.000000000000
       948    2       85.641252185269      18.754999996334      50.000000000000
       949    2       82.688105563469      20.459999992025      50.000000000000
       950    2       85.641252185269      22.164999998650      50.000000000000
       951    2       82.688105563469      23.869999994341      50.000000000000
       952    2       85.641252185269      25.575000000966      50.000000000000
       953    2       88.594398818003      13.639999998328      50.000000000000
       954    2       91.547545439803      15.344999994019      50.000000000000
       955    2       88.594398818003      17.050000000644      50.000000000000
       956    2       91.547545439803      18.754999996334      50.000000000000
       957    2       88.594398818003      20.459999992025      50.000000000000
       958    2       91.547545439803      22.164999998650      50.000000000000
       959    2       88.594398818003      23.869999994341      50.000000000000
       960    2       91.547545439803      25.575000000966      50.000000000000
       961    1       95.485074276158      15.344999994019      50.000000000000
       962    1       98.438220908892      13.639999998328      50.000000000000
       963    1       95.485074276158      18.754999996334      50.000000000000
       964    1       98.438220908892      17.050000000644      50.000000000000
       965    1       95.485074276158      22.164999998650      50.000000000000
       966    1       98.438220908892      20.459999992025      50.000000000000
       967    1       95.485074276158      25.575000000966      50.000000000000
       968    1       98.438220908892      23.869999994341      50.000000000000
       969    1      101.391367530692      15.344999994019      50.000000000000
       970    1      104.344514163425      13.639999998328      50.000000000000
       971    1      101.391367530692      18.754999996334      50.000000000000
       972    1      104.344514163425      17.050000000644      50.000000000000
       973    1      101.391367530692      22.164999998650      50.000000000000
       974    1      104.344514163425      20.459999992025      50.000000000000
       975    1      101.391367530692      25.575000000966      50.000000000000
       976    1      104.344514163425      23.869999994341      50.000000000000
       977    2       94.500692072536      13.639999998328      50.000000000000
       978    2       97.453838694336      15.344999994019      50.000000000000
       979    2       94.500692072536      17.050000000644      50.000000000000
       980    2       97.453838694336      18.754999996334      50.000000000000
       981    2       94.500692072536      20.459999992025      50.000000000000
       982    2       97.453838694336      22.164999998650      50.000000000000
       983    2       94.500692072536      23.869999994341      50.000000000000
       984    2       97.453838694336      25.575000000966      50.000000000000
       985    2      100.406985327070      13.639999998328      50.000000000000
       986    2      103.360131948870      15.344999994019      50.000000000000
       987    2      100.406985327070      17.050000000644      50.000000000000
       988    2      103.360131948870      18.754999996334      50.000000000000
       989    2      100.406985327070      20.459999992025      50.000000000000
       990    2      103.360131948870      22.164999998650      50.000000000000
       991    2      100.406985327070      23.869999994341      50.000000000000
       992    2      103.360131948870      25.575000000966      50.000000000000
       993    1      107.297660785225      15.344999994019      50.000000000000
       994    1      110.250807417959      13.639999998328      50.000000000000
       995    1      107.297660785225      18.754999996334      50.000000000000
       996    1      110.250807417959      17.050000000644      50.000000000000
       997    1      107.297660785225      22.164999998650      50.000000000000
       998    1      110.250807417959      20.459999992025      50.000000000000
       999    1      107.297660785225      25.575000000966      50.000000000000
      1000    1      110.250807417959      23.869999994341      50.000000000000
      1001    1      113.203954039759      15.344999994019      50.000000000000
      1002    1      116.157100672492      13.639999998328      50.000000000000
      1003    1      113.203954039759      18.754999996334      50.000000000000
      1004    1      116.157100672492      17.050000000644      50.000000000000
      1005    1      113.203954039759      22.164999998650      50.000000000000
      1006    1      116.157100672492      20.459999992025      50.000000000000
      1007    1      113.203954039759      25.575000000966      50.000000000000
      1008    1      116.157100672492      23.869999994341      50.000000000000
      1009    2      106.313278581603      13.639999998328      50.000000000000
      1010    2      109.266425203403      15.344999994019      50.000000000000
      1011    2      106.313278581603      17.050000000644      50.000000000000
      1012    2      109.266425203403      18.754999996334      50.000000000000
      1013    2      106.313278581603      20.459999992025      50.000000000000
      1014    2      109.266425203403      22.164999998650      50.000000000000
      1015    2      106.313278581603      23.869999994341      50.000000000000
      1016    2      109.266425203403      25.575000000966      50.000000000000
      1017    2      112.219571836137      13.639999998328      50.000000000000
      1018    2      115.172718457937      15.344999994019      50.000000000000
      1019    2      112.219571836137      17.050000000644      50.000000000000
      1020    2      115.172718457937      18.754999996334      50.000000000000
      1021    2      112.219571836137      20.459999992025      50.000000000000
      1022    2      115.172718457937      22.164999998650      50.000000000000
      1023    2      112.219571836137      23.869999994341      50.000000000000
      1024    2      115.172718457937      25.575000000966      50.000000000000
      1025    1      119.110247294292      15.344999994019      50.000000000000
      1026    1      122.063393927026      13.639999998328      50.000000000000
      1027    1      119.110247294292      18.754999996334      50.000000000000
      1028    1      122.063393927026      17.050000000644      50.000000000000
      1029    1      119.110247294292      22.164999998650      50.000000000000
      1030    1      122.063393927026      20.459999992025      50.000000000000
      1031    1      119.110247294292      25.575000000966      50.000000000000
      1032    1      122.063393927026      23.869999994341      50.000000000000
      1033    1      125.016540548826      15.344999994019      50.000000000000
      1034    1      127.969687181559      13.639999998328      50.000000000000
      1035    1      125.016540548826      18.754999996334      50.000000000000
      1036    1      127.969687181559      17.050000000644      50.000000000000
      1037    1      125.016540548826      22.164999998650      50.000000000000
      1038    1      127.969687181559      20.459999992025      50.000000000000
      1039    1      125.016540548826      25.575000000966      50.000000000000
      1040    1      127.969687181559      23.869999994341      50.000000000000
      1041    2      118.125865090670      13.639999998328      50.000000000000
      1042    2      121.079011712470      15.344999994019      50.000000000000
      1043    2      118.125865090670      17.050000000644      50.000000000000
      1044    2      121.079011712470      18.754999996334      50.000000000000
      1045    2      118.125865090670      20.459999992025      50.000000000000
      1046    2      121.079011712470      22.164999998650      50.000000000000
      1047    2      118.125865090670      23.869999994341      50.000000000000
      1048    2      121.079011712470      25.575000000966      50.000000000000
      1049    2      124.032158345204      13.639999998328      50.000000000000
      1050    2      126.985304967004      15.344999994019      50.000000000000
      1051    2      124.032158345204      17.050000000644      50.000000000000
      1052    2      126.985304967004      18.754999996334      50.000000000000
      1053    2      124.032158345204      20.459999992025      50.000000000000
      1054    2      126.985304967004      22.164999998650      50.000000000000
      1055    2      124.032158345204      23.869999994341      50.000000000000
      1056    2      126.985304967004      25.575000000966      50.000000000000
      1057    1      130.922833803359      15.344999994019      50.000000000000
      1058    1      133.875980436093      13.639999998328      50.000000000000
      1059    1      130.922833803359      18.754999996334      50.000000000000
      1060    1      133.875980436093      17.050000000644      50.000000000000
      1061    1      130.922833803359      22.164999998650      50.000000000000
      1062    1      133.875980436093      20.459999992025      50.000000000000
      1063    1      130.922833803359      25.575000000966      50.000000000000
      1064    1      133.875980436093      23.869999994341      50.000000000000
      1065    1      136.829127057893      15.344999994019      50.000000000000
      1066    1      139.782273690626      13.639999998328      50.000000000000
      1067    1      136.829127057893      18.754999996334      50.000000000000
      1068    1      139.782273690626      17.050000000644      50.000000000000
      1069    1      136.829127057893      22.164999998650      50.000000000000
      1070    1      139.782273690626      20.459999992025      50.000000000000
      1071    1      136.829127057893      25.575000000966      50.000000000000
      1072    1      139.782273690626      23.869999994341      50.000000000000
      1073    2      129.938451599737      13.639999998328      50.000000000000
      1074    2      132.891598221537      15.344999994019      50.000000000000
      1075    2      129.938451599737      17.050000000644      50.000000000000
      1076    2      132.891598221537      18.754999996334      50.000000000000
      1077    2      129.938451599737      20.459999992025      50.000000000000
      1078    2      132.891598221537      22.164999998650      50.000000000000
      1079    2      129.938451599737      23.869999994341      50.000000000000
      1080    2      132.891598221537      25.575000000966      50.000000000000
      1081    2      135.844744854271      13.639999998328      50.000000000000
      1082    2      138.797891476071      15.344999994019      50.000000000000
      1083    2      135.844744854271      17.050000000644      50.000000000000
      1084    2      138.797891476071      18.754999996334      50.000000000000
      1085    2      135.844744854271      20.459999992025      50.000000000000
      1086    2      138.797891476071      22.164999998650      50.000000000000
      1087    2      135.844744854271      23.869999994341      50.000000000000
      1088    2      138.797891476071      25.575000000966      50.000000000000
      1089    1      142.735420312426      15.344999994019      50.000000000000
      1090    1      145.688566945160      13.639999998328      50.000000000000
      1091    1      142.735420312426      18.754999996334      50.000000000000
      1092    1      145.688566945160      17.050000000644      50.000000000000
      1093    1      142.735420312426      22.164999998650      50.000000000000
      1094    1      145.688566945160      20.459999992025      50.000000000000
      1095    1      142.735420312426      25.575000000966      50.000000000000
      1096    1      145.688566945160      23.869999994341      50.000000000000
      1097    1      148.641713566960      15.344999994019      50.000000000000
      1098    1      151.594860199693      13.639999998328      50.000000000000
      1099    1      148.641713566960      18.754999996334      50.000000000000
      1100    1      151.594860199693      17.050000000644      50.000000000000
      1101    1      148.641713566960      22.164999998650      50.000000000000
      1102    1      151.594860199693      20.459999992025      50.000000000000
      1103    1      148.641713566960      25.575000000966      50.000000000000
      1104    1      151.594860199693      23.869999994341      50.000000000000
      1105    2      141.751038108804      13.639999998328      50.000000000000
      1106    2      144.704184730604      15.344999994019      50.000000000000
      1107    2      141.751038108804      17.050000000644      50.000000000000
      1108    2      144.704184730604      18.754999996334      50.000000000000
      1109    2      141.751038108804      20.459999992025      50.000000000000
      1110    2      144.704184730604      22.164999998650      50.000000000000
      1111    2      141.751038108804      23.869999994341      50.000000000000
      1112    2      144.704184730604      25.575000000966      50.000000000000
      1113    2      147.657331363338      13.639999998328      50.000000000000
      1114    2      150.610477985138      15.344999994019      50.000000000000
      1115    2      147.657331363338      17.050000000644      50.000000000000
      1116    2      150.610477985138      18.754999996334      50.000000000000
      1117    2      147.657331363338      20.459999992025      50.000000000000
      1118    2      150.610477985138      22.164999998650      50.000000000000
      1119    2      147.657331363338      23.869999994341      50.000000000000
      1120    2      150.610477985138      25.575000000966      50.000000000000
      1121    1      154.548006821493      15.344999994019      50.000000000000
      1122    1      157.501153454227      13.639999998328      50.000000000000
      1123    1      154.548006821493      18.754999996334      50.000000000000
      1124    1      157.501153454227      17.050000000644      50.000000000000
      1125    1      154.548006821493      22.164999998650      50.000000000000
      1126    1      157.501153454227      20.459999992025      50.000000000000
      1127    1      154.548006821493      25.575000000966      50.000000000000
      1128    1      157.501153454227      23.869999994341      50.000000000000
      1129    1      160.454300076027      15.344999994019      50.000000000000
      1130    1      163.407446708760      13.639999998328      50.000000000000
      1131    1      160.454300076027      18.754999996334      50.000000000000
      1132    1      163.407446708760      17.050000000644      50.000000000000
      1133    1      160.454300076027      22.164999998650      50.000000000000
      1134    1      163.407446708760      20.459999992025      50.000000000000
      1135    1      160.454300076027      25.575000000966      50.000000000000
      1136    1      163.407446708760      23.869999994341      50.000000000000
      1137    2      153.563624617871      13.639999998328      50.000000000000
      1138    2      156.516771239671      15.344999994019      50.000000000000
      1139    2      153.563624617871      17.050000000644      50.000000000000
      1140    2      156.516771239671      18.754999996334      50.000000000000
      1141    2      153.563624617871      20.459999992025      50.000000000000
      1142    2      156.516771239671      22.164999998650      50.000000000000
      1143    2      153.563624617871      23.869999994341      50.000000000000
      1144    2      156.516771239671      25.575000000966      50.000000000000
      1145    2      159.469917872405      13.639999998328      50.000000000000
      1146    2      162.423064494205      15.344999994019      50.000000000000
      1147    2      159.469917872405      17.050000000644      50.000000000000
      1148    2      162.423064494205      18.754999996334      50.000000000000
      1149    2      159.469917872405      20.459999992025      50.000000000000
      1150    2      162.423064494205      22.164999998650      50.000000000000
      1151    2      159.469917872405      23.869999994341      50.000000000000
      1152    2      162.423064494205      25.575000000966      50.000000000000
      1153    1      166.360593330560      15.344999994019      50.000000000000
      1154    1      169.313739963294      13.639999998328      50.000000000000
      1155    1      166.360593330560      18.754999996334      50.000000000000
      1156    1      169.313739963294      17.050000000644      50.000000000000
      1157    1      166.360593330560      22.164999998650      50.000000000000
      1158    1      169.313739963294      20.459999992025      50.000000000000
      1159    1      166.360593330560      25.575000000966      50.000000000000
      1160    1      169.313739963294      23.869999994341      50.000000000000
      1161    1      172.266886585094      15.344999994019      50.000000000000
      1162    1      175.220033217827      13.639999998328      50.000000000000
      1163    1      172.266886585094      18.754999996334      50.000000000000
      1164    1      175.220033217827      17.050000000644      50.000000000000
      1165    1      172.266886585094      22.164999998650      50.000000000000
      1166    1      175.220033217827      20.459999992025      50.000000000000
      1167    1      172.266886585094      25.575000000966      50.000000000000
      1168    1      175.220033217827      23.869999994341      50.000000000000
      1169    2      165.376211126938      13.639999998328      50.000000000000
      1170    2      168.329357748738      15.344999994019      50.000000000000
      1171    2      165.376211126938      17.050000000644      50.000000000000
      1172    2      168.329357748738      18.754999996334      50.000000000000
      1173    2      165.376211126938      20.459999992025      50.000000000000
      1174    2      168.329357748738      22.164999998650      50.000000000000
      1175    2      165.376211126938      23.869999994341      50.000000000000
      1176    2      168.329357748738      25.575000000966      50.000000000000
      1177    2      171.282504381472      13.639999998328      50.000000000000
      1178    2      174.235651003272      15.344999994019      50.000000000000
      1179    2      171.282504381472      17.050000000644      50.000000000000
      1180    2      174.235651003272      18.754999996334      50.000000000000
      1181    2      171.282504381472      20.459999992025      50.000000000000
      1182    2      174.235651003272      22.164999998650      50.000000000000
      1183    2      171.282504381472      23.869999994341      50.000000000000
      1184    2      174.235651003272      25.575000000966      50.000000000000
      1185    1      178.173179839627      15.344999994019      50.000000000000
      1186    1      181.126326472361      13.639999998328      50.000000000000
      1187    1      178.173179839627      18.754999996334      50.000000000000
      1188    1      181.126326472361      17.050000000644      50.000000000000
      1189    1      178.173179839627      22.164999998650      50.000000000000
      1190    1      181.126326472361      20.459999992025      50.000000000000
      1191    1      178.173179839627      25.575000000966      50.000000000000
      1192    1      181.126326472361      23.869999994341      50.000000000000
      1193    1      184.079473094161      15.344999994019      50.000000000000
      1194    1      187.032619726894      13.639999998328      50.000000000000
      1195    1      184.079473094161      18.754999996334      50.000000000000
      1196    1      187.032619726894      17.050000000644      50.000000000000
      1197    1      184.079473094161      22.164999998650      50.000000000000
      1198    1      187.032619726894      20.459999992025      50.000000000000
      1199    1      184.079473094161      25.575000000966      50.000000000000
      1200    1      187.032619726894      23.869999994341      50.000000000000
      1201    2      177.188797636005      13.639999998328      50.000000000000
      1202    2      180.141944257805      15.344999994019      50.000000000000
      1203    2      177.188797636005      17.050000000644      50.000000000000
      1204    2      180.141944257805      18.754999996334      50.000000000000
      1205    2      177.188797636005      20.459999992025      50.000000000000
      1206    2      180.141944257805      22.164999998650      50.000000000000
      1207    2      177.188797636005      23.869999994341      50.000000000000
      1208    2      180.141944257805      25.575000000966      50.000000000000
      1209    2      183.095090890539      13.639999998328      50.000000000000
      1210    2      186.048237512339      15.344999994019      50.000000000000
      1211    2      183.095090890539      17.050000000644      50.000000000000
      1212    2      186.048237512339      18.754999996334      50.000000000000
      1213    2      183.095090890539      20.459999992025      50.000000000000
      1214    2      186.048237512339      22.164999998650      50.000000000000
      1215    2      183.095090890539      23.869999994341      50.000000000000
      1216    2      186.048237512339      25.575000000966      50.000000000000
      1217    1      189.985766348694      15.344999994019      50.000000000000
      1218    1      192.938912981428      13.639999998328      50.000000000000
      1219    1      189.985766348694      18.754999996334      50.000000000000
      1220    1      192.938912981428      17.050000000644      50.000000000000
      1221    1      189.985766348694      22.164999998650      50.000000000000
      1222    1      192.938912981428      20.459999992025      50.000000000000
      1223    1      189.985766348694      25.575000000966      50.000000000000
      1224    1      192.938912981428      23.869999994341      50.000000000000
      1225    1      195.892059603228      15.344999994019      50.000000000000
      1226    1      198.845206235961      13.639999998328      50.000000000000
      1227    1      195.892059603228      18.754999996334      50.000000000000
      1228    1      198.845206235961      17.050000000644      50.000000000000
      1229    1      195.892059603228      22.164999998650      50.000000000000
      1230    1      198.845206235961      20.459999992025      50.000000000000
      1231    1      195.892059603228      25.575000000966      50.000000000000
      1232    1      198.845206235961      23.869999994341      50.000000000000
      1233    2      189.001384145072      13.639999998328      50.000000000000
      1234    2      191.954530766872      15.344999994019      50.000000000000
      1235    2      189.001384145072      17.050000000644      50.000000000000
      1236    2      191.954530766872      18.754999996334      50.000000000000
      1237    2      189.001384145072      20.459999992025      50.000000000000
      1238    2      191.954530766872      22.164999998650      50.000000000000
      1239    2      189.001384145072      23.869999994341      50.000000000000
      1240    2      191.954530766872      25.575000000966      50.000000000000
      1241    2      194.907677399606      13.639999998328      50.000000000000
      1242    2      197.860824021406      15.344999994019      50.000000000000
      1243    2      194.907677399606      17.050000000644      50.000000000000
      1244    2      197.860824021406      18.754999996334      50.000000000000
      1245    2      194.907677399606      20.459999992025      50.000000000000
      1246    2      197.860824021406      22.164999998650      50.000000000000
      1247    2      194.907677399606      23.869999994341      50.000000000000
      1248    2      197.860824021406      25.575000000966      50.000000000000
      1249    1      201.798352857761      15.344999994019      50.000000000000
      1250    1      204.751499490495      13.639999998328      50.000000000000
      1251    1      201.798352857761      18.754999996334      50.000000000000
      1252    1      204.751499490495      17.050000000644      50.000000000000
      1253    1      201.798352857761      22.164999998650      50.000000000000
      1254    1      204.751499490495      20.459999992025      50.000000000000
      1255    1      201.798352857761      25.575000000966      50.000000000000
      1256    1      204.751499490495      23.869999994341      50.000000000000
      1257    1      207.704646112295      15.344999994019      50.000000000000
      1258    1      210.657792745028      13.639999998328      50.000000000000
      1259    1      207.704646112295      18.754999996334      50.000000000000
      1260    1      210.657792745028      17.050000000644      50.000000000000
      1261    1      207.704646112295      22.164999998650      50.000000000000
      1262    1      210.657792745028      20.459999992025      50.000000000000
      1263    1      207.704646112295      25.575000000966      50.000000000000
      1264    1      210.657792745028      23.869999994341      50.000000000000
      1265    2      200.813970654139      13.639999998328      50.000000000000
      1266    2      203.767117275939      15.344999994019      50.000000000000
      1267    2      200.813970654139      17.050000000644      50.000000000000
      1268    2      203.767117275939      18.754999996334      50.000000000000
      1269    2      200.813970654139      20.459999992025      50.000000000000
      1270    2      203.767117275939      22.164999998650      50.000000000000
      1271    2      200.813970654139      23.869999994341      50.000000000000
      1272    2      203.767117275939      25.575000000966      50.000000000000
      1273    2      206.720263908673      13.639999998328      50.000000000000
      1274    2      209.673410530473      15.344999994019      50.000000000000
      1275    2      206.720263908673      17.050000000644      50.000000000000
      1276    2      209.673410530473      18.754999996334      50.000000000000
      1277    2      206.720263908673      20.459999992025      50.000000000000
      1278    2      209.673410530473      22.164999998650      50.000000000000
      1279    2      206.720263908673      23.869999994341      50.000000000000
      1280    2      209.673410530473      25.575000000966      50.000000000000
      1281    1      213.610939366828      15.344999994019      50.000000000000
      1282    1      216.564085999562      13.639999998328      50.000000000000
      1283    1      213.610939366828      18.754999996334      50.000000000000
      1284    1      216.564085999562      17.050000000644      50.000000000000
      1285    1      213.610939366828      22.164999998650      50.000000000000
      1286    1      216.564085999562      20.459999992025      50.000000000000
      1287    1      213.610939366828      25.575000000966      50.000000000000
      1288    1      216.564085999562      23.869999994341      50.000000000000
      1289    1      219.517232621362      15.344999994019      50.000000000000
      1290    1      222.470379254095      13.639999998328      50.000000000000
      1291    1      219.517232621362      18.754999996334      50.000000000000
      1292    1      222.470379254095      17.050000000644      50.000000000000
      1293    1      219.517232621362      22.164999998650      50.000000000000
      1294    1      222.470379254095      20.459999992025      50.000000000000
      1295    1      219.517232621362      25.575000000966      50.000000000000
      1296    1      222.470379254095      23.869999994341      50.000000000000
      1297    2      212.626557163206      13.639999998328      50.000000000000
      1298    2      215.579703785006      15.344999994019      50.000000000000
      1299    2      212.626557163206      17.050000000644      50.000000000000
      1300    2      215.579703785006      18.754999996334      50.000000000000
      1301    2      212.626557163206      20.459999992025      50.000000000000
      1302    2      215.579703785006      22.164999998650      50.000000000000
      1303    2      212.626557163206      23.869999994341      50.000000000000
      1304    2      215.579703785006      25.575000000966      50.000000000000
      1305    2      218.532850417740      13.639999998328      50.000000000000
      1306    2      221.485997039540      15.344999994019      50.000000000000
      1307    2      218.532850417740      17.050000000644      50.000000000000
      1308    2      221.485997039540      18.754999996334      50.000000000000
      1309    2      218.532850417740      20.459999992025      50.000000000000
      1310    2      221.485997039540      22.164999998650      50.000000000000
      1311    2      218.532850417740      23.869999994341      50.000000000000
      1312    2      221.485997039540      25.575000000966      50.000000000000
      1313    1      225.423525875895      15.344999994019      50.000000000000
      1314    1      228.376672508629      13.639999998328      50.000000000000
      1315    1      225.423525875895      18.754999996334      50.000000000000
      1316    1      228.376672508629      17.050000000644      50.000000000000
      1317    1      225.423525875895      22.164999998650      50.000000000000
      1318    1      228.376672508629      20.459999992025      50.000000000000
      1319    1      225.423525875895      25.575000000966      50.000000000000
      1320    1      228.376672508629      23.869999994341      50.000000000000
      1321    1      231.329819130429      15.344999994019      50.000000000000
      1322    1      234.282965763162      13.639999998328      50.000000000000
      1323    1      231.329819130429      18.754999996334      50.000000000000
      1324    1      234.282965763162      17.050000000644      50.000000000000
      1325    1      231.329819130429      22.164999998650      50.000000000000
      1326    1      234.282965763162      20.459999992025      50.000000000000
      1327    1      231.329819130429      25.575000000966      50.000000000000
      1328    1      234.282965763162      23.869999994341      50.000000000000
      1329    2      224.439143672273      13.639999998328      50.000000000000
      1330    2      227.392290294073      15.344999994019      50.000000000000
      1331    2      224.439143672273      17.050000000644      50.000000000000
      1332    2      227.392290294073      18.754999996334      50.000000000000
      1333    2      224.439143672273      20.459999992025      50.000000000000
      1334    2      227.392290294073      22.164999998650      50.000000000000
      1335    2      224.439143672273      23.869999994341      50.000000000000
      1336    2      227.392290294073      25.575000000966      50.000000000000
      1337    2      230.345436926807      13.639999998328      50.000000000000
      1338    2      233.298583548607      15.344999994019      50.000000000000
      1339    2      230.345436926807      17.050000000644      50.000000000000
      1340    2      233.298583548607      18.754999996334      50.000000000000
      1341    2      230.345436926807      20.459999992025      50.000000000000
      1342    2      233.298583548607      22.164999998650      50.000000000000
      1343    2      230.345436926807      23.869999994341      50.000000000000
      1344    2      233.298583548607      25.575000000966      50.000000000000
      1345    1      237.236112384962      15.344999994019      50.000000000000
      1346    1      240.189259017696      13.639999998328      50.000000000000
      1347    1      237.236112384962      18.754999996334      50.000000000000
      1348    1      240.189259017696      17.050000000644      50.000000000000
      1349    1      237.236112384962      22.164999998650      50.000000000000
      1350    1      240.189259017696      20.459999992025      50.000000000000
      1351    1      237.236112384962      25.575000000966      50.000000000000
      1352    1      240.189259017696      23.869999994341      50.000000000000
      1353    1      243.142405639496      15.344999994019      50.000000000000
      1354    1      246.095552272229      13.639999998328      50.000000000000
      1355    1      243.142405639496      18.754999996334      50.000000000000
      1356    1      246.095552272229      17.050000000644      50.000000000000
      1357    1      243.142405639496      22.164999998650      50.000000000000
      1358    1      246.095552272229      20.459999992025      50.000000000000
      1359    1      243.142405639496      25.575000000966      50.000000000000
      1360    1      246.095552272229      23.869999994341      50.000000000000
      1361    2      236.251730181340      13.639999998328      50.000000000000
      1362    2      239.204876803140      15.344999994019      50.000000000000
      1363    2      236.251730181340      17.050000000644      50.000000000000
      1364    2      239.204876803140      18.754999996334      50.000000000000
      1365    2      236.251730181340      20.459999992025      50.000000000000
      1366    2      239.204876803140      22.164999998650      50.000000000000
      1367    2      236.251730181340      23.869999994341      50.000000000000
      1368    2      239.204876803140      25.575000000966      50.000000000000
      1369    2      242.158023435874      13.639999998328      50.000000000000
      1370    2      245.111170057674      15.344999994019      50.000000000000
      1371    2      242.158023435874      17.050000000644      50.000000000000
      1372    2      245.111170057674      18.754999996334      50.000000000000
      1373    2      242.158023435874      20.459999992025      50.000000000000
      1374    2      245.111170057674      22.164999998650      50.000000000000
      1375    2      242.158023435874      23.869999994341      50.000000000000
      1376    2      245.111170057674      25.575000000966      50.000000000000
      1377    1      249.048698894029      15.344999994019      50.000000000000
      1378    1      252.001845526763      13.639999998328      50.000000000000
      1379    1      249.048698894029      18.754999996334      50.000000000000
      1380    1      252.001845526763      17.050000000644      50.000000000000
      1381    1      249.048698894029      22.164999998650      50.000000000000
      1382    1      252.001845526763      20.459999992025      50.000000000000
      1383    1      249.048698894029      25.575000000966      50.000000000000
      1384    1      252.001845526763      23.869999994341      50.000000000000
      1385    1      254.954992148563      15.344999994019      50.000000000000
      1386    1      257.908138781296      13.639999998328      50.000000000000
      1387    1      254.954992148563      18.754999996334      50.000000000000
      1388    1      257.908138781296      17.050000000644      50.000000000000
      1389    1      254.954992148563      22.164999998650      50.000000000000
      1390    1      257.908138781296      20.459999992025      50.000000000000
      1391    1      254.954992148563      25.575000000966      50.000000000000
      1392    1      257.908138781296      23.869999994341      50.000000000000
      1393    2      248.064316690407      13.639999998328      50.000000000000
      1394    2      251.017463312207      15.344999994019      50.000000000000
      1395    2      248.064316690407      17.050000000644      50.000000000000
      1396    2      251.017463312207      18.754999996334      50.000000000000
      1397    2      248.064316690407      20.459999992025      50.000000000000
      1398    2      251.017463312207      22.164999998650      50.000000000000
      1399    2      248.064316690407      23.869999994341      50.000000000000
      1400    2      251.017463312207      25.575000000966      50.000000000000
      1401    2      253.970609944941      13.639999998328      50.000000000000
      1402    2      256.923756566741      15.344999994019      50.000000000000
      1403    2      253.970609944941      17.050000000644      50.000000000000
      1404    2      256.923756566741      18.754999996334      50.000000000000
      1405    2      253.970609944941      20.459999992025      50.000000000000
      1406    2      256.923756566741      22.164999998650      50.000000000000
      1407    2      253.970609944941      23.869999994341      50.000000000000
      1408    2      256.923756566741      25.575000000966      50.000000000000
      1409    1        0.984382203622      28.984999992347      50.000000000000
      1410    1        3.937528836356      27.279999996656      50.000000000000
      1411    1        0.984382203622      32.394999994662      50.000000000000
      1412    1        3.937528836356      30.689999998972      50.000000000000
      1413    1        0.984382203622      35.804999996978      50.000000000000
      1414    1        3.937528836356      34.099999990353      50.000000000000
      1415    1        0.984382203622      39.214999999294      50.000000000000
      1416    1        3.937528836356      37.509999992669      50.000000000000
      1417    1        6.890675458156      28.984999992347      50.000000000000
      1418    1        9.843822090889      27.279999996656      50.000000000000
      1419    1        6.890675458156      32.394999994662      50.000000000000
      1420    1        9.843822090889      30.689999998972      50.000000000000
      1421    1        6.890675458156      35.804999996978      50.000000000000
      1422    1        9.843822090889      34.099999990353      50.000000000000
      1423    1        6.890675458156      39.214999999294      50.000000000000
      1424    1        9.843822090889      37.509999992669      50.000000000000
      1425    2        0.000000000000      27.279999996656      50.000000000000
      1426    2        2.953146621800      28.984999992347      50.000000000000
      1427    2        0.000000000000      30.689999998972      50.000000000000
      1428    2        2.953146621800      32.394999994662      50.000000000000
      1429    2        0.000000000000      34.099999990353      50.000000000000
      1430    2        2.953146621800      35.804999996978      50.000000000000
      1431    2        0.000000000000      37.509999992669      50.000000000000
      1432    2        2.953146621800      39.214999999294      50.000000000000
      1433    2        5.906293254534      27.279999996656      50.000000000000
      1434    2        8.859439876334      28.984999992347      50.000000000000
      1435    2        5.906293254534      30.689999998972      50.000000000000
      1436    2        8.859439876334      32.394999994662      50.000000000000
      1437    2        5.906293254534      34.099999990353      50.000000000000
      1438    2        8.859439876334      35.804999996978      50.000000000000
      1439    2        5.906293254534      37.509999992669      50.000000000000
      1440    2        8.859439876334      39.214999999294      50.000000000000
      1441    1       12.796968712689      28.984999992347      50.000000000000
      1442    1       15.750115345423      27.279999996656      50.000000000000
      1443    1       12.796968712689      32.394999994662      50.000000000000
      1444    1       15.750115345423      30.689999998972      50.000000000000
      1445    1       12.796968712689      35.804999996978      50.000000000000
      1446    1       15.750115345423      34.099999990353      50.000000000000
      1447    1       12.796968712689      39.214999999294      50.000000000000
      1448    1       15.750115345423      37.509999992669      50.000000000000
      1449    1       18.703261967223      28.984999992347      50.000000000000
      1450    1       21.656408599956      27.279999996656      50.000000000000
      1451    1       18.703261967223      32.394999994662      50.000000000000
      1452    1       21.656408599956      30.689999998972      50.000000000000
      1453    1       18.703261967223      35.804999996978      50.000000000000
      1454    1       21.656408599956      34.099999990353      50.000000000000
      1455    1       18.703261967223      39.214999999294      50.000000000000
      1456    1       21.656408599956      37.509999992669      50.000000000000
      1457    2       11.812586509067      27.279999996656      50.000000000000
      1458    2       14.765733130867      28.984999992347      50.000000000000
      1459    2       11.812586509067      30.689999998972      50.000000000000
      1460    2       14.765733130867      32.394999994662      50.000000000000
      1461    2       11.812586509067      34.099999990353      50.000000000000
      1462    2       14.765733130867      35.804999996978      50.000000000000
      1463    2       11.812586509067      37.509999992669      50.000000000000
      1464    2       14.765733130867      39.214999999294      50.000000000000
      1465    2       17.718879763601      27.279999996656      50.000000000000
      1466    2       20.672026385401      28.984999992347      50.000000000000
      1467    2       17.718879763601      30.689999998972      50.000000000000
      1468    2       20.672026385401      32.394999994662      50.000000000000
      1469    2       17.718879763601      34.099999990353      50.000000000000
      1470    2       20.672026385401      35.804999996978      50.000000000000
      1471    2       17.718879763601      37.509999992669      50.000000000000
      1472    2       20.672026385401      39.214999999294      50.000000000000
      1473    1       24.609555221756      28.984999992347      50.000000000000
      1474    1       27.562701854490      27.279999996656      50.000000000000
      1475    1       24.609555221756      32.394999994662      50.000000000000
      1476    1       27.562701854490      30.689999998972      50.000000000000
      1477    1       24.609555221756      35.804999996978      50.000000000000
      1478    1       27.562701854490      34.099999990353      50.000000000000
      1479    1       24.609555221756      39.214999999294      50.000000000000
      1480    1       27.562701854490      37.509999992669      50.000000000000
      1481    1       30.515848476290      28.984999992347      50.000000000000
      1482    1       33.468995109023      27.279999996656      50.000000000000
      1483    1       30.515848476290      32.394999994662      50.000000000000
      1484    1       33.468995109023      30.689999998972      50.000000000000
      1485    1       30.515848476290      35.804999996978      50.000000000000
      1486    1       33.468995109023      34.099999990353      50.000000000000
      1487    1       30.515848476290      39.214999999294      50.000000000000
      1488    1       33.468995109023      37.509999992669      50.000000000000
      1489    2       23.625173018134      27.279999996656      50.000000000000
      1490    2       26.578319639934      28.984999992347      50.000000000000
      1491    2       23.625173018134      30.689999998972      50.000000000000
      1492    2       26.578319639934      32.394999994662      50.000000000000
      1493    2       23.625173018134      34.099999990353      50.000000000000
      1494    2       26.578319639934      35.804999996978      50.000000000000
      1495    2       23.625173018134      37.509999992669      50.000000000000
      1496    2       26.578319639934      39.214999999294      50.000000000000
      1497    2       29.531466272668      27.279999996656      50.000000000000
      1498    2       32.484612894468      28.984999992347      50.000000000000
      1499    2       29.531466272668      30.689999998972      50.000000000000
      1500    2       32.484612894468      32.394999994662      50.000000000000
      1501    2       29.531466272668      34.099999990353      50.000000000000
      1502    2       32.484612894468      35.804999996978      50.000000000000
      1503    2       29.531466272668      37.509999992669      50.000000000000
      1504    2       32.484612894468      39.214999999294      50.000000000000
      1505    1       36.422141730823      28.984999992347      50.000000000000
      1506    1       39.375288363557      27.279999996656      50.000000000000
      1507    1       36.422141730823      32.394999994662      50.000000000000
      1508    1       39.375288363557      30.689999998972      50.000000000000
      1509    1       36.422141730823      35.804999996978      50.000000000000
      1510    1       39.375288363557      34.099999990353      50.000000000000
      1511    1       36.422141730823      39.214999999294      50.000000000000
      1512    1       39.375288363557      37.509999992669      50.000000000000
      1513    1       42.328434985357      28.984999992347      50.000000000000
      1514    1       45.281581618090      27.279999996656      50.000000000000
      1515    1       42.328434985357      32.394999994662      50.000000000000
      1516    1       45.281581618090      30.689999998972      50.000000000000
      1517    1       42.328434985357      35.804999996978      50.000000000000
      1518    1       45.281581618090      34.099999990353      50.000000000000
      1519    1       42.328434985357      39.214999999294      50.000000000000
      1520    1       45.281581618090      37.509999992669      50.000000000000
      1521    2       35.437759527201      27.279999996656      50.000000000000
      1522    2       38.390906149001      28.984999992347      50.000000000000
      1523    2       35.437759527201      30.689999998972      50.000000000000
      1524    2       38.390906149001      32.394999994662      50.000000000000
      1525    2       35.437759527201      34.099999990353      50.000000000000
      1526    2       38.390906149001      35.804999996978      50.000000000000
      1527    2       35.437759527201      37.509999992669      50.000000000000
      1528    2       38.390906149001      39.214999999294      50.000000000000
      1529    2       41.344052781735      27.279999996656      50.000000000000
      1530    2       44.297199403535      28.984999992347      50.000000000000
      1531    2       41.344052781735      30.689999998972      50.000000000000
      1532    2       44.297199403535      32.394999994662      50.000000000000
      1533    2       41.344052781735      34.099999990353      50.000000000000
      1534    2       44.297199403535      35.804999996978      50.000000000000
      1535    2       41.344052781735      37.509999992669      50.000000000000
      1536    2       44.297199403535      39.214999999294      50.000000000000
      1537    1       48.234728239890      28.984999992347      50.000000000000
      1538    1       51.187874872624      27.279999996656      50.000000000000
      1539    1       48.234728239890      32.394999994662      50.000000000000
      1540    1       51.187874872624      30.689999998972      50.000000000000
      1541    1       48.234728239890      35.804999996978      50.000000000000
      1542    1       51.187874872624      34.099999990353      50.000000000000
      1543    1       48.234728239890      39.214999999294      50.000000000000
      1544    1       51.187874872624      37.509999992669      50.000000000000
      1545    1       54.141021494424      28.984999992347      50.000000000000
      1546    1       57.094168127157      27.279999996656      50.000000000000
      1547    1       54.141021494424      32.394999994662      50.000000000000
      1548    1       57.094168127157      30.689999998972      50.000000000000
      1549    1       54.141021494424      35.804999996978      50.000000000000
      1550    1       57.094168127157      34.099999990353      50.000000000000
      1551    1       54.141021494424      39.214999999294      50.000000000000
      1552    1       57.094168127157      37.509999992669      50.000000000000
      1553    2       47.250346036268      27.279999996656      50.000000000000
      1554    2       50.203492658068      28.984999992347      50.000000000000
      1555    2       47.250346036268      30.689999998972      50.000000000000
      1556    2       50.203492658068      32.394999994662      50.000000000000
      1557    2       47.250346036268      34.099999990353      50.000000000000
      1558    2       50.203492658068      35.804999996978      50.000000000000
      1559    2       47.250346036268      37.509999992669      50.000000000000
      1560    2       50.203492658068      39.214999999294      50.000000000000
      1561    2       53.156639290802      27.279999996656      50.000000000000
      1562    2       56.109785912602      28.984999992347      50.000000000000
      1563    2       53.156639290802      30.689999998972      50.000000000000
      1564    2       56.109785912602      32.394999994662      50.000000000000
      1565    2       53.156639290802      34.099999990353      50.000000000000
      1566    2       56.109785912602      35.804999996978      50.000000000000
      1567    2       53.156639290802      37.509999992669      50.000000000000
      1568    2       56.109785912602      39.214999999294      50.000000000000
      1569    1       60.047314748957      28.984999992347      50.000000000000
      1570    1       63.000461381691      27.279999996656      50.000000000000
      1571    1       60.047314748957      32.394999994662      50.000000000000
      1572    1       63.000461381691      30.689999998972      50.000000000000
      1573    1       60.047314748957      35.804999996978      50.000000000000
      1574    1       63.000461381691      34.099999990353      50.000000000000
      1575    1       60.047314748957      39.214999999294      50.000000000000
      1576    1       63.000461381691      37.509999992669      50.000000000000
      1577    1       65.953608003491      28.984999992347      50.000000000000
      1578    1       68.906754636224      27.279999996656      50.000000000000
      1579    1       65.953608003491      32.394999994662      50.000000000000
      1580    1       68.906754636224      30.689999998972      50.000000000000
      1581    1       65.953608003491      35.804999996978      50.000000000000
      1582    1       68.906754636224      34.099999990353      50.000000000000
      1583    1       65.953608003491      39.214999999294      50.000000000000
      1584    1       68.906754636224      37.509999992669      50.000000000000
      1585    2       59.062932545335      27.279999996656      50.000000000000
      1586    2       62.016079167135      28.984999992347      50.000000000000
      1587    2       59.062932545335      30.689999998972      50.000000000000
      1588    2       62.016079167135      32.394999994662      50.000000000000
      1589    2       59.062932545335      34.099999990353      50.000000000000
      1590    2       62.016079167135      35.804999996978      50.000000000000
      1591    2       59.062932545335      37.509999992669      50.000000000000
      1592    2       62.016079167135      39.214999999294      50.000000000000
      1593    2       64.969225799869      27.279999996656      50.000000000000
      1594    2       67.922372421669      28.984999992347      50.000000000000
      1595    2       64.969225799869      30.689999998972      50.000000000000
      1596    2       67.922372421669      32.394999994662      50.000000000000
      1597    2       64.969225799869      34.099999990353      50.000000000000
      1598    2       67.922372421669      35.804999996978      50.000000000000
      1599    2       64.969225799869      37.509999992669      50.000000000000
      1600    2       67.922372421669      39.214999999294      50.000000000000
      1601    1       71.859901258024      28.984999992347      50.000000000000
      1602    1       74.813047890758      27.279999996656      50.000000000000
      1603    1       71.859901258024      32.394999994662      50.000000000000
      1604    1       74.813047890758      30.689999998972      50.000000000000
      1605    1       71.859901258024      35.804999996978      50.000000000000
      1606    1       74.813047890758      34.099999990353      50.000000000000
      1607    1       71.859901258024      39.214999999294      50.000000000000
      1608    1       74.813047890758      37.509999992669      50.000000000000
      1609    1       77.766194512558      28.984999992347      50.000000000000
      1610    1       80.719341145291      27.279999996656      50.000000000000
      1611    1       77.766194512558      32.394999994662      50.000000000000
      1612    1       80.719341145291      30.689999998972      50.000000000000
      1613    1       77.766194512558      35.804999996978      50.000000000000
      1614    1       80.719341145291      34.099999990353      50.000000000000
      1615    1       77.766194512558      39.214999999294      50.000000000000
      1616    1       80.719341145291      37.509999992669      50.000000000000
      1617    2       70.875519054402      27.279999996656      50.000000000000
      1618    2       73.828665676202      28.984999992347      50.000000000000
      1619    2       70.875519054402      30.689999998972      50.000000000000
      1620    2       73.828665676202      32.394999994662      50.000000000000
      1621    2       70.875519054402      34.099999990353      50.000000000000
      1622    2       73.828665676202      35.804999996978      50.000000000000
      1623    2       70.875519054402      37.509999992669      50.000000000000
      1624    2       73.828665676202      39.214999999294      50.000000000000
      1625    2       76.781812308936      27.279999996656      50.000000000000
      1626    2       79.734958930736      28.984999992347      50.000000000000
      1627    2       76.781812308936      30.689999998972      50.000000000000
      1628    2       79.734958930736      32.394999994662      50.000000000000
      1629    2       76.781812308936      34.099999990353      50.000000000000
      1630    2       79.734958930736      35.804999996978      50.000000000000
      1631    2       76.781812308936      37.509999992669      50.000000000000
      1632    2       79.734958930736      39.214999999294      50.000000000000
      1633    1       83.672487767091      28.984999992347      50.000000000000
      1634    1       86.625634399825      27.279999996656      50.000000000000
      1635    1       83.672487767091      32.394999994662      50.000000000000
      1636    1       86.625634399825      30.689999998972      50.000000000000
      1637    1       83.672487767091      35.804999996978      50.000000000000
      1638    1       86.625634399825      34.099999990353      50.000000000000
      1639    1       83.672487767091      39.214999999294      50.000000000000
      1640    1       86.625634399825      37.509999992669      50.000000000000
      1641    1       89.578781021625      28.984999992347      50.000000000000
      1642    1       92.531927654358      27.279999996656      50.000000000000
      1643    1       89.578781021625      32.394999994662      50.000000000000
      1644    1       92.531927654358      30.689999998972      50.000000000000
      1645    1       89.578781021625      35.804999996978      50.000000000000
      1646    1       92.531927654358      34.099999990353      50.000000000000
      1647    1       89.578781021625      39.214999999294      50.000000000000
      1648    1       92.531927654358      37.509999992669      50.000000000000
      1649    2       82.688105563469      27.279999996656      50.000000000000
      1650    2       85.641252185269      28.984999992347      50.000000000000
      1651    2       82.688105563469      30.689999998972      50.000000000000
      1652    2       85.641252185269      32.394999994662      50.000000000000
      1653    2       82.688105563469      34.099999990353      50.000000000000
      1654    2       85.641252185269      35.804999996978      50.000000000000
      1655    2       82.688105563469      37.509999992669      50.000000000000
      1656    2       85.641252185269      39.214999999294      50.000000000000
      1657    2       88.594398818003      27.279999996656      50.000000000000
      1658    2       91.547545439803      28.984999992347      50.000000000000
      1659    2       88.594398818003      30.689999998972      50.000000000000
      1660    2       91.547545439803      32.394999994662      50.000000000000
      1661    2       88.594398818003      34.099999990353      50.000000000000
      1662    2       91.547545439803      35.804999996978      50.000000000000
      1663    2       88.594398818003      37.509999992669      50.000000000000
      1664    2       91.547545439803      39.214999999294      50.000000000000
      1665    1       95.485074276158      28.984999992347      50.000000000000
      1666    1       98.438220908892      27.279999996656      50.000000000000
      1667    1       95.485074276158      32.394999994662      50.000000000000
      1668    1       98.438220908892      30.689999998972      50.000000000000
      1669    1       95.485074276158      35.804999996978      50.000000000000
      1670    1       98.438220908892      34.099999990353      50.000000000000
      1671    1       95.485074276158      39.214999999294      50.000000000000
      1672    1       98.438220908892      37.509999992669      50.000000000000
      1673    1      101.391367530692      28.984999992347      50.000000000000
      1674    1      104.344514163425      27.279999996656      50.000000000000
      1675    1      101.391367530692      32.394999994662      50.000000000000
      1676    1      104.344514163425      30.689999998972      50.000000000000
      1677    1      101.391367530692      35.804999996978      50.000000000000
      1678    1      104.344514163425      34.099999990353      50.000000000000
      1679    1      101.391367530692      39.214999999294      50.000000000000
      1680    1      104.344514163425      37.509999992669      50.000000000000
      1681    2       94.500692072536      27.279999996656      50.000000000000
      1682    2       97.453838694336      28.984999992347      50.000000000000
      1683    2       94.500692072536      30.689999998972      50.000000000000
      1684    2       97.453838694336      32.394999994662      50.000000000000
      1685    2       94.500692072536      34.099999990353      50.000000000000
      1686    2       97.453838694336      35.804999996978      50.000000000000
      1687    2       94.500692072536      37.509999992669      50.000000000000
      1688    2       97.453838694336      39.214999999294      50.000000000000
      1689    2      100.406985327070      27.279999996656      50.000000000000
      1690    2      103.360131948870      28.984999992347      50.000000000000
      1691    2      100.406985327070      30.689999998972      50.000000000000
      1692    2      103.360131948870      32.394999994662      50.000000000000
      1693    2      100.406985327070      34.099999990353      50.000000000000
      1694    2      103.360131948870      35.804999996978      50.000000000000
      1695    2      100.406985327070      37.509999992669      50.000000000000
      1696    2      103.360131948870      39.214999999294      50.000000000000
      1697    1      107.297660785225      28.984999992347      50.000000000000
      1698    1      110.250807417959      27.279999996656      50.000000000000
      1699    1      107.297660785225      32.394999994662      50.000000000000
      1700    1      110.250807417959      30.689999998972      50.000000000000
      1701    1      107.297660785225      35.804999996978      50.000000000000
      1702    1      110.250807417959      34.099999990353      50.000000000000
      1703    1      107.297660785225      39.214999999294      50.000000000000
      1704    1      110.250807417959      37.509999992669      50.000000000000
      1705    1      113.203954039759      28.984999992347      50.000000000000
      1706    1      116.157100672492      27.279999996656      50.000000000000
      1707    1      113.203954039759      32.394999994662      50.000000000000
      1708    1      116.157100672492      30.689999998972      50.000000000000
      1709    1      113.203954039759      35.804999996978      50.000000000000
      1710    1      116.157100672492      34.099999990353      50.000000000000
      1711    1      113.203954039759      39.214999999294      50.000000000000
      1712    1      116.157100672492      37.509999992669      50.000000000000
      1713    2      106.313278581603      27.279999996656      50.000000000000
      1714    2      109.266425203403      28.984999992347      50.000000000000
      1715    2      106.313278581603      30.689999998972      50.000000000000
      1716    2      109.266425203403      32.394999994662      50.000000000000
      1717    2      106.313278581603      34.099999990353      50.000000000000
      1718    2      109.266425203403      35.804999996978      50.000000000000
      1719    2      106.313278581603      37.509999992669      50.000000000000
      1720    2      109.266425203403      39.214999999294      50.000000000000
      1721    2      112.219571836137      27.279999996656      50.000000000000
      1722    2      115.172718457937      28.984999992347      50.000000000000
      1723    2      112.219571836137      30.689999998972      50.000000000000
      1724    2      115.172718457937      32.394999994662      50.000000000000
      1725    2      112.219571836137      34.099999990353      50.000000000000
      1726    2      115.172718457937      35.804999996978      50.000000000000
      1727    2      112.219571836137      37.509999992669      50.000000000000
      1728    2      115.172718457937      39.214999999294      50.000000000000
      1729    1      119.110247294292      28.984999992347      50.000000000000
      1730    1      122.063393927026      27.279999996656      50.000000000000
      1731    1      119.110247294292      32.394999994662      50.000000000000
      1732    1      122.063393927026      30.689999998972      50.000000000000
      1733    1      119.110247294292      35.804999996978      50.000000000000
      1734    1      122.063393927026      34.099999990353      50.000000000000
      1735    1      119.110247294292      39.214999999294      50.000000000000
      1736    1      122.063393927026      37.509999992669      50.000000000000
      1737    1      125.016540548826      28.984999992347      50.000000000000
      1738    1      127.969687181559      27.279999996656      50.000000000000
      1739    1      125.016540548826      32.394999994662      50.000000000000
      1740    1      127.969687181559      30.689999998972      50.000000000000
      1741    1      125.016540548826      35.804999996978      50.000000000000
      1742    1      127.969687181559      34.099999990353      50.000000000000
      1743    1      125.016540548826      39.214999999294      50.000000000000
      1744    1      127.969687181559      37.509999992669      50.000000000000
      1745    2      118.125865090670      27.279999996656      50.000000000000
      1746    2      121.079011712470      28.984999992347      50.000000000000
      1747    2      118.125865090670      30.689999998972      50.000000000000
      1748    2      121.079011712470      32.394999994662      50.000000000000
      1749    2      118.125865090670      34.099999990353      50.000000000000
      1750    2      121.079011712470      35.804999996978      50.000000000000
      1751    2      118.125865090670      37.509999992669      50.000000000000
      1752    2      121.079011712470      39.214999999294      50.000000000000
      1753    2      124.032158345204      27.279999996656      50.000000000000
      1754    2      126.985304967004      28.984999992347      50.000000000000
      1755    2      124.032158345204      30.689999998972      50.000000000000
      1756    2      126.985304967004      32.394999994662      50.000000000000
      1757    2      124.032158345204      34.099999990353      50.000000000000
      1758    2      126.985304967004      35.804999996978      50.000000000000
      1759    2      124.032158345204      37.509999992669      50.000000000000
      1760    2      126.985304967004      39.214999999294      50.000000000000
      1761    1      130.922833803359      28.984999992347      50.000000000000
      1762    1      133.875980436093      27.279999996656      50.000000000000
      1763    1      130.922833803359      32.394999994662      50.000000000000
      1764    1      133.875980436093      30.689999998972      50.000000000000
      1765    1      130.922833803359      35.804999996978      50.000000000000
      1766    1      133.875980436093      34.099999990353      50.000000000000
      1767    1      130.922833803359      39.214999999294      50.000000000000
      1768    1      133.875980436093      37.509999992669      50.000000000000
      1769    1      136.829127057893      28.984999992347      50.000000000000
      1770    1      139.782273690626      27.279999996656      50.000000000000
      1771    1      136.829127057893      32.394999994662      50.000000000000
      1772    1      139.782273690626      30.689999998972      50.000000000000
      1773    1      136.829127057893      35.804999996978      50.000000000000
      1774    1      139.782273690626      34.099999990353      50.000000000000
      1775    1      136.829127057893      39.214999999294      50.000000000000
      1776    1      139.782273690626      37.509999992669      50.000000000000
      1777    2      129.938451599737      27.279999996656      50.000000000000
      1778    2      132.891598221537      28.984999992347      50.000000000000
      1779    2      129.938451599737      30.689999998972      50.000000000000
      1780    2      132.891598221537      32.394999994662      50.000000000000
      1781    2      129.938451599737      34.099999990353      50.000000000000
      1782    2      132.891598221537      35.804999996978      50.000000000000
      1783    2      129.938451599737      37.509999992669      50.000000000000
      1784    2      132.891598221537      39.214999999294      50.000000000000
      1785    2      135.844744854271      27.279999996656      50.000000000000
      1786    2      138.797891476071      28.984999992347      50.000000000000
      1787    2      135.844744854271      30.689999998972      50.000000000000
      1788    2      138.797891476071      32.394999994662      50.000000000000
      1789    2      135.844744854271      34.099999990353      50.000000000000
      1790    2      138.797891476071      35.804999996978      50.000000000000
      1791    2      135.844744854271      37.509999992669      50.000000000000
      1792    2      138.797891476071      39.214999999294      50.000000000000
      1793    1      142.735420312426      28.984999992347      50.000000000000
      1794    1      145.688566945160      27.279999996656      50.000000000000
      1795    1      142.735420312426      32.394999994662      50.000000000000
      1796    1      145.688566945160      30.689999998972      50.000000000000
      1797    1      142.735420312426      35.804999996978      50.000000000000
      1798    1      145.688566945160      34.099999990353      50.000000000000
      1799    1      142.735420312426      39.214999999294      50.000000000000
      1800    1      145.688566945160      37.509999992669      50.000000000000
      1801    1      148.641713566960      28.984999992347      50.000000000000
      1802    1      151.594860199693      27.279999996656      50.000000000000
      1803    1      148.641713566960      32.394999994662      50.000000000000
      1804    1      151.594860199693      30.689999998972      50.000000000000
      1805    1      148.641713566960      35.804999996978      50.000000000000
      1806    1      151.594860199693      34.099999990353      50.000000000000
      1807    1      148.641713566960      39.214999999294      50.000000000000
      1808    1      151.594860199693      37.509999992669      50.000000000000
      1809    2      141.751038108804      27.279999996656      50.000000000000
      1810    2      144.704184730604      28.984999992347      50.000000000000
      1811    2      141.751038108804      30.689999998972      50.000000000000
      1812    2      144.704184730604      32.394999994662      50.000000000000
      1813    2      141.751038108804      34.099999990353      50.000000000000
      1814    2      144.704184730604      35.804999996978      50.000000000000
      1815    2      141.751038108804      37.509999992669      50.000000000000
      1816    2      144.704184730604      39.214999999294      50.000000000000
      1817    2      147.657331363338      27.279999996656      50.000000000000
      1818    2      150.610477985138      28.984999992347      50.000000000000
      1819    2      147.657331363338      30.689999998972      50.000000000000
      1820    2      150.610477985138      32.394999994662      50.000000000000
      1821    2      147.657331363338      34.099999990353      50.000000000000
      1822    2      150.610477985138      35.804999996978      50.000000000000
      1823    2      147.657331363338      37.509999992669      50.000000000000
      1824    2      150.610477985138      39.214999999294      50.000000000000
      1825    1      154.548006821493      28.984999992347      50.000000000000
      1826    1      157.501153454227      27.279999996656      50.000000000000
      1827    1      154.548006821493      32.394999994662      50.000000000000
      1828    1      157.501153454227      30.689999998972      50.000000000000
      1829    1      154.548006821493      35.804999996978      50.000000000000
      1830    1      157.501153454227      34.099999990353      50.000000000000
      1831    1      154.548006821493      39.214999999294      50.000000000000
      1832    1      157.501153454227      37.509999992669      50.000000000000
      1833    1      160.454300076027      28.984999992347      50.000000000000
      1834    1      163.407446708760      27.279999996656      50.000000000000
      1835    1      160.454300076027      32.394999994662      50.000000000000
      1836    1      163.407446708760      30.689999998972      50.000000000000
      1837    1      160.454300076027      35.804999996978      50.000000000000
      1838    1      163.407446708760      34.099999990353      50.000000000000
      1839    1      160.454300076027      39.214999999294      50.000000000000
      1840    1      163.407446708760      37.509999992669      50.000000000000
      1841    2      153.563624617871      27.279999996656      50.000000000000
      1842    2      156.516771239671      28.984999992347      50.000000000000
      1843    2      153.563624617871      30.689999998972      50.000000000000
      1844    2      156.516771239671      32.394999994662      50.000000000000
      1845    2      153.563624617871      34.099999990353      50.000000000000
      1846    2      156.516771239671      35.804999996978      50.000000000000
      1847    2      153.563624617871      37.509999992669      50.000000000000
      1848    2      156.516771239671      39.214999999294      50.000000000000
      1849    2      159.469917872405      27.279999996656      50.000000000000
      1850    2      162.423064494205      28.984999992347      50.000000000000
      1851    2      159.469917872405      30.689999998972      50.000000000000
      1852    2      162.423064494205      32.394999994662      50.000000000000
      1853    2      159.469917872405      34.099999990353      50.000000000000
      1854    2      162.423064494205      35.804999996978      50.000000000000
      1855    2      159.469917872405      37.509999992669      50.000000000000
      1856    2      162.423064494205      39.214999999294      50.000000000000
      1857    1      166.360593330560      28.984999992347      50.000000000000
      1858    1      169.313739963294      27.279999996656      50.000000000000
      1859    1      166.360593330560      32.394999994662      50.000000000000
      1860    1      169.313739963294      30.689999998972      50.000000000000
      1861    1      166.360593330560      35.804999996978      50.000000000000
      1862    1      169.313739963294      34.099999990353      50.000000000000
      1863    1      166.360593330560      39.214999999294      50.000000000000
      1864    1      169.313739963294      37.509999992669      50.000000000000
      1865    1      172.266886585094      28.984999992347      50.000000000000
      1866    1      175.220033217827      27.279999996656      50.000000000000
      1867    1      172.266886585094      32.394999994662      50.000000000000
      1868    1      175.220033217827      30.689999998972      50.000000000000
      1869    1      172.266886585094      35.804999996978      50.000000000000
      1870    1      175.220033217827      34.099999990353      50.000000000000
      1871    1      172.266886585094      39.214999999294      50.000000000000
      1872    1      175.220033217827      37.509999992669      50.000000000000
      1873    2      165.376211126938      27.279999996656      50.000000000000
      1874    2      168.329357748738      28.984999992347      50.000000000000
      1875    2      165.376211126938      30.689999998972      50.000000000000
      1876    2      168.329357748738      32.394999994662      50.000000000000
      1877    2      165.376211126938      34.099999990353      50.000000000000
      1878    2      168.329357748738      35.804999996978      50.000000000000
      1879    2      165.376211126938      37.509999992669      50.000000000000
      1880    2      168.329357748738      39.214999999294      50.000000000000
      1881    2      171.282504381472      27.279999996656      50.000000000000
      1882    2      174.235651003272      28.984999992347      50.000000000000
      1883    2      171.282504381472      30.689999998972      50.000000000000
      1884    2      174.235651003272      32.394999994662      50.000000000000
      1885    2      171.282504381472      34.099999990353      50.000000000000
      1886    2      174.235651003272      35.804999996978      50.000000000000
      1887    2      171.282504381472      37.509999992669      50.000000000000
      1888    2      174.235651003272      39.214999999294      50.000000000000
      1889    1      178.173179839627      28.984999992347      50.000000000000
      1890    1      181.126326472361      27.279999996656      50.000000000000
      1891    1      178.173179839627      32.394999994662      50.000000000000
      1892    1      181.126326472361      30.689999998972      50.000000000000
      1893    1      178.173179839627      35.804999996978      50.000000000000
      1894    1      181.126326472361      34.099999990353      50.000000000000
      1895    1      178.173179839627      39.214999999294      50.000000000000
      1896    1      181.126326472361      37.509999992669      50.000000000000
      1897    1      184.079473094161      28.984999992347      50.000000000000
      1898    1      187.032619726894      27.279999996656      50.000000000000
      1899    1      184.079473094161      32.394999994662      50.000000000000
      1900    1      187.032619726894      30.689999998972      50.000000000000
      1901    1      184.079473094161      35.804999996978      50.000000000000
      1902    1      187.032619726894      34.099999990353      50.000000000000
      1903    1      184.079473094161      39.214999999294      50.000000000000
      1904    1      187.032619726894      37.509999992669      50.000000000000
      1905    2      177.188797636005      27.279999996656      50.000000000000
      1906    2      180.141944257805      28.984999992347      50.000000000000
      1907    2      177.188797636005      30.689999998972      50.000000000000
      1908    2      180.141944257805      32.394999994662      50.000000000000
      1909    2      177.188797636005      34.099999990353      50.000000000000
      1910    2      180.141944257805      35.804999996978      50.000000000000
      1911    2      177.188797636005      37.509999992669      50.000000000000
      1912    2      180.141944257805      39.214999999294      50.000000000000
      1913    2      183.095090890539      27.279999996656      50.000000000000
      1914    2      186.048237512339      28.984999992347      50.000000000000
      1915    2      183.095090890539      30.689999998972      50.000000000000
      1916    2      186.048237512339      32.394999994662      50.000000000000
      1917    2      183.095090890539      34.099999990353      50.000000000000
      1918    2      186.048237512339      35.804999996978      50.000000000000
      1919    2      183.095090890539      37.509999992669      50.000000000000
      1920    2      186.048237512339      39.214999999294      50.000000000000
      1921    1      189.985766348694      28.984999992347      50.000000000000
      1922    1      192.938912981428      27.279999996656      50.000000000000
      1923    1      189.985766348694      32.394999994662      50.000000000000
      1924    1      192.938912981428      30.689999998972      50.000000000000
      1925    1      189.985766348694      35.804999996978      50.000000000000
      1926    1      192.938912981428      34.099999990353      50.000000000000
      1927    1      189.985766348694      39.214999999294      50.000000000000
      1928    1      192.938912981428      37.509999992669      50.000000000000
      1929    1      195.892059603228      28.984999992347      50.000000000000
      1930    1      198.845206235961      27.279999996656      50.000000000000
      1931    1      195.892059603228      32.394999994662      50.000000000000
      1932    1      198.845206235961      30.689999998972      50.000000000000
      1933    1      195.892059603228      35.804999996978      50.000000000000
      1934    1      198.845206235961      34.099999990353      50.000000000000
      1935    1      195.892059603228      39.214999999294      50.000000000000
      1936    1      198.845206235961      37.509999992669      50.000000000000
      1937    2      189.001384145072      27.279999996656      50.000000000000
      1938    2      191.954530766872      28.984999992347      50.000000000000
      1939    2      189.001384145072      30.689999998972      50.000000000000
      1940    2      191.954530766872      32.394999994662      50.000000000000
      1941    2      189.001384145072      34.099999990353      50.000000000000
      1942    2      191.954530766872      35.804999996978      50.000000000000
      1943    2      189.001384145072      37.509999992669      50.000000000000
      1944    2      191.954530766872      39.214999999294      50.000000000000
      1945    2      194.907677399606      27.279999996656      50.000000000000
      1946    2      197.860824021406      28.984999992347      50.000000000000
      1947    2      194.907677399606      30.689999998972      50.000000000000
      1948    2      197.860824021406      32.394999994662      50.000000000000
      1949    2      194.907677399606      34.099999990353      50.000000000000
      1950    2      197.860824021406      35.804999996978      50.000000000000
      1951    2      194.907677399606      37.509999992669      50.000000000000
      1952    2      197.860824021406      39.214999999294      50.000000000000
      1953    1      201.798352857761      28.984999992347      50.000000000000
      1954    1      204.751499490495      27.279999996656      50.000000000000
      1955    1      201.798352857761      32.394999994662      50.000000000000
      1956    1      204.751499490495      30.689999998972      50.000000000000
      1957    1      201.798352857761      35.804999996978      50.000000000000
      1958    1      204.751499490495      34.099999990353      50.000000000000
      1959    1      201.798352857761      39.214999999294      50.000000000000
      1960    1      204.751499490495      37.509999992669      50.000000000000
      1961    1      207.704646112295      28.984999992347      50.000000000000
      1962    1      210.657792745028      27.279999996656      50.000000000000
      1963    1      207.704646112295      32.394999994662      50.000000000000
      1964    1      210.657792745028      30.689999998972      50.000000000000
      1965    1      207.704646112295      35.804999996978      50.000000000000
      1966    1      210.657792745028      34.099999990353      50.000000000000
      1967    1      207.704646112295      39.214999999294      50.000000000000
      1968    1      210.657792745028      37.509999992669      50.000000000000
      1969    2      200.813970654139      27.279999996656      50.000000000000
      1970    2      203.767117275939      28.984999992347      50.000000000000
      1971    2      200.813970654139      30.689999998972      50.000000000000
      1972    2      203.767117275939      32.394999994662      50.000000000000
      1973    2      200.813970654139      34.099999990353      50.000000000000
      1974    2      203.767117275939      35.804999996978      50.000000000000
      1975    2      200.813970654139      37.509999992669      50.000000000000
      1976    2      203.767117275939      39.214999999294      50.000000000000
      1977    2      206.720263908673      27.279999996656      50.000000000000
      1978    2      209.673410530473      28.984999992347      50.000000000000
      1979    2      206.720263908673      30.689999998972      50.000000000000
      1980    2      209.673410530473      32.394999994662      50.000000000000
      1981    2      206.720263908673      34.099999990353      50.000000000000
      1982    2      209.673410530473      35.804999996978      50.000000000000
      1983    2      206.720263908673      37.509999992669      50.000000000000
      1984    2      209.673410530473      39.214999999294      50.000000000000
      1985    1      213.610939366828      28.984999992347      50.000000000000
      1986    1      216.564085999562      27.279999996656      50.000000000000
      1987    1      213.610939366828      32.394999994662      50.000000000000
      1988    1      216.564085999562      30.689999998972      50.000000000000
      1989    1      213.610939366828      35.804999996978      50.000000000000
      1990    1      216.564085999562      34.099999990353      50.000000000000
      1991    1      213.610939366828      39.214999999294      50.000000000000
      1992    1      216.564085999562      37.509999992669      50.000000000000
      1993    1      219.517232621362      28.984999992347      50.000000000000
      1994    1      222.470379254095      27.279999996656      50.000000000000
      1995    1      219.517232621362      32.394999994662      50.000000000000
      1996    1      222.470379254095      30.689999998972      50.000000000000
      1997    1      219.517232621362      35.804999996978      50.000000000000
      1998    1      222.470379254095      34.099999990353      50.000000000000
      1999    1      219.517232621362      39.214999999294      50.000000000000
      2000    1      222.470379254095      37.509999992669      50.000000000000
      2001    2      212.626557163206      27.279999996656      50.000000000000
      2002    2      215.579703785006      28.984999992347      50.000000000000
      2003    2      212.626557163206      30.689999998972      50.000000000000
      2004    2      215.579703785006      32.394999994662      50.000000000000
      2005    2      212.626557163206      34.099999990353      50.000000000000
      2006    2      215.579703785006      35.804999996978      50.000000000000
      2007    2      212.626557163206      37.509999992669      50.000000000000
      2008    2      215.579703785006      39.214999999294      50.000000000000
      2009    2      218.532850417740      27.279999996656      50.000000000000
      2010    2      221.485997039540      28.984999992347      50.000000000000
      2011    2      218.532850417740      30.689999998972      50.000000000000
      2012    2      221.485997039540      32.394999994662      50.000000000000
      2013    2      218.532850417740      34.099999990353      50.000000000000
      2014    2      221.485997039540      35.804999996978      50.000000000000
      2015    2      218.532850417740      37.509999992669      50.000000000000
      2016    2      221.485997039540      39.214999999294      50.000000000000
      2017    1      225.423525875895      28.984999992347      50.000000000000
      2018    1      228.376672508629      27.279999996656      50.000000000000
      2019    1      225.423525875895      32.394999994662      50.000000000000
      2020    1      228.376672508629      30.689999998972      50.000000000000
      2021    1      225.423525875895      35.804999996978      50.000000000000
      2022    1      228.376672508629      34.099999990353      50.000000000000
      2023    1      225.423525875895      39.214999999294      50.000000000000
      2024    1      228.376672508629      37.509999992669      50.000000000000
      2025    1      231.329819130429      28.984999992347      50.000000000000
      2026    1      234.282965763162      27.279999996656      50.000000000000
      2027    1      231.329819130429      32.394999994662      50.000000000000
      2028    1      234.282965763162      30.689999998972      50.000000000000
      2029    1      231.329819130429      35.804999996978      50.000000000000
      2030    1      234.282965763162      34.099999990353      50.000000000000
      2031    1      231.329819130429      39.214999999294      50.000000000000
      2032    1      234.282965763162      37.509999992669      50.000000000000
      2033    2      224.439143672273      27.279999996656      50.000000000000
      2034    2      227.392290294073      28.984999992347      50.000000000000
      2035    2      224.439143672273      30.689999998972      50.000000000000
      2036    2      227.392290294073      32.394999994662      50.000000000000
      2037    2      224.439143672273      34.099999990353      50.000000000000
      2038    2      227.392290294073      35.804999996978      50.000000000000
      2039    2      224.439143672273      37.509999992669      50.000000000000
      2040    2      227.392290294073      39.214999999294      50.000000000000
      2041    2      230.345436926807      27.279999996656      50.000000000000
      2042    2      233.298583548607      28.984999992347      50.000000000000
      2043    2      230.345436926807      30.689999998972      50.000000000000
      2044    2      233.298583548607      32.394999994662      50.000000000000
      2045    2      230.345436926807      34.099999990353      50.000000000000
      2046    2      233.298583548607      35.804999996978      50.000000000000
      2047    2      230.345436926807      37.509999992669      50.000000000000
      2048    2      233.298583548607      39.214999999294      50.000000000000
      2049    1      237.236112384962      28.984999992347      50.000000000000
      2050    1      240.189259017696      27.279999996656      50.000000000000
      2051    1      237.236112384962      32.394999994662      50.000000000000
      2052    1      240.189259017696      30.689999998972      50.000000000000
      2053    1      237.236112384962      35.804999996978      50.000000000000
      2054    1      240.189259017696      34.099999990353      50.000000000000
      2055    1      237.236112384962      39.214999999294      50.000000000000
      2056    1      240.189259017696      37.509999992669      50.000000000000
      2057    1      243.142405639496      28.984999992347      50.000000000000
      2058    1      246.095552272229      27.279999996656      50.000000000000
      2059    1      243.142405639496      32.394999994662      50.000000000000
      2060    1      246.095552272229      30.689999998972      50.000000000000
      2061    1      243.142405639496      35.804999996978      50.000000000000
      2062    1      246.095552272229      34.099999990353      50.000000000000
      2063    1      243.142405639496      39.214999999294      50.000000000000
      2064    1      246.095552272229      37.509999992669      50.000000000000
      2065    2      236.251730181340      27.279999996656      50.000000000000
      2066    2      239.204876803140      28.984999992347      50.000000000000
      2067    2      236.251730181340      30.689999998972      50.000000000000
      2068    2      239.204876803140      32.394999994662      50.000000000000
      2069    2      236.251730181340      34.099999990353      50.000000000000
      2070    2      239.204876803140      35.804999996978      50.000000000000
      2071    2      236.251730181340      37.509999992669      50.000000000000
      2072    2      239.204876803140      39.214999999294      50.000000000000
      2073    2      242.158023435874      27.279999996656      50.000000000000
      2074    2      245.111170057674      28.984999992347      50.000000000000
      2075    2      242.158023435874      30.689999998972      50.000000000000
      2076    2      245.111170057674      32.394999994662      50.000000000000
      2077    2      242.158023435874      34.099999990353      50.000000000000
      2078    2      245.111170057674      35.804999996978      50.000000000000
      2079    2      242.158023435874      37.509999992669      50.000000000000
      2080    2      245.111170057674      39.214999999294      50.000000000000
      2081    1      249.048698894029      28.984999992347      50.000000000000
      2082    1      252.001845526763      27.279999996656      50.000000000000
      2083    1      249.048698894029      32.394999994662      50.000000000000
      2084    1      252.001845526763      30.689999998972      50.000000000000
      2085    1      249.048698894029      35.804999996978      50.000000000000
      2086    1      252.001845526763      34.099999990353      50.000000000000
      2087    1      249.048698894029      39.214999999294      50.000000000000
      2088    1      252.001845526763      37.509999992669      50.000000000000
      2089    1      254.954992148563      28.984999992347      50.000000000000
      2090    1      257.908138781296      27.279999996656      50.000000000000
      2091    1      254.954992148563      32.394999994662      50.000000000000
      2092    1      257.908138781296      30.689999998972      50.000000000000
      2093    1      254.954992148563      35.804999996978      50.000000000000
      2094    1      257.908138781296      34.099999990353      50.000000000000
      2095    1      254.954992148563      39.214999999294      50.000000000000
      2096    1      257.908138781296      37.509999992669      50.000000000000
      2097    2      248.064316690407      27.279999996656      50.000000000000
      2098    2      251.017463312207      28.984999992347      50.000000000000
      2099    2      248.064316690407      30.689999998972      50.000000000000
      2100    2      251.017463312207      32.394999994662      50.000000000000
      2101    2      248.064316690407      34.099999990353      50.000000000000
      2102    2      251.017463312207      35.804999996978      50.000000000000
      2103    2      248.064316690407      37.509999992669      50.000000000000
      2104    2      251.017463312207      39.214999999294      50.000000000000
      2105    2      253.970609944941      27.279999996656      50.000000000000
      2106    2      256.923756566741      28.984999992347      50.000000000000
      2107    2      253.970609944941      30.689999998972      50.000000000000
      2108    2      256.923756566741      32.394999994662      50.000000000000
      2109    2      253.970609944941      34.099999990353      50.000000000000
      2110    2      256.923756566741      35.804999996978      50.000000000000
      2111    2      253.970609944941      37.509999992669      50.000000000000
      2112    2      256.923756566741      39.214999999294      50.000000000000
      2113    1        0.984382203622      42.624999990675      50.000000000000
      2114    1        3.937528836356      40.919999994984      50.000000000000
      2115    1        0.984382203622      46.034999992990      50.000000000000
      2116    1        3.937528836356      44.329999997300      50.000000000000
      2117    1        0.984382203622      49.444999995306      50.000000000000
      2118    1        3.937528836356      47.739999988681      50.000000000000
      2119    1        0.984382203622      52.854999997622      50.000000000000
      2120    1        3.937528836356      51.149999990997      50.000000000000
      2121    1        6.890675458156      42.624999990675      50.000000000000
      2122    1        9.843822090889      40.919999994984      50.000000000000
      2123    1        6.890675458156      46.034999992990      50.000000000000
      2124    1        9.843822090889      44.329999997300      50.000000000000
      2125    1        6.890675458156      49.444999995306      50.000000000000
      2126    1        9.843822090889      47.739999988681      50.000000000000
      2127    1        6.890675458156      52.854999997622      50.000000000000
      2128    1        9.843822090889      51.149999990997      50.000000000000
      2129    2        0.000000000000      40.919999994984      50.000000000000
      2130    2        2.953146621800      42.624999990675      50.000000000000
      2131    2        0.000000000000      44.329999997300      50.000000000000
      2132    2        2.953146621800      46.034999992990      50.000000000000
      2133    2        0.000000000000      47.739999988681      50.000000000000
      2134    2        2.953146621800      49.444999995306      50.000000000000
      2135    2        0.000000000000      51.149999990997      50.000000000000
      2136    2        2.953146621800      52.854999997622      50.000000000000
      2137    2        5.906293254534      40.919999994984      50.000000000000
      2138    2        8.859439876334      42.624999990675      50.000000000000
      2139    2        5.906293254534      44.329999997300      50.000000000000
      2140    2        8.859439876334      46.034999992990      50.000000000000
      2141    2        5.906293254534      47.739999988681      50.000000000000
      2142    2        8.859439876334      49.444999995306      50.000000000000
      2143    2        5.906293254534      51.149999990997      50.000000000000
      2144    2        8.859439876334      52.854999997622      50.000000000000
      2145    1       12.796968712689      42.624999990675      50.000000000000
      2146    1       15.750115345423      40.919999994984      50.000000000000
      2147    1       12.796968712689      46.034999992990      50.000000000000
      2148    1       15.750115345423      44.329999997300      50.000000000000
      2149    1       12.796968712689      49.444999995306      50.000000000000
      2150    1       15.750115345423      47.739999988681      50.000000000000
      2151    1       12.796968712689      52.854999997622      50.000000000000
      2152    1       15.750115345423      51.149999990997      50.000000000000
      2153    1       18.703261967223      42.624999990675      50.000000000000
      2154    1       21.656408599956      40.919999994984      50.000000000000
      2155    1       18.703261967223      46.034999992990      50.000000000000
      2156    1       21.656408599956      44.329999997300      50.000000000000
      2157    1       18.703261967223      49.444999995306      50.000000000000
      2158    1       21.656408599956      47.739999988681      50.000000000000
      2159    1       18.703261967223      52.854999997622      50.000000000000
      2160    1       21.656408599956      51.149999990997      50.000000000000
      2161    2       11.812586509067      40.919999994984      50.000000000000
      2162    2       14.765733130867      42.624999990675      50.000000000000
      2163    2       11.812586509067      44.329999997300      50.000000000000
      2164    2       14.765733130867      46.034999992990      50.000000000000
      2165    2       11.812586509067      47.739999988681      50.000000000000
      2166    2       14.765733130867      49.444999995306      50.000000000000
      2167    2       11.812586509067      51.149999990997      50.000000000000
      2168    2       14.765733130867      52.854999997622      50.000000000000
      2169    2       17.718879763601      40.919999994984      50.000000000000
      2170    2       20.672026385401      42.624999990675      50.000000000000
      2171    2       17.718879763601      44.329999997300      50.000000000000
      2172    2       20.672026385401      46.034999992990      50.000000000000
      2173    2       17.718879763601      47.739999988681      50.000000000000
      2174    2       20.672026385401      49.444999995306      50.000000000000
      2175    2       17.718879763601      51.149999990997      50.000000000000
      2176    2       20.672026385401      52.854999997622      50.000000000000
      2177    1       24.609555221756      42.624999990675      50.000000000000
      2178    1       27.562701854490      40.919999994984      50.000000000000
      2179    1       24.609555221756      46.034999992990      50.000000000000
      2180    1       27.562701854490      44.329999997300      50.000000000000
      2181    1       24.609555221756      49.444999995306      50.000000000000
      2182    1       27.562701854490      47.739999988681      50.000000000000
      2183    1       24.609555221756      52.854999997622      50.000000000000
      2184    1       27.562701854490      51.149999990997      50.000000000000
      2185    1       30.515848476290      42.624999990675      50.000000000000
      2186    1       33.468995109023      40.919999994984      50.000000000000
      2187    1       30.515848476290      46.034999992990      50.000000000000
      2188    1       33.468995109023      44.329999997300      50.000000000000
      2189    1       30.515848476290      49.444999995306      50.000000000000
      2190    1       33.468995109023      47.739999988681      50.000000000000
      2191    1       30.515848476290      52.854999997622      50.000000000000
      2192    1       33.468995109023      51.149999990997      50.000000000000
      2193    2       23.625173018134      40.919999994984      50.000000000000
      2194    2       26.578319639934      42.624999990675      50.000000000000
      2195    2       23.625173018134      44.329999997300      50.000000000000
      2196    2       26.578319639934      46.034999992990      50.000000000000
      2197    2       23.625173018134      47.739999988681      50.000000000000
      2198    2       26.578319639934      49.444999995306      50.000000000000
      2199    2       23.625173018134      51.149999990997      50.000000000000
      2200    2       26.578319639934      52.854999997622      50.000000000000
      2201    2       29.531466272668      40.919999994984      50.000000000000
      2202    2       32.484612894468      42.624999990675      50.000000000000
      2203    2       29.531466272668      44.329999997300      50.000000000000
      2204    2       32.484612894468      46.034999992990      50.000000000000
      2205    2       29.531466272668      47.739999988681      50.000000000000
      2206    2       32.484612894468      49.444999995306      50.000000000000
      2207    2       29.531466272668      51.149999990997      50.000000000000
      2208    2       32.484612894468      52.854999997622      50.000000000000
      2209    1       36.422141730823      42.624999990675      50.000000000000
      2210    1       39.375288363557      40.919999994984      50.000000000000
      2211    1       36.422141730823      46.034999992990      50.000000000000
      2212    1       39.375288363557      44.329999997300      50.000000000000
      2213    1       36.422141730823      49.444999995306      50.000000000000
      2214    1       39.375288363557      47.739999988681      50.000000000000
      2215    1       36.422141730823      52.854999997622      50.000000000000
      2216    1       39.375288363557      51.149999990997      50.000000000000
      2217    1       42.328434985357      42.624999990675      50.000000000000
      2218    1       45.281581618090      40.919999994984      50.000000000000
      2219    1       42.328434985357      46.034999992990      50.000000000000
      2220    1       45.281581618090      44.329999997300      50.000000000000
      2221    1       42.328434985357      49.444999995306      50.000000000000
      2222    1       45.281581618090      47.739999988681      50.000000000000
      2223    1       42.328434985357      52.854999997622      50.000000000000
      2224    1       45.281581618090      51.149999990997      50.000000000000
      2225    2       35.437759527201      40.919999994984      50.000000000000
      2226    2       38.390906149001      42.624999990675      50.000000000000
      2227    2       35.437759527201      44.329999997300      50.000000000000
      2228    2       38.390906149001      46.034999992990      50.000000000000
      2229    2       35.437759527201      47.739999988681      50.000000000000
      2230    2       38.390906149001      49.444999995306      50.000000000000
      2231    2       35.437759527201      51.149999990997      50.000000000000
      2232    2       38.390906149001      52.854999997622      50.000000000000
      2233    2       41.344052781735      40.919999994984      50.000000000000
      2234    2       44.297199403535      42.624999990675      50.000000000000
      2235    2       41.344052781735      44.329999997300      50.000000000000
      2236    2       44.297199403535      46.034999992990      50.000000000000
      2237    2       41.344052781735      47.739999988681      50.000000000000
      2238    2       44.297199403535      49.444999995306      50.000000000000
      2239    2       41.344052781735      51.149999990997      50.000000000000
      2240    2       44.297199403535      52.854999997622      50.000000000000
      2241    1       48.234728239890      42.624999990675      50.000000000000
      2242    1       51.187874872624      40.919999994984      50.000000000000
      2243    1       48.234728239890      46.034999992990      50.000000000000
      2244    1       51.187874872624      44.329999997300      50.000000000000
      2245    1       48.234728239890      49.444999995306      50.000000000000
      2246    1       51.187874872624      47.739999988681      50.000000000000
      2247    1       48.234728239890      52.854999997622      50.000000000000
      2248    1       51.187874872624      51.149999990997      50.000000000000
      2249    1       54.141021494424      42.624999990675      50.000000000000
      2250    1       57.094168127157      40.919999994984      50.000000000000
      2251    1       54.141021494424      46.034999992990      50.000000000000
      2252    1       57.094168127157      44.329999997300      50.000000000000
      2253    1       54.141021494424      49.444999995306      50.000000000000
      2254    1       57.094168127157      47.739999988681      50.000000000000
      2255    1       54.141021494424      52.854999997622      50.000000000000
      2256    1       57.094168127157      51.149999990997      50.000000000000
      2257    2       47.250346036268      40.919999994984      50.000000000000
      2258    2       50.203492658068      42.624999990675      50.000000000000
      2259    2       47.250346036268      44.329999997300      50.000000000000
      2260    2       50.203492658068      46.034999992990      50.000000000000
      2261    2       47.250346036268      47.739999988681      50.000000000000
      2262    2       50.203492658068      49.444999995306      50.000000000000
      2263    2       47.250346036268      51.149999990997      50.000000000000
      2264    2       50.203492658068      52.854999997622      50.000000000000
      2265    2       53.156639290802      40.919999994984      50.000000000000
      2266    2       56.109785912602      42.624999990675      50.000000000000
      2267    2       53.156639290802      44.329999997300      50.000000000000
      2268    2       56.109785912602      46.034999992990      50.000000000000
      2269    2       53.156639290802      47.739999988681      50.000000000000
      2270    2       56.109785912602      49.444999995306      50.000000000000
      2271    2       53.156639290802      51.149999990997      50.000000000000
      2272    2       56.109785912602      52.854999997622      50.000000000000
      2273    1       60.047314748957      42.624999990675      50.000000000000
      2274    1       63.000461381691      40.919999994984      50.000000000000
      2275    1       60.047314748957      46.034999992990      50.000000000000
      2276    1       63.000461381691      44.329999997300      50.000000000000
      2277    1       60.047314748957      49.444999995306      50.000000000000
      2278    1       63.000461381691      47.739999988681      50.000000000000
      2279    1       60.047314748957      52.854999997622      50.000000000000
      2280    1       63.000461381691      51.149999990997      50.000000000000
      2281    1       65.953608003491      42.624999990675      50.000000000000
      2282    1       68.906754636224      40.919999994984      50.000000000000
      2283    1       65.953608003491      46.034999992990      50.000000000000
      2284    1       68.906754636224      44.329999997300      50.000000000000
      2285    1       65.953608003491      49.444999995306      50.000000000000
      2286    1       68.906754636224      47.739999988681      50.000000000000
      2287    1       65.953608003491      52.854999997622      50.000000000000
      2288    1       68.906754636224      51.149999990997      50.000000000000
      2289    2       59.062932545335      40.919999994984      50.000000000000
      2290    2       62.016079167135      42.624999990675      50.000000000000
      2291    2       59.062932545335      44.329999997300      50.000000000000
      2292    2       62.016079167135      46.034999992990      50.000000000000
      2293    2       59.062932545335      47.739999988681      50.000000000000
      2294    2       62.016079167135      49.444999995306      50.000000000000
      2295    2       59.062932545335      51.149999990997      50.000000000000
      2296    2       62.016079167135      52.854999997622      50.000000000000
      2297    2       64.969225799869      40.919999994984      50.000000000000
      2298    2       67.922372421669      42.624999990675      50.000000000000
      2299    2       64.969225799869      44.329999997300      50.000000000000
      2300    2       67.922372421669      46.034999992990      50.000000000000
      2301    2       64.969225799869      47.739999988681      50.000000000000
      2302    2       67.922372421669      49.444999995306      50.000000000000
      2303    2       64.969225799869      51.149999990997      50.000000000000
      2304    2       67.922372421669      52.854999997622      50.000000000000
      2305    1       71.859901258024      42.624999990675      50.000000000000
      2306    1       74.813047890758      40.919999994984      50.000000000000
      2307    1       71.859901258024      46.034999992990      50.000000000000
      2308    1       74.813047890758      44.329999997300      50.000000000000
      2309    1       71.859901258024      49.444999995306      50.000000000000
      2310    1       74.813047890758      47.739999988681      50.000000000000
      2311    1       71.859901258024      52.854999997622      50.000000000000
      2312    1       74.813047890758      51.149999990997      50.000000000000
      2313    1       77.766194512558      42.624999990675      50.000000000000
      2314    1       80.719341145291      40.919999994984      50.000000000000
      2315    1       77.766194512558      46.034999992990      50.000000000000
      2316    1       80.719341145291      44.329999997300      50.000000000000
      2317    1       77.766194512558      49.444999995306      50.000000000000
      2318    1       80.719341145291      47.739999988681      50.000000000000
      2319    1       77.766194512558      52.854999997622      50.000000000000
      2320    1       80.719341145291      51.149999990997      50.000000000000
      2321    2       70.875519054402      40.919999994984      50.000000000000
      2322    2       73.828665676202      42.624999990675      50.000000000000
      2323    2       70.875519054402      44.329999997300      50.000000000000
      2324    2       73.828665676202      46.034999992990      50.000000000000
      2325    2       70.875519054402      47.739999988681      50.000000000000
      2326    2       73.828665676202      49.444999995306      50.000000000000
      2327    2       70.875519054402      51.149999990997      50.000000000000
      2328    2       73.828665676202      52.854999997622      50.000000000000
      2329    2       76.781812308936      40.919999994984      50.000000000000
      2330    2       79.734958930736      42.624999990675      50.000000000000
      2331    2       76.781812308936      44.329999997300      50.000000000000
      2332    2       79.734958930736      46.034999992990      50.000000000000
      2333    2       76.781812308936      47.739999988681      50.000000000000
      2334    2       79.734958930736      49.444999995306      50.000000000000
      2335    2       76.781812308936      51.149999990997      50.000000000000
      2336    2       79.734958930736      52.854999997622      50.000000000000
      2337    1       83.672487767091      42.624999990675      50.000000000000
      2338    1       86.625634399825      40.919999994984      50.000000000000
      2339    1       83.672487767091      46.034999992990      50.000000000000
      2340    1       86.625634399825      44.329999997300      50.000000000000
      2341    1       83.672487767091      49.444999995306      50.000000000000
      2342    1       86.625634399825      47.739999988681      50.000000000000
      2343    1       83.672487767091      52.854999997622      50.000000000000
      2344    1       86.625634399825      51.149999990997      50.000000000000
      2345    1       89.578781021625      42.624999990675      50.000000000000
      2346    1       92.531927654358      40.919999994984      50.000000000000
      2347    1       89.578781021625      46.034999992990      50.000000000000
      2348    1       92.531927654358      44.329999997300      50.000000000000
      2349    1       89.578781021625      49.444999995306      50.000000000000
      2350    1       92.531927654358      47.739999988681      50.000000000000
      2351    1       89.578781021625      52.854999997622      50.000000000000
      2352    1       92.531927654358      51.149999990997      50.000000000000
      2353    2       82.688105563469      40.919999994984      50.000000000000
      2354    2       85.641252185269      42.624999990675      50.000000000000
      2355    2       82.688105563469      44.329999997300      50.000000000000
      2356    2       85.641252185269      46.034999992990      50.000000000000
      2357    2       82.688105563469      47.739999988681      50.000000000000
      2358    2       85.641252185269      49.444999995306      50.000000000000
      2359    2       82.688105563469      51.149999990997      50.000000000000
      2360    2       85.641252185269      52.854999997622      50.000000000000
      2361    2       88.594398818003      40.919999994984      50.000000000000
      2362    2       91.547545439803      42.624999990675      50.000000000000
      2363    2       88.594398818003      44.329999997300      50.000000000000
      2364    2       91.547545439803      46.034999992990      50.000000000000
      2365    2       88.594398818003      47.739999988681      50.000000000000
      2366    2       91.547545439803      49.444999995306      50.000000000000
      2367    2       88.594398818003      51.149999990997      50.000000000000
      2368    2       91.547545439803      52.854999997622      50.000000000000
      2369    1       95.485074276158      42.624999990675      50.000000000000
      2370    1       98.438220908892      40.919999994984      50.000000000000
      2371    1       95.485074276158      46.034999992990      50.000000000000
      2372    1       98.438220908892      44.329999997300      50.000000000000
      2373    1       95.485074276158      49.444999995306      50.000000000000
      2374    1       98.438220908892      47.739999988681      50.000000000000
      2375    1       95.485074276158      52.854999997622      50.000000000000
      2376    1       98.438220908892      51.149999990997      50.000000000000
      2377    1      101.391367530692      42.624999990675      50.000000000000
      2378    1      104.344514163425      40.919999994984      50.000000000000
      2379    1      101.391367530692      46.034999992990      50.000000000000
      2380    1      104.344514163425      44.329999997300      50.000000000000
      2381    1      101.391367530692      49.444999995306      50.000000000000
      2382    1      104.344514163425      47.739999988681      50.000000000000
      2383    1      101.391367530692      52.854999997622      50.000000000000
      2384    1      104.344514163425      51.149999990997      50.000000000000
      2385    2       94.500692072536      40.919999994984      50.000000000000
      2386    2       97.453838694336      42.624999990675      50.000000000000
      2387    2       94.500692072536      44.329999997300      50.000000000000
      2388    2       97.453838694336      46.034999992990      50.000000000000
      2389    2       94.500692072536      47.739999988681      50.000000000000
      2390    2       97.453838694336      49.444999995306      50.000000000000
      2391    2       94.500692072536      51.149999990997      50.000000000000
      2392    2       97.453838694336      52.854999997622      50.000000000000
      2393    2      100.406985327070      40.919999994984      50.000000000000
      2394    2      103.360131948870      42.624999990675      50.000000000000
      2395    2      100.406985327070      44.329999997300      50.000000000000
      2396    2      103.360131948870      46.034999992990      50.000000000000
      2397    2      100.406985327070      47.739999988681      50.000000000000
      2398    2      103.360131948870      49.444999995306      50.000000000000
      2399    2      100.406985327070      51.149999990997      50.000000000000
      2400    2      103.360131948870      52.854999997622      50.000000000000
      2401    1      107.297660785225      42.624999990675      50.000000000000
      2402    1      110.250807417959      40.919999994984      50.000000000000
      2403    1      107.297660785225      46.034999992990      50.000000000000
      2404    1      110.250807417959      44.329999997300      50.000000000000
      2405    1      107.297660785225      49.444999995306      50.000000000000
      2406    1      110.250807417959      47.739999988681      50.000000000000
      2407    1      107.297660785225      52.854999997622      50.000000000000
      2408    1      110.250807417959      51.149999990997      50.000000000000
      2409    1      113.203954039759      42.624999990675      50.000000000000
      2410    1      116.157100672492      40.919999994984      50.000000000000
      2411    1      113.203954039759      46.034999992990      50.000000000000
      2412    1      116.157100672492      44.329999997300      50.000000000000
      2413    1      113.203954039759      49.444999995306      50.000000000000
      2414    1      116.157100672492      47.739999988681      50.000000000000
      2415    1      113.203954039759      52.854999997622      50.000000000000
      2416    1      116.157100672492      51.149999990997      50.000000000000
      2417    2      106.313278581603      40.919999994984      50.000000000000
      2418    2      109.266425203403      42.624999990675      50.000000000000
      2419    2      106.313278581603      44.329999997300      50.000000000000
      2420    2      109.266425203403      46.034999992990      50.000000000000
      2421    2      106.313278581603      47.739999988681      50.000000000000
      2422    2      109.266425203403      49.444999995306      50.000000000000
      2423    2      106.313278581603      51.149999990997      50.000000000000
      2424    2      109.266425203403      52.854999997622      50.000000000000
      2425    2      112.219571836137      40.919999994984      50.000000000000
      2426    2      115.172718457937      42.624999990675      50.000000000000
      2427    2      112.219571836137      44.329999997300      50.000000000000
      2428    2      115.172718457937      46.034999992990      50.000000000000
      2429    2      112.219571836137      47.739999988681      50.000000000000
      2430    2      115.172718457937      49.444999995306      50.000000000000
      2431    2      112.219571836137      51.149999990997      50.000000000000
      2432    2      115.172718457937      52.854999997622      50.000000000000
      2433    1      119.110247294292      42.624999990675      50.000000000000
      2434    1      122.063393927026      40.919999994984      50.000000000000
      2435    1      119.110247294292      46.034999992990      50.000000000000
      2436    1      122.063393927026      44.329999997300      50.000000000000
      2437    1      119.110247294292      49.444999995306      50.000000000000
      2438    1      122.063393927026      47.739999988681      50.000000000000
      2439    1      119.110247294292      52.854999997622      50.000000000000
      2440    1      122.063393927026      51.149999990997      50.000000000000
      2441    1      125.016540548826      42.624999990675      50.000000000000
      2442    1      127.969687181559      40.919999994984      50.000000000000
      2443    1      125.016540548826      46.034999992990      50.000000000000
      2444    1      127.969687181559      44.329999997300      50.000000000000
      2445    1      125.016540548826      49.444999995306      50.000000000000
      2446    1      127.969687181559      47.739999988681      50.000000000000
      2447    1      125.016540548826      52.854999997622      50.000000000000
      2448    1      127.969687181559      51.149999990997      50.000000000000
      2449    2      118.125865090670      40.919999994984      50.000000000000
      2450    2      121.079011712470      42.624999990675      50.000000000000
      2451    2      118.125865090670      44.329999997300      50.000000000000
      2452    2      121.079011712470      46.034999992990      50.000000000000
      2453    2      118.125865090670      47.739999988681      50.000000000000
      2454    2      121.079011712470      49.444999995306      50.000000000000
      2455    2      118.125865090670      51.149999990997      50.000000000000
      2456    2      121.079011712470      52.854999997622      50.000000000000
      2457    2      124.032158345204      40.919999994984      50.000000000000
      2458    2      126.985304967004      42.624999990675      50.000000000000
      2459    2      124.032158345204      44.329999997300      50.000000000000
      2460    2      126.985304967004      46.034999992990      50.000000000000
      2461    2      124.032158345204      47.739999988681      50.000000000000
      2462    2      126.985304967004      49.444999995306      50.000000000000
      2463    2      124.032158345204      51.149999990997      50.000000000000
      2464    2      126.985304967004      52.854999997622      50.000000000000
      2465    1      130.922833803359      42.624999990675      50.000000000000
      2466    1      133.875980436093      40.919999994984      50.000000000000
      2467    1      130.922833803359      46.034999992990      50.000000000000
      2468    1      133.875980436093      44.329999997300      50.000000000000
      2469    1      130.922833803359      49.444999995306      50.000000000000
      2470    1      133.875980436093      47.739999988681      50.000000000000
      2471    1      130.922833803359      52.854999997622      50.000000000000
      2472    1      133.875980436093      51.149999990997      50.000000000000
      2473    1      136.829127057893      42.624999990675      50.000000000000
      2474    1      139.782273690626      40.919999994984      50.000000000000
      2475    1      136.829127057893      46.034999992990      50.000000000000
      2476    1      139.782273690626      44.329999997300      50.000000000000
      2477    1      136.829127057893      49.444999995306      50.000000000000
      2478    1      139.782273690626      47.739999988681      50.000000000000
      2479    1      136.829127057893      52.854999997622      50.000000000000
      2480    1      139.782273690626      51.149999990997      50.000000000000
      2481    2      129.938451599737      40.919999994984      50.000000000000
      2482    2      132.891598221537      42.624999990675      50.000000000000
      2483    2      129.938451599737      44.329999997300      50.000000000000
      2484    2      132.891598221537      46.034999992990      50.000000000000
      2485    2      129.938451599737      47.739999988681      50.000000000000
      2486    2      132.891598221537      49.444999995306      50.000000000000
      2487    2      129.938451599737      51.149999990997      50.000000000000
      2488    2      132.891598221537      52.854999997622      50.000000000000
      2489    2      135.844744854271      40.919999994984      50.000000000000
      2490    2      138.797891476071      42.624999990675      50.000000000000
      2491    2      135.844744854271      44.329999997300      50.000000000000
      2492    2      138.797891476071      46.034999992990      50.000000000000
      2493    2      135.844744854271      47.739999988681      50.000000000000
      2494    2      138.797891476071      49.444999995306      50.000000000000
      2495    2      135.844744854271      51.149999990997      50.000000000000
      2496    2      138.797891476071      52.854999997622      50.000000000000
      2497    1      142.735420312426      42.624999990675      50.000000000000
      2498    1      145.688566945160      40.919999994984      50.000000000000
      2499    1      142.735420312426      46.034999992990      50.000000000000
      2500    1      145.688566945160      44.329999997300      50.000000000000
      2501    1      142.735420312426      49.444999995306      50.000000000000
      2502    1      145.688566945160      47.739999988681      50.000000000000
      2503    1      142.735420312426      52.854999997622      50.000000000000
      2504    1      145.688566945160      51.149999990997      50.000000000000
      2505    1      148.641713566960      42.624999990675      50.000000000000
      2506    1      151.594860199693      40.919999994984      50.000000000000
      2507    1      148.641713566960      46.034999992990      50.000000000000
      2508    1      151.594860199693      44.329999997300      50.000000000000
      2509    1      148.641713566960      49.444999995306      50.000000000000
      2510    1      151.594860199693      47.739999988681      50.000000000000
      2511    1      148.641713566960      52.854999997622      50.000000000000
      2512    1      151.594860199693      51.149999990997      50.000000000000
      2513    2      141.751038108804      40.919999994984      50.000000000000
      2514    2      144.704184730604      42.624999990675      50.000000000000
      2515    2      141.751038108804      44.329999997300      50.000000000000
      2516    2      144.704184730604      46.034999992990      50.000000000000
      2517    2      141.751038108804      47.739999988681      50.000000000000
      2518    2      144.704184730604      49.444999995306      50.000000000000
      2519    2      141.751038108804      51.149999990997      50.000000000000
      2520    2      144.704184730604      52.854999997622      50.000000000000
      2521    2      147.657331363338      40.919999994984      50.000000000000
      2522    2      150.610477985138      42.624999990675      50.000000000000
      2523    2      147.657331363338      44.329999997300      50.000000000000
      2524    2      150.610477985138      46.034999992990      50.000000000000
      2525    2      147.657331363338      47.739999988681      50.000000000000
      2526    2      150.610477985138      49.444999995306      50.000000000000
      2527    2      147.657331363338      51.149999990997      50.000000000000
      2528    2      150.610477985138      52.854999997622      50.000000000000
      2529    1      154.548006821493      42.624999990675      50.000000000000
      2530    1      157.501153454227      40.919999994984      50.000000000000
      2531    1      154.548006821493      46.034999992990      50.000000000000
      2532    1      157.501153454227      44.329999997300      50.000000000000
      2533    1      154.548006821493      49.444999995306      50.000000000000
      2534    1      157.501153454227      47.739999988681      50.000000000000
      2535    1      154.548006821493      52.854999997622      50.000000000000
      2536    1      157.501153454227      51.149999990997      50.000000000000
      2537    1      160.454300076027      42.624999990675      50.000000000000
      2538    1      163.407446708760      40.919999994984      50.000000000000
      2539    1      160.454300076027      46.034999992990      50.000000000000
      2540    1      163.407446708760      44.329999997300      50.000000000000
      2541    1      160.454300076027      49.444999995306      50.000000000000
      2542    1      163.407446708760      47.739999988681      50.000000000000
      2543    1      160.454300076027      52.854999997622      50.000000000000
      2544    1      163.407446708760      51.149999990997      50.000000000000
      2545    2      153.563624617871      40.919999994984      50.000000000000
      2546    2      156.516771239671      42.624999990675      50.000000000000
      2547    2      153.563624617871      44.329999997300      50.000000000000
      2548    2      156.516771239671      46.034999992990      50.000000000000
      2549    2      153.563624617871      47.739999988681      50.000000000000
      2550    2      156.516771239671      49.444999995306      50.000000000000
      2551    2      153.563624617871      51.149999990997      50.000000000000
      2552    2      156.516771239671      52.854999997622      50.000000000000
      2553    2      159.469917872405      40.919999994984      50.000000000000
      2554    2      162.423064494205      42.624999990675      50.000000000000
      2555    2      159.469917872405      44.329999997300      50.000000000000
      2556    2      162.423064494205      46.034999992990      50.000000000000
      2557    2      159.469917872405      47.739999988681      50.000000000000
      2558    2      162.423064494205      49.444999995306      50.000000000000
      2559    2      159.469917872405      51.149999990997      50.000000000000
      2560    2      162.423064494205      52.854999997622      50.000000000000
      2561    1      166.360593330560      42.624999990675      50.000000000000
      2562    1      169.313739963294      40.919999994984      50.000000000000
      2563    1      166.360593330560      46.034999992990      50.000000000000
      2564    1      169.313739963294      44.329999997300      50.000000000000
      2565    1      166.360593330560      49.444999995306      50.000000000000
      2566    1      169.313739963294      47.739999988681      50.000000000000
      2567    1      166.360593330560      52.854999997622      50.000000000000
      2568    1      169.313739963294      51.149999990997      50.000000000000
      2569    1      172.266886585094      42.624999990675      50.000000000000
      2570    1      175.220033217827      40.919999994984      50.000000000000
      2571    1      172.266886585094      46.034999992990      50.000000000000
      2572    1      175.220033217827      44.329999997300      50.000000000000
      2573    1      172.266886585094      49.444999995306      50.000000000000
      2574    1      175.220033217827      47.739999988681      50.000000000000
      2575    1      172.266886585094      52.854999997622      50.000000000000
      2576    1      175.220033217827      51.149999990997      50.000000000000
      2577    2      165.376211126938      40.919999994984      50.000000000000
      2578    2      168.329357748738      42.624999990675      50.000000000000
      2579    2      165.376211126938      44.329999997300      50.000000000000
      2580    2      168.329357748738      46.034999992990      50.000000000000
      2581    2      165.376211126938      47.739999988681      50.000000000000
      2582    2      168.329357748738      49.444999995306      50.000000000000
      2583    2      165.376211126938      51.149999990997      50.000000000000
      2584    2      168.329357748738      52.854999997622      50.000000000000
      2585    2      171.282504381472      40.919999994984      50.000000000000
      2586    2      174.235651003272      42.624999990675      50.000000000000
      2587    2      171.282504381472      44.329999997300      50.000000000000
      2588    2      174.235651003272      46.034999992990      50.000000000000
      2589    2      171.282504381472      47.739999988681      50.000000000000
      2590    2      174.235651003272      49.444999995306      50.000000000000
      2591    2      171.282504381472      51.149999990997      50.000000000000
      2592    2      174.235651003272      52.854999997622      50.000000000000
      2593    1      178.173179839627      42.624999990675      50.000000000000
      2594    1      181.126326472361      40.919999994984      50.000000000000
      2595    1      178.173179839627      46.034999992990      50.000000000000
      2596    1      181.126326472361      44.329999997300      50.000000000000
      2597    1      178.173179839627      49.444999995306      50.000000000000
      2598    1      181.126326472361      47.739999988681      50.000000000000
      2599    1      178.173179839627      52.854999997622      50.000000000000
      2600    1      181.126326472361      51.149999990997      50.000000000000
      2601    1      184.079473094161      42.624999990675      50.000000000000
      2602    1      187.032619726894      40.919999994984      50.000000000000
      2603    1      184.079473094161      46.034999992990      50.000000000000
      2604    1      187.032619726894      44.329999997300      50.000000000000
      2605    1      184.079473094161      49.444999995306      50.000000000000
      2606    1      187.032619726894      47.739999988681      50.000000000000
      2607    1      184.079473094161      52.854999997622      50.000000000000
      2608    1      187.032619726894      51.149999990997      50.000000000000
      2609    2      177.188797636005      40.919999994984      50.000000000000
      2610    2      180.141944257805      42.624999990675      50.000000000000
      2611    2      177.188797636005      44.329999997300      50.000000000000
      2612    2      180.141944257805      46.034999992990      50.000000000000
      2613    2      177.188797636005      47.739999988681      50.000000000000
      2614    2      180.141944257805      49.444999995306      50.000000000000
      2615    2      177.188797636005      51.149999990997      50.000000000000
      2616    2      180.141944257805      52.854999997622      50.000000000000
      2617    2      183.095090890539      40.919999994984      50.000000000000
      2618    2      186.048237512339      42.624999990675      50.000000000000
      2619    2      183.095090890539      44.329999997300      50.000000000000
      2620    2      186.048237512339      46.034999992990      50.000000000000
      2621    2      183.095090890539      47.739999988681      50.000000000000
      2622    2      186.048237512339      49.444999995306      50.000000000000
      2623    2      183.095090890539      51.149999990997      50.000000000000
      2624    2      186.048237512339      52.854999997622      50.000000000000
      2625    1      189.985766348694      42.624999990675      50.000000000000
      2626    1      192.938912981428      40.919999994984      50.000000000000
      2627    1      189.985766348694      46.034999992990      50.000000000000
      2628    1      192.938912981428      44.329999997300      50.000000000000
      2629    1      189.985766348694      49.444999995306      50.000000000000
      2630    1      192.938912981428      47.739999988681      50.000000000000
      2631    1      189.985766348694      52.854999997622      50.000000000000
      2632    1      192.938912981428      51.149999990997      50.000000000000
      2633    1      195.892059603228      42.624999990675      50.000000000000
      2634    1      198.845206235961      40.919999994984      50.000000000000
      2635    1      195.892059603228      46.034999992990      50.000000000000
      2636    1      198.845206235961      44.329999997300      50.000000000000
      2637    1      195.892059603228      49.444999995306      50.000000000000
      2638    1      198.845206235961      47.739999988681      50.000000000000
      2639    1      195.892059603228      52.854999997622      50.000000000000
      2640    1      198.845206235961      51.149999990997      50.000000000000
      2641    2      189.001384145072      40.919999994984      50.000000000000
      2642    2      191.954530766872      42.624999990675      50.000000000000
      2643    2      189.001384145072      44.329999997300      50.000000000000
      2644    2      191.954530766872      46.034999992990      50.000000000000
      2645    2      189.001384145072      47.739999988681      50.000000000000
      2646    2      191.954530766872      49.444999995306      50.000000000000
      2647    2      189.001384145072      51.149999990997      50.000000000000
      2648    2      191.954530766872      52.854999997622      50.000000000000
      2649    2      194.907677399606      40.919999994984      50.000000000000
      2650    2      197.860824021406      42.624999990675      50.000000000000
      2651    2      194.907677399606      44.329999997300      50.000000000000
      2652    2      197.860824021406      46.034999992990      50.000000000000
      2653    2      194.907677399606      47.739999988681      50.000000000000
      2654    2      197.860824021406      49.444999995306      50.000000000000
      2655    2      194.907677399606      51.149999990997      50.000000000000
      2656    2      197.860824021406      52.854999997622      50.000000000000
      2657    1      201.798352857761      42.624999990675      50.000000000000
      2658    1      204.751499490495      40.919999994984      50.000000000000
      2659    1      201.798352857761      46.034999992990      50.000000000000
      2660    1      204.751499490495      44.329999997300      50.000000000000
      2661    1      201.798352857761      49.444999995306      50.000000000000
      2662    1      204.751499490495      47.739999988681      50.000000000000
      2663    1      201.798352857761      52.854999997622      50.000000000000
      2664    1      204.751499490495      51.149999990997      50.000000000000
      2665    1      207.704646112295      42.624999990675      50.000000000000
      2666    1      210.657792745028      40.919999994984      50.000000000000
      2667    1      207.704646112295      46.034999992990      50.000000000000
      2668    1      210.657792745028      44.329999997300      50.000000000000
      2669    1      207.704646112295      49.444999995306      50.000000000000
      2670    1      210.657792745028      47.739999988681      50.000000000000
      2671    1      207.704646112295      52.854999997622      50.000000000000
      2672    1      210.657792745028      51.149999990997      50.000000000000
      2673    2      200.813970654139      40.919999994984      50.000000000000
      2674    2      203.767117275939      42.624999990675      50.000000000000
      2675    2      200.813970654139      44.329999997300      50.000000000000
      2676    2      203.767117275939      46.034999992990      50.000000000000
      2677    2      200.813970654139      47.739999988681      50.000000000000
      2678    2      203.767117275939      49.444999995306      50.000000000000
      2679    2      200.813970654139      51.149999990997      50.000000000000
      2680    2      203.767117275939      52.854999997622      50.000000000000
      2681    2      206.720263908673      40.919999994984      50.000000000000
      2682    2      209.673410530473      42.624999990675      50.000000000000
      2683    2      206.720263908673      44.329999997300      50.000000000000
      2684    2      209.673410530473      46.034999992990      50.000000000000
      2685    2      206.720263908673      47.739999988681      50.000000000000
      2686    2      209.673410530473      49.444999995306      50.000000000000
      2687    2      206.720263908673      51.149999990997      50.000000000000
      2688    2      209.673410530473      52.854999997622      50.000000000000
      2689    1      213.610939366828      42.624999990675      50.000000000000
      2690    1      216.564085999562      40.919999994984      50.000000000000
      2691    1      213.610939366828      46.034999992990      50.000000000000
      2692    1      216.564085999562      44.329999997300      50.000000000000
      2693    1      213.610939366828      49.444999995306      50.000000000000
      2694    1      216.564085999562      47.739999988681      50.000000000000
      2695    1      213.610939366828      52.854999997622      50.000000000000
      2696    1      216.564085999562      51.149999990997      50.000000000000
      2697    1      219.517232621362      42.624999990675      50.000000000000
      2698    1      222.470379254095      40.919999994984      50.000000000000
      2699    1      219.517232621362      46.034999992990      50.000000000000
      2700    1      222.470379254095      44.329999997300      50.000000000000
      2701    1      219.517232621362      49.444999995306      50.000000000000
      2702    1      222.470379254095      47.739999988681      50.000000000000
      2703    1      219.517232621362      52.854999997622      50.000000000000
      2704    1      222.470379254095      51.149999990997      50.000000000000
      2705    2      212.626557163206      40.919999994984      50.000000000000
      2706    2      215.579703785006      42.624999990675      50.000000000000
      2707    2      212.626557163206      44.329999997300      50.000000000000
      2708    2      215.579703785006      46.034999992990      50.000000000000
      2709    2      212.626557163206      47.739999988681      50.000000000000
      2710    2      215.579703785006      49.444999995306      50.000000000000
      2711    2      212.626557163206      51.149999990997      50.000000000000
      2712    2      215.579703785006      52.854999997622      50.000000000000
      2713    2      218.532850417740      40.919999994984      50.000000000000
      2714    2      221.485997039540      42.624999990675      50.000000000000
      2715    2      218.532850417740      44.329999997300      50.000000000000
      2716    2      221.485997039540      46.034999992990      50.000000000000
      2717    2      218.532850417740      47.739999988681      50.000000000000
      2718    2      221.485997039540      49.444999995306      50.000000000000
      2719    2      218.532850417740      51.149999990997      50.000000000000
      2720    2      221.485997039540      52.854999997622      50.000000000000
      2721    1      225.423525875895      42.624999990675      50.000000000000
      2722    1      228.376672508629      40.919999994984      50.000000000000
      2723    1      225.423525875895      46.034999992990      50.000000000000
      2724    1      228.376672508629      44.329999997300      50.000000000000
      2725    1      225.423525875895      49.444999995306      50.000000000000
      2726    1      228.376672508629      47.739999988681      50.000000000000
      2727    1      225.423525875895      52.854999997622      50.000000000000
      2728    1      228.376672508629      51.149999990997      50.000000000000
      2729    1      231.329819130429      42.624999990675      50.000000000000
      2730    1      234.282965763162      40.919999994984      50.000000000000
      2731    1      231.329819130429      46.034999992990      50.000000000000
      2732    1      234.282965763162      44.329999997300      50.000000000000
      2733    1      231.329819130429      49.444999995306      50.000000000000
      2734    1      234.282965763162      47.739999988681      50.000000000000
      2735    1      231.329819130429      52.854999997622      50.000000000000
      2736    1      234.282965763162      51.149999990997      50.000000000000
      2737    2      224.439143672273      40.919999994984      50.000000000000
      2738    2      227.392290294073      42.624999990675      50.000000000000
      2739    2      224.439143672273      44.329999997300      50.000000000000
      2740    2      227.392290294073      46.034999992990      50.000000000000
      2741    2      224.439143672273      47.739999988681      50.000000000000
      2742    2      227.392290294073      49.444999995306      50.000000000000
      2743    2      224.439143672273      51.149999990997      50.000000000000
      2744    2      227.392290294073      52.854999997622      50.000000000000
      2745    2      230.345436926807      40.919999994984      50.000000000000
      2746    2      233.298583548607      42.624999990675      50.000000000000
      2747    2      230.345436926807      44.329999997300      50.000000000000
      2748    2      233.298583548607      46.034999992990      50.000000000000
      2749    2      230.345436926807      47.739999988681      50.000000000000
      2750    2      233.298583548607      49.444999995306      50.000000000000
      2751    2      230.345436926807      51.149999990997      50.000000000000
      2752    2      233.298583548607      52.854999997622      50.000000000000
      2753    1      237.236112384962      42.624999990675      50.000000000000
      2754    1      240.189259017696      40.919999994984      50.000000000000
      2755    1      237.236112384962      46.034999992990      50.000000000000
      2756    1      240.189259017696      44.329999997300      50.000000000000
      2757    1      237.236112384962      49.444999995306      50.000000000000
      2758    1      240.189259017696      47.739999988681      50.000000000000
      2759    1      237.236112384962      52.854999997622      50.000000000000
      2760    1      240.189259017696      51.149999990997      50.000000000000
      2761    1      243.142405639496      42.624999990675      50.000000000000
      2762    1      246.095552272229      40.919999994984      50.000000000000
      2763    1      243.142405639496      46.034999992990      50.000000000000
      2764    1      246.095552272229      44.329999997300      50.000000000000
      2765    1      243.142405639496      49.444999995306      50.000000000000
      2766    1      246.095552272229      47.739999988681      50.000000000000
      2767    1      243.142405639496      52.854999997622      50.000000000000
      2768    1      246.095552272229      51.149999990997      50.000000000000
      2769    2      236.251730181340      40.919999994984      50.000000000000
      2770    2      239.204876803140      42.624999990675      50.000000000000
      2771    2      236.251730181340      44.329999997300      50.000000000000
      2772    2      239.204876803140      46.034999992990      50.000000000000
      2773    2      236.251730181340      47.739999988681      50.000000000000
      2774    2      239.204876803140      49.444999995306      50.000000000000
      2775    2      236.251730181340      51.149999990997      50.000000000000
      2776    2      239.204876803140      52.854999997622      50.000000000000
      2777    2      242.158023435874      40.919999994984      50.000000000000
      2778    2      245.111170057674      42.624999990675      50.000000000000
      2779    2      242.158023435874      44.329999997300      50.000000000000
      2780    2      245.111170057674      46.034999992990      50.000000000000
      2781    2      242.158023435874      47.739999988681      50.000000000000
      2782    2      245.111170057674      49.444999995306      50.000000000000
      2783    2      242.158023435874      51.149999990997      50.000000000000
      2784    2      245.111170057674      52.854999997622      50.000000000000
      2785    1      249.048698894029      42.624999990675      50.000000000000
      2786    1      252.001845526763      40.919999994984      50.000000000000
      2787    1      249.048698894029      46.034999992990      50.000000000000
      2788    1      252.001845526763      44.329999997300      50.000000000000
      2789    1      249.048698894029      49.444999995306      50.000000000000
      2790    1      252.001845526763      47.739999988681      50.000000000000
      2791    1      249.048698894029      52.854999997622      50.000000000000
      2792    1      252.001845526763      51.149999990997      50.000000000000
      2793    1      254.954992148563      42.624999990675      50.000000000000
      2794    1      257.908138781296      40.919999994984      50.000000000000
      2795    1      254.954992148563      46.034999992990      50.000000000000
      2796    1      257.908138781296      44.329999997300      50.000000000000
      2797    1      254.954992148563      49.444999995306      50.000000000000
      2798    1      257.908138781296      47.739999988681      50.000000000000
      2799    1      254.954992148563      52.854999997622      50.000000000000
      2800    1      257.908138781296      51.149999990997      50.000000000000
      2801    2      248.064316690407      40.919999994984      50.000000000000
      2802    2      251.017463312207      42.624999990675      50.000000000000
      2803    2      248.064316690407      44.329999997300      50.000000000000
      2804    2      251.017463312207      46.034999992990      50.000000000000
      2805    2      248.064316690407      47.739999988681      50.000000000000
      2806    2      251.017463312207      49.444999995306      50.000000000000
      2807    2      248.064316690407      51.149999990997      50.000000000000
      2808    2      251.017463312207      52.854999997622      50.000000000000
      2809    2      253.970609944941      40.919999994984      50.000000000000
      2810    2      256.923756566741      42.624999990675      50.000000000000
      2811    2      253.970609944941      44.329999997300      50.000000000000
      2812    2      256.923756566741      46.034999992990      50.000000000000
      2813    2      253.970609944941      47.739999988681      50.000000000000
      2814    2      256.923756566741      49.444999995306      50.000000000000
      2815    2      253.970609944941      51.149999990997      50.000000000000
      2816    2      256.923756566741      52.854999997622      50.000000000000
      2817    1        0.984382203622      56.264999989003      50.000000000000
      2818    1        3.937528836356      54.559999993312      50.000000000000
      2819    1        0.984382203622      59.674999991318      50.000000000000
      2820    1        3.937528836356      57.969999995628      50.000000000000
      2821    1        0.984382203622      63.084999993634      50.000000000000
      2822    1        3.937528836356      61.379999987009      50.000000000000
      2823    1        0.984382203622      66.494999995950      50.000000000000
      2824    1        3.937528836356      64.789999989325      50.000000000000
      2825    1        6.890675458156      56.264999989003      50.000000000000
      2826    1        9.843822090889      54.559999993312      50.000000000000
      2827    1        6.890675458156      59.674999991318      50.000000000000
      2828    1        9.843822090889      57.969999995628      50.000000000000
      2829    1        6.890675458156      63.084999993634      50.000000000000
      2830    1        9.843822090889      61.379999987009      50.000000000000
      2831    1        6.890675458156      66.494999995950      50.000000000000
      2832    1        9.843822090889      64.789999989325      50.000000000000
      2833    2        0.000000000000      54.559999993312      50.000000000000
      2834    2        2.953146621800      56.264999989003      50.000000000000
      2835    2        0.000000000000      57.969999995628      50.000000000000
      2836    2        2.953146621800      59.674999991318      50.000000000000
      2837    2        0.000000000000      61.379999987009      50.000000000000
      2838    2        2.953146621800      63.084999993634      50.000000000000
      2839    2        0.000000000000      64.789999989325      50.000000000000
      2840    2        2.953146621800      66.494999995950      50.000000000000
      2841    2        5.906293254534      54.559999993312      50.000000000000
      2842    2        8.859439876334      56.264999989003      50.000000000000
      2843    2        5.906293254534      57.969999995628      50.000000000000
      2844    2        8.859439876334      59.674999991318      50.000000000000
      2845    2        5.906293254534      61.379999987009      50.000000000000
      2846    2        8.859439876334      63.084999993634      50.000000000000
      2847    2        5.906293254534      64.789999989325      50.000000000000
      2848    2        8.859439876334      66.494999995950      50.000000000000
      2849    1       12.796968712689      56.264999989003      50.000000000000
      2850    1       15.750115345423      54.559999993312      50.000000000000
      2851    1       12.796968712689      59.674999991318      50.000000000000
      2852    1       15.750115345423      57.969999995628      50.000000000000
      2853    1       12.796968712689      63.084999993634      50.000000000000
      2854    1       15.750115345423      61.379999987009      50.000000000000
      2855    1       12.796968712689      66.494999995950      50.000000000000
      2856    1       15.750115345423      64.789999989325      50.000000000000
      2857    1       18.703261967223      56.264999989003      50.000000000000
      2858    1       21.656408599956      54.559999993312      50.000000000000
      2859    1       18.703261967223      59.674999991318      50.000000000000
      2860    1       21.656408599956      57.969999995628      50.000000000000
      2861    1       18.703261967223      63.084999993634      50.000000000000
      2862    1       21.656408599956      61.379999987009      50.000000000000
      2863    1       18.703261967223      66.494999995950      50.000000000000
      2864    1       21.656408599956      64.789999989325      50.000000000000
      2865    2       11.812586509067      54.559999993312      50.000000000000
      2866    2       14.765733130867      56.264999989003      50.000000000000
      2867    2       11.812586509067      57.969999995628      50.000000000000
      2868    2       14.765733130867      59.674999991318      50.000000000000
      2869    2       11.812586509067      61.379999987009      50.000000000000
      2870    2       14.765733130867      63.084999993634      50.000000000000
      2871    2       11.812586509067      64.789999989325      50.000000000000
      2872    2       14.765733130867      66.494999995950      50.000000000000
      2873    2       17.718879763601      54.559999993312      50.000000000000
      2874    2       20.672026385401      56.264999989003      50.000000000000
      2875    2       17.718879763601      57.969999995628      50.000000000000
      2876    2       20.672026385401      59.674999991318      50.000000000000
      2877    2       17.718879763601      61.379999987009      50.000000000000
      2878    2       20.672026385401      63.084999993634      50.000000000000
      2879    2       17.718879763601      64.789999989325      50.000000000000
      2880    2       20.672026385401      66.494999995950      50.000000000000
      2881    1       24.609555221756      56.264999989003      50.000000000000
      2882    1       27.562701854490      54.559999993312      50.000000000000
      2883    1       24.609555221756      59.674999991318      50.000000000000
      2884    1       27.562701854490      57.969999995628      50.000000000000
      2885    1       24.609555221756      63.084999993634      50.000000000000
      2886    1       27.562701854490      61.379999987009      50.000000000000
      2887    1       24.609555221756      66.494999995950      50.000000000000
      2888    1       27.562701854490      64.789999989325      50.000000000000
      2889    1       30.515848476290      56.264999989003      50.000000000000
      2890    1       33.468995109023      54.559999993312      50.000000000000
      2891    1       30.515848476290      59.674999991318      50.000000000000
      2892    1       33.468995109023      57.969999995628      50.000000000000
      2893    1       30.515848476290      63.084999993634      50.000000000000
      2894    1       33.468995109023      61.379999987009      50.000000000000
      2895    1       30.515848476290      66.494999995950      50.000000000000
      2896    1       33.468995109023      64.789999989325      50.000000000000
      2897    2       23.625173018134      54.559999993312      50.000000000000
      2898    2       26.578319639934      56.264999989003      50.000000000000
      2899    2       23.625173018134      57.969999995628      50.000000000000
      2900    2       26.578319639934      59.674999991318      50.000000000000
      2901    2       23.625173018134      61.379999987009      50.000000000000
      2902    2       26.578319639934      63.084999993634      50.000000000000
      2903    2       23.625173018134      64.789999989325      50.000000000000
      2904    2       26.578319639934      66.494999995950      50.000000000000
      2905    2       29.531466272668      54.559999993312      50.000000000000
      2906    2       32.484612894468      56.264999989003      50.000000000000
      2907    2       29.531466272668      57.969999995628      50.000000000000
      2908    2       32.484612894468      59.674999991318      50.000000000000
      2909    2       29.531466272668      61.379999987009      50.000000000000
      2910    2       32.484612894468      63.084999993634      50.000000000000
      2911    2       29.531466272668      64.789999989325      50.000000000000
      2912    2       32.484612894468      66.494999995950      50.000000000000
      2913    1       36.422141730823      56.264999989003      50.000000000000
      2914    1       39.375288363557      54.559999993312      50.000000000000
      2915    1       36.422141730823      59.674999991318      50.000000000000
      2916    1       39.375288363557      57.969999995628      50.000000000000
      2917    1       36.422141730823      63.084999993634      50.000000000000
      2918    1       39.375288363557      61.379999987009      50.000000000000
      2919    1       36.422141730823      66.494999995950      50.000000000000
      2920    1       39.375288363557      64.789999989325      50.000000000000
      2921    1       42.328434985357      56.264999989003      50.000000000000
      2922    1       45.281581618090      54.559999993312      50.000000000000
      2923    1       42.328434985357      59.674999991318      50.000000000000
      2924    1       45.281581618090      57.969999995628      50.000000000000
      2925    1       42.328434985357      63.084999993634      50.000000000000
      2926    1       45.281581618090      61.379999987009      50.000000000000
      2927    1       42.328434985357      66.494999995950      50.000000000000
      2928    1       45.281581618090      64.789999989325      50.000000000000
      2929    2       35.437759527201      54.559999993312      50.000000000000
      2930    2       38.390906149001      56.264999989003      50.000000000000
      2931    2       35.437759527201      57.969999995628      50.000000000000
      2932    2       38.390906149001      59.674999991318      50.000000000000
      2933    2       35.437759527201      61.379999987009      50.000000000000
      2934    2       38.390906149001      63.084999993634      50.000000000000
      2935    2       35.437759527201      64.789999989325      50.000000000000
      2936    2       38.390906149001      66.494999995950      50.000000000000
      2937    2       41.344052781735      54.559999993312      50.000000000000
      2938    2       44.297199403535      56.264999989003      50.000000000000
      2939    2       41.344052781735      57.969999995628      50.000000000000
      2940    2       44.297199403535      59.674999991318      50.000000000000
      2941    2       41.344052781735      61.379999987009      50.000000000000
      2942    2       44.297199403535      63.084999993634      50.000000000000
      2943    2       41.344052781735      64.789999989325      50.000000000000
      2944    2       44.297199403535      66.494999995950      50.000000000000
      2945    1       48.234728239890      56.264999989003      50.000000000000
      2946    1       51.187874872624      54.559999993312      50.000000000000
      2947    1       48.234728239890      59.674999991318      50.000000000000
      2948    1       51.187874872624      57.969999995628      50.000000000000
      2949    1       48.234728239890      63.084999993634      50.000000000000
      2950    1       51.187874872624      61.379999987009      50.000000000000
      2951    1       48.234728239890      66.494999995950      50.000000000000
      2952    1       51.187874872624      64.789999989325      50.000000000000
      2953    1       54.141021494424      56.264999989003      50.000000000000
      2954    1       57.094168127157      54.559999993312      50.000000000000
      2955    1       54.141021494424      59.674999991318      50.000000000000
      2956    1       57.094168127157      57.969999995628      50.000000000000
      2957    1       54.141021494424      63.084999993634      50.000000000000
      2958    1       57.094168127157      61.379999987009      50.000000000000
      2959    1       54.141021494424      66.494999995950      50.000000000000
      2960    1       57.094168127157      64.789999989325      50.000000000000
      2961    2       47.250346036268      54.559999993312      50.000000000000
      2962    2       50.203492658068      56.264999989003      50.000000000000
      2963    2       47.250346036268      57.969999995628      50.000000000000
      2964    2       50.203492658068      59.674999991318      50.000000000000
      2965    2       47.250346036268      61.379999987009      50.000000000000
      2966    2       50.203492658068      63.084999993634      50.000000000000
      2967    2       47.250346036268      64.789999989325      50.000000000000
      2968    2       50.203492658068      66.494999995950      50.000000000000
      2969    2       53.156639290802      54.559999993312      50.000000000000
      2970    2       56.109785912602      56.264999989003      50.000000000000
      2971    2       53.156639290802      57.969999995628      50.000000000000
      2972    2       56.109785912602      59.674999991318      50.000000000000
      2973    2       53.156639290802      61.379999987009      50.000000000000
      2974    2       56.109785912602      63.084999993634      50.000000000000
      2975    2       53.156639290802      64.789999989325      50.000000000000
      2976    2       56.109785912602      66.494999995950      50.000000000000
      2977    1       60.047314748957      56.264999989003      50.000000000000
      2978    1       63.000461381691      54.559999993312      50.000000000000
      2979    1       60.047314748957      59.674999991318      50.000000000000
      2980    1       63.000461381691      57.969999995628      50.000000000000
      2981    1       60.047314748957      63.084999993634      50.000000000000
      2982    1       63.000461381691      61.379999987009      50.000000000000
      2983    1       60.047314748957      66.494999995950      50.000000000000
      2984    1       63.000461381691      64.789999989325      50.000000000000
      2985    1       65.953608003491      56.264999989003      50.000000000000
      2986    1       68.906754636224      54.559999993312      50.000000000000
      2987    1       65.953608003491      59.674999991318      50.000000000000
      2988    1       68.906754636224      57.969999995628      50.000000000000
      2989    1       65.953608003491      63.084999993634      50.000000000000
      2990    1       68.906754636224      61.379999987009      50.000000000000
      2991    1       65.953608003491      66.494999995950      50.000000000000
      2992    1       68.906754636224      64.789999989325      50.000000000000
      2993    2       59.062932545335      54.559999993312      50.000000000000
      2994    2       62.016079167135      56.264999989003      50.000000000000
      2995    2       59.062932545335      57.969999995628      50.000000000000
      2996    2       62.016079167135      59.674999991318      50.000000000000
      2997    2       59.062932545335      61.379999987009      50.000000000000
      2998    2       62.016079167135      63.084999993634      50.000000000000
      2999    2       59.062932545335      64.789999989325      50.000000000000
      3000    2       62.016079167135      66.494999995950      50.000000000000
      3001    2       64.969225799869      54.559999993312      50.000000000000
      3002    2       67.922372421669      56.264999989003      50.000000000000
      3003    2       64.969225799869      57.969999995628      50.000000000000
      3004    2       67.922372421669      59.674999991318      50.000000000000
      3005    2       64.969225799869      61.379999987009      50.000000000000
      3006    2       67.922372421669      63.084999993634      50.000000000000
      3007    2       64.969225799869      64.789999989325      50.000000000000
      3008    2       67.922372421669      66.494999995950      50.000000000000
      3009    1       71.859901258024      56.264999989003      50.000000000000
      3010    1       74.813047890758      54.559999993312      50.000000000000
      3011    1       71.859901258024      59.674999991318      50.000000000000
      3012    1       74.813047890758      57.969999995628      50.000000000000
      3013    1       71.859901258024      63.084999993634      50.000000000000
      3014    1       74.813047890758      61.379999987009      50.000000000000
      3015    1       71.859901258024      66.494999995950      50.000000000000
      3016    1       74.813047890758      64.789999989325      50.000000000000
      3017    1       77.766194512558      56.264999989003      50.000000000000
      3018    1       80.719341145291      54.559999993312      50.000000000000
      3019    1       77.766194512558      59.674999991318      50.000000000000
      3020    1       80.719341145291      57.969999995628      50.000000000000
      3021    1       77.766194512558      63.084999993634      50.000000000000
      3022    1       80.719341145291      61.379999987009      50.000000000000
      3023    1       77.766194512558      66.494999995950      50.000000000000
      3024    1       80.719341145291      64.789999989325      50.000000000000
      3025    2       70.875519054402      54.559999993312      50.000000000000
      3026    2       73.828665676202      56.264999989003      50.000000000000
      3027    2       70.875519054402      57.969999995628      50.000000000000
      3028    2       73.828665676202      59.674999991318      50.000000000000
      3029    2       70.875519054402      61.379999987009      50.000000000000
      3030    2       73.828665676202      63.084999993634      50.000000000000
      3031    2       70.875519054402      64.789999989325      50.000000000000
      3032    2       73.828665676202      66.494999995950      50.000000000000
      3033    2       76.781812308936      54.559999993312      50.000000000000
      3034    2       79.734958930736      56.264999989003      50.000000000000
      3035    2       76.781812308936      57.969999995628      50.000000000000
      3036    2       79.734958930736      59.674999991318      50.000000000000
      3037    2       76.781812308936      61.379999987009      50.000000000000
      3038    2       79.734958930736      63.084999993634      50.000000000000
      3039    2       76.781812308936      64.789999989325      50.000000000000
      3040    2       79.734958930736      66.494999995950      50.000000000000
      3041    1       83.672487767091      56.264999989003      50.000000000000
      3042    1       86.625634399825      54.559999993312      50.000000000000
      3043    1       83.672487767091      59.674999991318      50.000000000000
      3044    1       86.625634399825      57.969999995628      50.000000000000
      3045    1       83.672487767091      63.084999993634      50.000000000000
      3046    1       86.625634399825      61.379999987009      50.000000000000
      3047    1       83.672487767091      66.494999995950      50.000000000000
      3048    1       86.625634399825      64.789999989325      50.000000000000
      3049    1       89.578781021625      56.264999989003      50.000000000000
      3050    1       92.531927654358      54.559999993312      50.000000000000
      3051    1       89.578781021625      59.674999991318      50.000000000000
      3052    1       92.531927654358      57.969999995628      50.000000000000
      3053    1       89.578781021625      63.084999993634      50.000000000000
      3054    1       92.531927654358      61.379999987009      50.000000000000
      3055    1       89.578781021625      66.494999995950      50.000000000000
      3056    1       92.531927654358      64.789999989325      50.000000000000
      3057    2       82.688105563469      54.559999993312      50.000000000000
      3058    2       85.641252185269      56.264999989003      50.000000000000
      3059    2       82.688105563469      57.969999995628      50.000000000000
      3060    2       85.641252185269      59.674999991318      50.000000000000
      3061    2       82.688105563469      61.379999987009      50.000000000000
      3062    2       85.641252185269      63.084999993634      50.000000000000
      3063    2       82.688105563469      64.789999989325      50.000000000000
      3064    2       85.641252185269      66.494999995950      50.000000000000
      3065    2       88.594398818003      54.559999993312      50.000000000000
      3066    2       91.547545439803      56.264999989003      50.000000000000
      3067    2       88.594398818003      57.969999995628      50.000000000000
      3068    2       91.547545439803      59.674999991318      50.000000000000
      3069    2       88.594398818003      61.379999987009      50.000000000000
      3070    2       91.547545439803      63.084999993634      50.000000000000
      3071    2       88.594398818003      64.789999989325      50.000000000000
      3072    2       91.547545439803      66.494999995950      50.000000000000
      3073    1       95.485074276158      56.264999989003      50.000000000000
      3074    1       98.438220908892      54.559999993312      50.000000000000
      3075    1       95.485074276158      59.674999991318      50.000000000000
      3076    1       98.438220908892      57.969999995628      50.000000000000
      3077    1       95.485074276158      63.084999993634      50.000000000000
      3078    1       98.438220908892      61.379999987009      50.000000000000
      3079    1       95.485074276158      66.494999995950      50.000000000000
      3080    1       98.438220908892      64.789999989325      50.000000000000
      3081    1      101.391367530692      56.264999989003      50.000000000000
      3082    1      104.344514163425      54.559999993312      50.000000000000
      3083    1      101.391367530692      59.674999991318      50.000000000000
      3084    1      104.344514163425      57.969999995628      50.000000000000
      3085    1      101.391367530692      63.084999993634      50.000000000000
      3086    1      104.344514163425      61.379999987009      50.000000000000
      3087    1      101.391367530692      66.494999995950      50.000000000000
      3088    1      104.344514163425      64.789999989325      50.000000000000
      3089    2       94.500692072536      54.559999993312      50.000000000000
      3090    2       97.453838694336      56.264999989003      50.000000000000
      3091    2       94.500692072536      57.969999995628      50.000000000000
      3092    2       97.453838694336      59.674999991318      50.000000000000
      3093    2       94.500692072536      61.379999987009      50.000000000000
      3094    2       97.453838694336      63.084999993634      50.000000000000
      3095    2       94.500692072536      64.789999989325      50.000000000000
      3096    2       97.453838694336      66.494999995950      50.000000000000
      3097    2      100.406985327070      54.559999993312      50.000000000000
      3098    2      103.360131948870      56.264999989003      50.000000000000
      3099    2      100.406985327070      57.969999995628      50.000000000000
      3100    2      103.360131948870      59.674999991318      50.000000000000
      3101    2      100.406985327070      61.379999987009      50.000000000000
      3102    2      103.360131948870      63.084999993634      50.000000000000
      3103    2      100.406985327070      64.789999989325      50.000000000000
      3104    2      103.360131948870      66.494999995950      50.000000000000
      3105    1      107.297660785225      56.264999989003      50.000000000000
      3106    1      110.250807417959      54.559999993312      50.000000000000
      3107    1      107.297660785225      59.674999991318      50.000000000000
      3108    1      110.250807417959      57.969999995628      50.000000000000
      3109    1      107.297660785225      63.084999993634      50.000000000000
      3110    1      110.250807417959      61.379999987009      50.000000000000
      3111    1      107.297660785225      66.494999995950      50.000000000000
      3112    1      110.250807417959      64.789999989325      50.000000000000
      3113    1      113.203954039759      56.264999989003      50.000000000000
      3114    1      116.157100672492      54.559999993312      50.000000000000
      3115    1      113.203954039759      59.674999991318      50.000000000000
      3116    1      116.157100672492      57.969999995628      50.000000000000
      3117    1      113.203954039759      63.084999993634      50.000000000000
      3118    1      116.157100672492      61.379999987009      50.000000000000
      3119    1      113.203954039759      66.494999995950      50.000000000000
      3120    1      116.157100672492      64.789999989325      50.000000000000
      3121    2      106.313278581603      54.559999993312      50.000000000000
      3122    2      109.266425203403      56.264999989003      50.000000000000
      3123    2      106.313278581603      57.969999995628      50.000000000000
      3124    2      109.266425203403      59.674999991318      50.000000000000
      3125    2      106.313278581603      61.379999987009      50.000000000000
      3126    2      109.266425203403      63.084999993634      50.000000000000
      3127    2      106.313278581603      64.789999989325      50.000000000000
      3128    2      109.266425203403      66.494999995950      50.000000000000
      3129    2      112.219571836137      54.559999993312      50.000000000000
      3130    2      115.172718457937      56.264999989003      50.000000000000
      3131    2      112.219571836137      57.969999995628      50.000000000000
      3132    2      115.172718457937      59.674999991318      50.000000000000
      3133    2      112.219571836137      61.379999987009      50.000000000000
      3134    2      115.172718457937      63.084999993634      50.000000000000
      3135    2      112.219571836137      64.789999989325      50.000000000000
      3136    2      115.172718457937      66.494999995950      50.000000000000
      3137    1      119.110247294292      56.264999989003      50.000000000000
      3138    1      122.063393927026      54.559999993312      50.000000000000
      3139    1      119.110247294292      59.674999991318      50.000000000000
      3140    1      122.063393927026      57.969999995628      50.000000000000
      3141    1      119.110247294292      63.084999993634      50.000000000000
      3142    1      122.063393927026      61.379999987009      50.000000000000
      3143    1      119.110247294292      66.494999995950      50.000000000000
      3144    1      122.063393927026      64.789999989325      50.000000000000
      3145    1      125.016540548826      56.264999989003      50.000000000000
      3146    1      127.969687181559      54.559999993312      50.000000000000
      3147    1      125.016540548826      59.674999991318      50.000000000000
      3148    1      127.969687181559      57.969999995628      50.000000000000
      3149    1      125.016540548826      63.084999993634      50.000000000000
      3150    1      127.969687181559      61.379999987009      50.000000000000
      3151    1      125.016540548826      66.494999995950      50.000000000000
      3152    1      127.969687181559      64.789999989325      50.000000000000
      3153    2      118.125865090670      54.559999993312      50.000000000000
      3154    2      121.079011712470      56.264999989003      50.000000000000
      3155    2      118.125865090670      57.969999995628      50.000000000000
      3156    2      121.079011712470      59.674999991318      50.000000000000
      3157    2      118.125865090670      61.379999987009      50.000000000000
      3158    2      121.079011712470      63.084999993634      50.000000000000
      3159    2      118.125865090670      64.789999989325      50.000000000000
      3160    2      121.079011712470      66.494999995950      50.000000000000
      3161    2      124.032158345204      54.559999993312      50.000000000000
      3162    2      126.985304967004      56.264999989003      50.000000000000
      3163    2      124.032158345204      57.969999995628      50.000000000000
      3164    2      126.985304967004      59.674999991318      50.000000000000
      3165    2      124.032158345204      61.379999987009      50.000000000000
      3166    2      126.985304967004      63.084999993634      50.000000000000
      3167    2      124.032158345204      64.789999989325      50.000000000000
      3168    2      126.985304967004      66.494999995950      50.000000000000
      3169    1      130.922833803359      56.264999989003      50.000000000000
      3170    1      133.875980436093      54.559999993312      50.000000000000
      3171    1      130.922833803359      59.674999991318      50.000000000000
      3172    1      133.875980436093      57.969999995628      50.000000000000
      3173    1      130.922833803359      63.084999993634      50.000000000000
      3174    1      133.875980436093      61.379999987009      50.000000000000
      3175    1      130.922833803359      66.494999995950      50.000000000000
      3176    1      133.875980436093      64.789999989325      50.000000000000
      3177    1      136.829127057893      56.264999989003      50.000000000000
      3178    1      139.782273690626      54.559999993312      50.000000000000
      3179    1      136.829127057893      59.674999991318      50.000000000000
      3180    1      139.782273690626      57.969999995628      50.000000000000
      3181    1      136.829127057893      63.084999993634      50.000000000000
      3182    1      139.782273690626      61.379999987009      50.000000000000
      3183    1      136.829127057893      66.494999995950      50.000000000000
      3184    1      139.782273690626      64.789999989325      50.000000000000
      3185    2      129.938451599737      54.559999993312      50.000000000000
      3186    2      132.891598221537      56.264999989003      50.000000000000
      3187    2      129.938451599737      57.969999995628      50.000000000000
      3188    2      132.891598221537      59.674999991318      50.000000000000
      3189    2      129.938451599737      61.379999987009      50.000000000000
      3190    2      132.891598221537      63.084999993634      50.000000000000
      3191    2      129.938451599737      64.789999989325      50.000000000000
      3192    2      132.891598221537      66.494999995950      50.000000000000
      3193    2      135.844744854271      54.559999993312      50.000000000000
      3194    2      138.797891476071      56.264999989003      50.000000000000
      3195    2      135.844744854271      57.969999995628      50.000000000000
      3196    2      138.797891476071      59.674999991318      50.000000000000
      3197    2      135.844744854271      61.379999987009      50.000000000000
      3198    2      138.797891476071      63.084999993634      50.000000000000
      3199    2      135.844744854271      64.789999989325      50.000000000000
      3200    2      138.797891476071      66.494999995950      50.000000000000
      3201    1      142.735420312426      56.264999989003      50.000000000000
      3202    1      145.688566945160      54.559999993312      50.000000000000
      3203    1      142.735420312426      59.674999991318      50.000000000000
      3204    1      145.688566945160      57.969999995628      50.000000000000
      3205    1      142.735420312426      63.084999993634      50.000000000000
      3206    1      145.688566945160      61.379999987009      50.000000000000
      3207    1      142.735420312426      66.494999995950      50.000000000000
      3208    1      145.688566945160      64.789999989325      50.000000000000
      3209    1      148.641713566960      56.264999989003      50.000000000000
      3210    1      151.594860199693      54.559999993312      50.000000000000
      3211    1      148.641713566960      59.674999991318      50.000000000000
      3212    1      151.594860199693      57.969999995628      50.000000000000
      3213    1      148.641713566960      63.084999993634      50.000000000000
      3214    1      151.594860199693      61.379999987009      50.000000000000
      3215    1      148.641713566960      66.494999995950      50.000000000000
      3216    1      151.594860199693      64.789999989325      50.000000000000
      3217    2      141.751038108804      54.559999993312      50.000000000000
      3218    2      144.704184730604      56.264999989003      50.000000000000
      3219    2      141.751038108804      57.969999995628      50.000000000000
      3220    2      144.704184730604      59.674999991318      50.000000000000
      3221    2      141.751038108804      61.379999987009      50.000000000000
      3222    2      144.704184730604      63.084999993634      50.000000000000
      3223    2      141.751038108804      64.789999989325      50.000000000000
      3224    2      144.704184730604      66.494999995950      50.000000000000
      3225    2      147.657331363338      54.559999993312      50.000000000000
      3226    2      150.610477985138      56.264999989003      50.000000000000
      3227    2      147.657331363338      57.969999995628      50.000000000000
      3228    2      150.610477985138      59.674999991318      50.000000000000
      3229    2      147.657331363338      61.379999987009      50.000000000000
      3230    2      150.610477985138      63.084999993634      50.000000000000
      3231    2      147.657331363338      64.789999989325      50.000000000000
      3232    2      150.610477985138      66.494999995950      50.000000000000
      3233    1      154.548006821493      56.264999989003      50.000000000000
      3234    1      157.501153454227      54.559999993312      50.000000000000
      3235    1      154.548006821493      59.674999991318      50.000000000000
      3236    1      157.501153454227      57.969999995628      50.000000000000
      3237    1      154.548006821493      63.084999993634      50.000000000000
      3238    1      157.501153454227      61.379999987009      50.000000000000
      3239    1      154.548006821493      66.494999995950      50.000000000000
      3240    1      157.501153454227      64.789999989325      50.000000000000
      3241    1      160.454300076027      56.264999989003      50.000000000000
      3242    1      163.407446708760      54.559999993312      50.000000000000
      3243    1      160.454300076027      59.674999991318      50.000000000000
      3244    1      163.407446708760      57.969999995628      50.000000000000
      3245    1      160.454300076027      63.084999993634      50.000000000000
      3246    1      163.407446708760      61.379999987009      50.000000000000
      3247    1      160.454300076027      66.494999995950      50.000000000000
      3248    1      163.407446708760      64.789999989325      50.000000000000
      3249    2      153.563624617871      54.559999993312      50.000000000000
      3250    2      156.516771239671      56.264999989003      50.000000000000
      3251    2      153.563624617871      57.969999995628      50.000000000000
      3252    2      156.516771239671      59.674999991318      50.000000000000
      3253    2      153.563624617871      61.379999987009      50.000000000000
      3254    2      156.516771239671      63.084999993634      50.000000000000
      3255    2      153.563624617871      64.789999989325      50.000000000000
      3256    2      156.516771239671      66.494999995950      50.000000000000
      3257    2      159.469917872405      54.559999993312      50.000000000000
      3258    2      162.423064494205      56.264999989003      50.000000000000
      3259    2      159.469917872405      57.969999995628      50.000000000000
      3260    2      162.423064494205      59.674999991318      50.000000000000
      3261    2      159.469917872405      61.379999987009      50.000000000000
      3262    2      162.423064494205      63.084999993634      50.000000000000
      3263    2      159.469917872405      64.789999989325      50.000000000000
      3264    2      162.423064494205      66.494999995950      50.000000000000
      3265    1      166.360593330560      56.264999989003      50.000000000000
      3266    1      169.313739963294      54.559999993312      50.000000000000
      3267    1      166.360593330560      59.674999991318      50.000000000000
      3268    1      169.313739963294      57.969999995628      50.000000000000
      3269    1      166.360593330560      63.084999993634      50.000000000000
      3270    1      169.313739963294      61.379999987009      50.000000000000
      3271    1      166.360593330560      66.494999995950      50.000000000000
      3272    1      169.313739963294      64.789999989325      50.000000000000
      3273    1      172.266886585094      56.264999989003      50.000000000000
      3274    1      175.220033217827      54.559999993312      50.000000000000
      3275    1      172.266886585094      59.674999991318      50.000000000000
      3276    1      175.220033217827      57.969999995628      50.000000000000
      3277    1      172.266886585094      63.084999993634      50.000000000000
      3278    1      175.220033217827      61.379999987009      50.000000000000
      3279    1      172.266886585094      66.494999995950      50.000000000000
      3280    1      175.220033217827      64.789999989325      50.000000000000
      3281    2      165.376211126938      54.559999993312      50.000000000000
      3282    2      168.329357748738      56.264999989003      50.000000000000
      3283    2      165.376211126938      57.969999995628      50.000000000000
      3284    2      168.329357748738      59.674999991318      50.000000000000
      3285    2      165.376211126938      61.379999987009      50.000000000000
      3286    2      168.329357748738      63.084999993634      50.000000000000
      3287    2      165.376211126938      64.789999989325      50.000000000000
      3288    2      168.329357748738      66.494999995950      50.000000000000
      3289    2      171.282504381472      54.559999993312      50.000000000000
      3290    2      174.235651003272      56.264999989003      50.000000000000
      3291    2      171.282504381472      57.969999995628      50.000000000000
      3292    2      174.235651003272      59.674999991318      50.000000000000
      3293    2      171.282504381472      61.379999987009      50.000000000000
      3294    2      174.235651003272      63.084999993634      50.000000000000
      3295    2      171.282504381472      64.789999989325      50.000000000000
      3296    2      174.235651003272      66.494999995950      50.000000000000
      3297    1      178.173179839627      56.264999989003      50.000000000000
      3298    1      181.126326472361      54.559999993312      50.000000000000
      3299    1      178.173179839627      59.674999991318      50.000000000000
      3300    1      181.126326472361      57.969999995628      50.000000000000
      3301    1      178.173179839627      63.084999993634      50.000000000000
      3302    1      181.126326472361      61.379999987009      50.000000000000
      3303    1      178.173179839627      66.494999995950      50.000000000000
      3304    1      181.126326472361      64.789999989325      50.000000000000
      3305    1      184.079473094161      56.264999989003      50.000000000000
      3306    1      187.032619726894      54.559999993312      50.000000000000
      3307    1      184.079473094161      59.674999991318      50.000000000000
      3308    1      187.032619726894      57.969999995628      50.000000000000
      3309    1      184.079473094161      63.084999993634      50.000000000000
      3310    1      187.032619726894      61.379999987009      50.000000000000
      3311    1      184.079473094161      66.494999995950      50.000000000000
      3312    1      187.032619726894      64.789999989325      50.000000000000
      3313    2      177.188797636005      54.559999993312      50.000000000000
      3314    2      180.141944257805      56.264999989003      50.000000000000
      3315    2      177.188797636005      57.969999995628      50.000000000000
      3316    2      180.141944257805      59.674999991318      50.000000000000
      3317    2      177.188797636005      61.379999987009      50.000000000000
      3318    2      180.141944257805      63.084999993634      50.000000000000
      3319    2      177.188797636005      64.789999989325      50.000000000000
      3320    2      180.141944257805      66.494999995950      50.000000000000
      3321    2      183.095090890539      54.559999993312      50.000000000000
      3322    2      186.048237512339      56.264999989003      50.000000000000
      3323    2      183.095090890539      57.969999995628      50.000000000000
      3324    2      186.048237512339      59.674999991318      50.000000000000
      3325    2      183.095090890539      61.379999987009      50.000000000000
      3326    2      186.048237512339      63.084999993634      50.000000000000
      3327    2      183.095090890539      64.789999989325      50.000000000000
      3328    2      186.048237512339      66.494999995950      50.000000000000
      3329    1      189.985766348694      56.264999989003      50.000000000000
      3330    1      192.938912981428      54.559999993312      50.000000000000
      3331    1      189.985766348694      59.674999991318      50.000000000000
      3332    1      192.938912981428      57.969999995628      50.000000000000
      3333    1      189.985766348694      63.084999993634      50.000000000000
      3334    1      192.938912981428      61.379999987009      50.000000000000
      3335    1      189.985766348694      66.494999995950      50.000000000000
      3336    1      192.938912981428      64.789999989325      50.000000000000
      3337    1      195.892059603228      56.264999989003      50.000000000000
      3338    1      198.845206235961      54.559999993312      50.000000000000
      3339    1      195.892059603228      59.674999991318      50.000000000000
      3340    1      198.845206235961      57.969999995628      50.000000000000
      3341    1      195.892059603228      63.084999993634      50.000000000000
      3342    1      198.845206235961      61.379999987009      50.000000000000
      3343    1      195.892059603228      66.494999995950      50.000000000000
      3344    1      198.845206235961      64.789999989325      50.000000000000
      3345    2      189.001384145072      54.559999993312      50.000000000000
      3346    2      191.954530766872      56.264999989003      50.000000000000
      3347    2      189.001384145072      57.969999995628      50.000000000000
      3348    2      191.954530766872      59.674999991318      50.000000000000
      3349    2      189.001384145072      61.379999987009      50.000000000000
      3350    2      191.954530766872      63.084999993634      50.000000000000
      3351    2      189.001384145072      64.789999989325      50.000000000000
      3352    2      191.954530766872      66.494999995950      50.000000000000
      3353    2      194.907677399606      54.559999993312      50.000000000000
      3354    2      197.860824021406      56.264999989003      50.000000000000
      3355    2      194.907677399606      57.969999995628      50.000000000000
      3356    2      197.860824021406      59.674999991318      50.000000000000
      3357    2      194.907677399606      61.379999987009      50.000000000000
      3358    2      197.860824021406      63.084999993634      50.000000000000
      3359    2      194.907677399606      64.789999989325      50.000000000000
      3360    2      197.860824021406      66.494999995950      50.000000000000
      3361    1      201.798352857761      56.264999989003      50.000000000000
      3362    1      204.751499490495      54.559999993312      50.000000000000
      3363    1      201.798352857761      59.674999991318      50.000000000000
      3364    1      204.751499490495      57.969999995628      50.000000000000
      3365    1      201.798352857761      63.084999993634      50.000000000000
      3366    1      204.751499490495      61.379999987009      50.000000000000
      3367    1      201.798352857761      66.494999995950      50.000000000000
      3368    1      204.751499490495      64.789999989325      50.000000000000
      3369    1      207.704646112295      56.264999989003      50.000000000000
      3370    1      210.657792745028      54.559999993312      50.000000000000
      3371    1      207.704646112295      59.674999991318      50.000000000000
      3372    1      210.657792745028      57.969999995628      50.000000000000
      3373    1      207.704646112295      63.084999993634      50.000000000000
      3374    1      210.657792745028      61.379999987009      50.000000000000
      3375    1      207.704646112295      66.494999995950      50.000000000000
      3376    1      210.657792745028      64.789999989325      50.000000000000
      3377    2      200.813970654139      54.559999993312      50.000000000000
      3378    2      203.767117275939      56.264999989003      50.000000000000
      3379    2      200.813970654139      57.969999995628      50.000000000000
      3380    2      203.767117275939      59.674999991318      50.000000000000
      3381    2      200.813970654139      61.379999987009      50.000000000000
      3382    2      203.767117275939      63.084999993634      50.000000000000
      3383    2      200.813970654139      64.789999989325      50.000000000000
      3384    2      203.767117275939      66.494999995950      50.000000000000
      3385    2      206.720263908673      54.559999993312      50.000000000000
      3386    2      209.673410530473      56.264999989003      50.000000000000
      3387    2      206.720263908673      57.969999995628      50.000000000000
      3388    2      209.673410530473      59.674999991318      50.000000000000
      3389    2      206.720263908673      61.379999987009      50.000000000000
      3390    2      209.673410530473      63.084999993634      50.000000000000
      3391    2      206.720263908673      64.789999989325      50.000000000000
      3392    2      209.673410530473      66.494999995950      50.000000000000
      3393    1      213.610939366828      56.264999989003      50.000000000000
      3394    1      216.564085999562      54.559999993312      50.000000000000
      3395    1      213.610939366828      59.674999991318      50.000000000000
      3396    1      216.564085999562      57.969999995628      50.000000000000
      3397    1      213.610939366828      63.084999993634      50.000000000000
      3398    1      216.564085999562      61.379999987009      50.000000000000
      3399    1      213.610939366828      66.494999995950      50.000000000000
      3400    1      216.564085999562      64.789999989325      50.000000000000
      3401    1      219.517232621362      56.264999989003      50.000000000000
      3402    1      222.470379254095      54.559999993312      50.000000000000
      3403    1      219.517232621362      59.674999991318      50.000000000000
      3404    1      222.470379254095      57.969999995628      50.000000000000
      3405    1      219.517232621362      63.084999993634      50.000000000000
      3406    1      222.470379254095      61.379999987009      50.000000000000
      3407    1      219.517232621362      66.494999995950      50.000000000000
      3408    1      222.470379254095      64.789999989325      50.000000000000
      3409    2      212.626557163206      54.559999993312      50.000000000000
      3410    2      215.579703785006      56.264999989003      50.000000000000
      3411    2      212.626557163206      57.969999995628      50.000000000000
      3412    2      215.579703785006      59.674999991318      50.000000000000
      3413    2      212.626557163206      61.379999987009      50.000000000000
      3414    2      215.579703785006      63.084999993634      50.000000000000
      3415    2      212.626557163206      64.789999989325      50.000000000000
      3416    2      215.579703785006      66.494999995950      50.000000000000
      3417    2      218.532850417740      54.559999993312      50.000000000000
      3418    2      221.485997039540      56.264999989003      50.000000000000
      3419    2      218.532850417740      57.969999995628      50.000000000000
      3420    2      221.485997039540      59.674999991318      50.000000000000
      3421    2      218.532850417740      61.379999987009      50.000000000000
      3422    2      221.485997039540      63.084999993634      50.000000000000
      3423    2      218.532850417740      64.789999989325      50.000000000000
      3424    2      221.485997039540      66.494999995950      50.000000000000
      3425    1      225.423525875895      56.264999989003      50.000000000000
      3426    1      228.376672508629      54.559999993312      50.000000000000
      3427    1      225.423525875895      59.674999991318      50.000000000000
      3428    1      228.376672508629      57.969999995628      50.000000000000
      3429    1      225.423525875895      63.084999993634      50.000000000000
      3430    1      228.376672508629      61.379999987009      50.000000000000
      3431    1      225.423525875895      66.494999995950      50.000000000000
      3432    1      228.376672508629      64.789999989325      50.000000000000
      3433    1      231.329819130429      56.264999989003      50.000000000000
      3434    1      234.282965763162      54.559999993312      50.000000000000
      3435    1      231.329819130429      59.674999991318      50.000000000000
      3436    1      234.282965763162      57.969999995628      50.000000000000
      3437    1      231.329819130429      63.084999993634      50.000000000000
      3438    1      234.282965763162      61.379999987009      50.000000000000
      3439    1      231.329819130429      66.494999995950      50.000000000000
      3440    1      234.282965763162      64.789999989325      50.000000000000
      3441    2      224.439143672273      54.559999993312      50.000000000000
      3442    2      227.392290294073      56.264999989003      50.000000000000
      3443    2      224.439143672273      57.969999995628      50.000000000000
      3444    2      227.392290294073      59.674999991318      50.000000000000
      3445    2      224.439143672273      61.379999987009      50.000000000000
      3446    2      227.392290294073      63.084999993634      50.000000000000
      3447    2      224.439143672273      64.789999989325      50.000000000000
      3448    2      227.392290294073      66.494999995950      50.000000000000
      3449    2      230.345436926807      54.559999993312      50.000000000000
      3450    2      233.298583548607      56.264999989003      50.000000000000
      3451    2      230.345436926807      57.969999995628      50.000000000000
      3452    2      233.298583548607      59.674999991318      50.000000000000
      3453    2      230.345436926807      61.379999987009      50.000000000000
      3454    2      233.298583548607      63.084999993634      50.000000000000
      3455    2      230.345436926807      64.789999989325      50.000000000000
      3456    2      233.298583548607      66.494999995950      50.000000000000
      3457    1      237.236112384962      56.264999989003      50.000000000000
      3458    1      240.189259017696      54.559999993312      50.000000000000
      3459    1      237.236112384962      59.674999991318      50.000000000000
      3460    1      240.189259017696      57.969999995628      50.000000000000
      3461    1      237.236112384962      63.084999993634      50.000000000000
      3462    1      240.189259017696      61.379999987009      50.000000000000
      3463    1      237.236112384962      66.494999995950      50.000000000000
      3464    1      240.189259017696      64.789999989325      50.000000000000
      3465    1      243.142405639496      56.264999989003      50.000000000000
      3466    1      246.095552272229      54.559999993312      50.000000000000
      3467    1      243.142405639496      59.674999991318      50.000000000000
      3468    1      246.095552272229      57.969999995628      50.000000000000
      3469    1      243.142405639496      63.084999993634      50.000000000000
      3470    1      246.095552272229      61.379999987009      50.000000000000
      3471    1      243.142405639496      66.494999995950      50.000000000000
      3472    1      246.095552272229      64.789999989325      50.000000000000
      3473    2      236.251730181340      54.559999993312      50.000000000000
      3474    2      239.204876803140      56.264999989003      50.000000000000
      3475    2      236.251730181340      57.969999995628      50.000000000000
      3476    2      239.204876803140      59.674999991318      50.000000000000
      3477    2      236.251730181340      61.379999987009      50.000000000000
      3478    2      239.204876803140      63.084999993634      50.000000000000
      3479    2      236.251730181340      64.789999989325      50.000000000000
      3480    2      239.204876803140      66.494999995950      50.000000000000
      3481    2      242.158023435874      54.559999993312      50.000000000000
      3482    2      245.111170057674      56.264999989003      50.000000000000
      3483    2      242.158023435874      57.969999995628      50.000000000000
      3484    2      245.111170057674      59.674999991318      50.000000000000
      3485    2      242.158023435874      61.379999987009      50.000000000000
      3486    2      245.111170057674      63.084999993634      50.000000000000
      3487    2      242.158023435874      64.789999989325      50.000000000000
      3488    2      245.111170057674      66.494999995950      50.000000000000
      3489    1      249.048698894029      56.264999989003      50.000000000000
      3490    1      252.001845526763      54.559999993312      50.000000000000
      3491    1      249.048698894029      59.674999991318      50.000000000000
      3492    1      252.001845526763      57.969999995628      50.000000000000
      3493    1      249.048698894029      63.084999993634      50.000000000000
      3494    1      252.001845526763      61.379999987009      50.000000000000
      3495    1      249.048698894029      66.494999995950      50.000000000000
      3496    1      252.001845526763      64.789999989325      50.000000000000
      3497    1      254.954992148563      56.264999989003      50.000000000000
      3498    1      257.908138781296      54.559999993312      50.000000000000
      3499    1      254.954992148563      59.674999991318      50.000000000000
      3500    1      257.908138781296      57.969999995628      50.000000000000
      3501    1      254.954992148563      63.084999993634      50.000000000000
      3502    1      257.908138781296      61.379999987009      50.000000000000
      3503    1      254.954992148563      66.494999995950      50.000000000000
      3504    1      257.908138781296      64.789999989325      50.000000000000
      3505    2      248.064316690407      54.559999993312      50.000000000000
      3506    2      251.017463312207      56.264999989003      50.000000000000
      3507    2      248.064316690407      57.969999995628      50.000000000000
      3508    2      251.017463312207      59.674999991318      50.000000000000
      3509    2      248.064316690407      61.379999987009      50.000000000000
      3510    2      251.017463312207      63.084999993634      50.000000000000
      3511    2      248.064316690407      64.789999989325      50.000000000000
      3512    2      251.017463312207      66.494999995950      50.000000000000
      3513    2      253.970609944941      54.559999993312      50.000000000000
      3514    2      256.923756566741      56.264999989003      50.000000000000
      3515    2      253.970609944941      57.969999995628      50.000000000000
      3516    2      256.923756566741      59.674999991318      50.000000000000
      3517    2      253.970609944941      61.379999987009      50.000000000000
      3518    2      256.923756566741      63.084999993634      50.000000000000
      3519    2      253.970609944941      64.789999989325      50.000000000000
      3520    2      256.923756566741      66.494999995950      50.000000000000
      3521    1        0.984382203622      69.904999987331      50.000000000000
      3522    1        3.937528836356      68.199999991640      50.000000000000
      3523    1        0.984382203622      73.314999989646      50.000000000000
      3524    1        3.937528836356      71.609999993956      50.000000000000
      3525    1        0.984382203622      76.724999991962      50.000000000000
      3526    1        3.937528836356      75.019999985337      50.000000000000
      3527    1        0.984382203622      80.134999994278      50.000000000000
      3528    1        3.937528836356      78.429999987653      50.000000000000
      3529    1        6.890675458156      69.904999987331      50.000000000000
      3530    1        9.843822090889      68.199999991640      50.000000000000
      3531    1        6.890675458156      73.314999989646      50.000000000000
      3532    1        9.843822090889      71.609999993956      50.000000000000
      3533    1        6.890675458156      76.724999991962      50.000000000000
      3534    1        9.843822090889      75.019999985337      50.000000000000
      3535    1        6.890675458156      80.134999994278      50.000000000000
      3536    1        9.843822090889      78.429999987653      50.000000000000
      3537    2        0.000000000000      68.199999991640      50.000000000000
      3538    2        2.953146621800      69.904999987331      50.000000000000
      3539    2        0.000000000000      71.609999993956      50.000000000000
      3540    2        2.953146621800      73.314999989646      50.000000000000
      3541    2        0.000000000000      75.019999985337      50.000000000000
      3542    2        2.953146621800      76.724999991962      50.000000000000
      3543    2        0.000000000000      78.429999987653      50.000000000000
      3544    2        2.953146621800      80.134999994278      50.000000000000
      3545    2        5.906293254534      68.199999991640      50.000000000000
      3546    2        8.859439876334      69.904999987331      50.000000000000
      3547    2        5.906293254534      71.609999993956      50.000000000000
      3548    2        8.859439876334      73.314999989646      50.000000000000
      3549    2        5.906293254534      75.019999985337      50.000000000000
      3550    2        8.859439876334      76.724999991962      50.000000000000
      3551    2        5.906293254534      78.429999987653      50.000000000000
      3552    2        8.859439876334      80.134999994278      50.000000000000
      3553    1       12.796968712689      69.904999987331      50.000000000000
      3554    1       15.750115345423      68.199999991640      50.000000000000
      3555    1       12.796968712689      73.314999989646      50.000000000000
      3556    1       15.750115345423      71.609999993956      50.000000000000
      3557    1       12.796968712689      76.724999991962      50.000000000000
      3558    1       15.750115345423      75.019999985337      50.000000000000
      3559    1       12.796968712689      80.134999994278      50.000000000000
      3560    1       15.750115345423      78.429999987653      50.000000000000
      3561    1       18.703261967223      69.904999987331      50.000000000000
      3562    1       21.656408599956      68.199999991640      50.000000000000
      3563    1       18.703261967223      73.314999989646      50.000000000000
      3564    1       21.656408599956      71.609999993956      50.000000000000
      3565    1       18.703261967223      76.724999991962      50.000000000000
      3566    1       21.656408599956      75.019999985337      50.000000000000
      3567    1       18.703261967223      80.134999994278      50.000000000000
      3568    1       21.656408599956      78.429999987653      50.000000000000
      3569    2       11.812586509067      68.199999991640      50.000000000000
      3570    2       14.765733130867      69.904999987331      50.000000000000
      3571    2       11.812586509067      71.609999993956      50.000000000000
      3572    2       14.765733130867      73.314999989646      50.000000000000
      3573    2       11.812586509067      75.019999985337      50.000000000000
      3574    2       14.765733130867      76.724999991962      50.000000000000
      3575    2       11.812586509067      78.429999987653      50.000000000000
      3576    2       14.765733130867      80.134999994278      50.000000000000
      3577    2       17.718879763601      68.199999991640      50.000000000000
      3578    2       20.672026385401      69.904999987331      50.000000000000
      3579    2       17.718879763601      71.609999993956      50.000000000000
      3580    2       20.672026385401      73.314999989646      50.000000000000
      3581    2       17.718879763601      75.019999985337      50.000000000000
      3582    2       20.672026385401      76.724999991962      50.000000000000
      3583    2       17.718879763601      78.429999987653      50.000000000000
      3584    2       20.672026385401      80.134999994278      50.000000000000
      3585    1       24.609555221756      69.904999987331      50.000000000000
      3586    1       27.562701854490      68.199999991640      50.000000000000
      3587    1       24.609555221756      73.314999989646      50.000000000000
      3588    1       27.562701854490      71.609999993956      50.000000000000
      3589    1       24.609555221756      76.724999991962      50.000000000000
      3590    1       27.562701854490      75.019999985337      50.000000000000
      3591    1       24.609555221756      80.134999994278      50.000000000000
      3592    1       27.562701854490      78.429999987653      50.000000000000
      3593    1       30.515848476290      69.904999987331      50.000000000000
      3594    1       33.468995109023      68.199999991640      50.000000000000
      3595    1       30.515848476290      73.314999989646      50.000000000000
      3596    1       33.468995109023      71.609999993956      50.000000000000
      3597    1       30.515848476290      76.724999991962      50.000000000000
      3598    1       33.468995109023      75.019999985337      50.000000000000
      3599    1       30.515848476290      80.134999994278      50.000000000000
      3600    1       33.468995109023      78.429999987653      50.000000000000
      3601    2       23.625173018134      68.199999991640      50.000000000000
      3602    2       26.578319639934      69.904999987331      50.000000000000
      3603    2       23.625173018134      71.609999993956      50.000000000000
      3604    2       26.578319639934      73.314999989646      50.000000000000
      3605    2       23.625173018134      75.019999985337      50.000000000000
      3606    2       26.578319639934      76.724999991962      50.000000000000
      3607    2       23.625173018134      78.429999987653      50.000000000000
      3608    2       26.578319639934      80.134999994278      50.000000000000
      3609    2       29.531466272668      68.199999991640      50.000000000000
      3610    2       32.484612894468      69.904999987331      50.000000000000
      3611    2       29.531466272668      71.609999993956      50.000000000000
      3612    2       32.484612894468      73.314999989646      50.000000000000
      3613    2       29.531466272668      75.019999985337      50.000000000000
      3614    2       32.484612894468      76.724999991962      50.000000000000
      3615    2       29.531466272668      78.429999987653      50.000000000000
      3616    2       32.484612894468      80.134999994278      50.000000000000
      3617    1       36.422141730823      69.904999987331      50.000000000000
      3618    1       39.375288363557      68.199999991640      50.000000000000
      3619    1       36.422141730823      73.314999989646      50.000000000000
      3620    1       39.375288363557      71.609999993956      50.000000000000
      3621    1       36.422141730823      76.724999991962      50.000000000000
      3622    1       39.375288363557      75.019999985337      50.000000000000
      3623    1       36.422141730823      80.134999994278      50.000000000000
      3624    1       39.375288363557      78.429999987653      50.000000000000
      3625    1       42.328434985357      69.904999987331      50.000000000000
      3626    1       45.281581618090      68.199999991640      50.000000000000
      3627    1       42.328434985357      73.314999989646      50.000000000000
      3628    1       45.281581618090      71.609999993956      50.000000000000
      3629    1       42.328434985357      76.724999991962      50.000000000000
      3630    1       45.281581618090      75.019999985337      50.000000000000
      3631    1       42.328434985357      80.134999994278      50.000000000000
      3632    1       45.281581618090      78.429999987653      50.000000000000
      3633    2       35.437759527201      68.199999991640      50.000000000000
      3634    2       38.390906149001      69.904999987331      50.000000000000
      3635    2       35.437759527201      71.609999993956      50.000000000000
      3636    2       38.390906149001      73.314999989646      50.000000000000
      3637    2       35.437759527201      75.019999985337      50.000000000000
      3638    2       38.390906149001      76.724999991962      50.000000000000
      3639    2       35.437759527201      78.429999987653      50.000000000000
      3640    2       38.390906149001      80.134999994278      50.000000000000
      3641    2       41.344052781735      68.199999991640      50.000000000000
      3642    2       44.297199403535      69.904999987331      50.000000000000
      3643    2       41.344052781735      71.609999993956      50.000000000000
      3644    2       44.297199403535      73.314999989646      50.000000000000
      3645    2       41.344052781735      75.019999985337      50.000000000000
      3646    2       44.297199403535      76.724999991962      50.000000000000
      3647    2       41.344052781735      78.429999987653      50.000000000000
      3648    2       44.297199403535      80.134999994278      50.000000000000
      3649    1       48.234728239890      69.904999987331      50.000000000000
      3650    1       51.187874872624      68.199999991640      50.000000000000
      3651    1       48.234728239890      73.314999989646      50.000000000000
      3652    1       51.187874872624      71.609999993956      50.000000000000
      3653    1       48.234728239890      76.724999991962      50.000000000000
      3654    1       51.187874872624      75.019999985337      50.000000000000
      3655    1       48.234728239890      80.134999994278      50.000000000000
      3656    1       51.187874872624      78.429999987653      50.000000000000
      3657    1       54.141021494424      69.904999987331      50.000000000000
      3658    1       57.094168127157      68.199999991640      50.000000000000
      3659    1       54.141021494424      73.314999989646      50.000000000000
      3660    1       57.094168127157      71.609999993956      50.000000000000
      3661    1       54.141021494424      76.724999991962      50.000000000000
      3662    1       57.094168127157      75.019999985337      50.000000000000
      3663    1       54.141021494424      80.134999994278      50.000000000000
      3664    1       57.094168127157      78.429999987653      50.000000000000
      3665    2       47.250346036268      68.199999991640      50.000000000000
      3666    2       50.203492658068      69.904999987331      50.000000000000
      3667    2       47.250346036268      71.609999993956      50.000000000000
      3668    2       50.203492658068      73.314999989646      50.000000000000
      3669    2       47.250346036268      75.019999985337      50.000000000000
      3670    2       50.203492658068      76.724999991962      50.000000000000
      3671    2       47.250346036268      78.429999987653      50.000000000000
      3672    2       50.203492658068      80.134999994278      50.000000000000
      3673    2       53.156639290802      68.199999991640      50.000000000000
      3674    2       56.109785912602      69.904999987331      50.000000000000
      3675    2       53.156639290802      71.609999993956      50.000000000000
      3676    2       56.109785912602      73.314999989646      50.000000000000
      3677    2       53.156639290802      75.019999985337      50.000000000000
      3678    2       56.109785912602      76.724999991962      50.000000000000
      3679    2       53.156639290802      78.429999987653      50.000000000000
      3680    2       56.109785912602      80.134999994278      50.000000000000
      3681    1       60.047314748957      69.904999987331      50.000000000000
      3682    1       63.000461381691      68.199999991640      50.000000000000
      3683    1       60.047314748957      73.314999989646      50.000000000000
      3684    1       63.000461381691      71.609999993956      50.000000000000
      3685    1       60.047314748957      76.724999991962      50.000000000000
      3686    1       63.000461381691      75.019999985337      50.000000000000
      3687    1       60.047314748957      80.134999994278      50.000000000000
      3688    1       63.000461381691      78.429999987653      50.000000000000
      3689    1       65.953608003491      69.904999987331      50.000000000000
      3690    1       68.906754636224      68.199999991640      50.000000000000
      3691    1       65.953608003491      73.314999989646      50.000000000000
      3692    1       68.906754636224      71.609999993956      50.000000000000
      3693    1       65.953608003491      76.724999991962      50.000000000000
      3694    1       68.906754636224      75.019999985337      50.000000000000
      3695    1       65.953608003491      80.134999994278      50.000000000000
      3696    1       68.906754636224      78.429999987653      50.000000000000
      3697    2       59.062932545335      68.199999991640      50.000000000000
      3698    2       62.016079167135      69.904999987331      50.000000000000
      3699    2       59.062932545335      71.609999993956      50.000000000000
      3700    2       62.016079167135      73.314999989646      50.000000000000
      3701    2       59.062932545335      75.019999985337      50.000000000000
      3702    2       62.016079167135      76.724999991962      50.000000000000
      3703    2       59.062932545335      78.429999987653      50.000000000000
      3704    2       62.016079167135      80.134999994278      50.000000000000
      3705    2       64.969225799869      68.199999991640      50.000000000000
      3706    2       67.922372421669      69.904999987331      50.000000000000
      3707    2       64.969225799869      71.609999993956      50.000000000000
      3708    2       67.922372421669      73.314999989646      50.000000000000
      3709    2       64.969225799869      75.019999985337      50.000000000000
      3710    2       67.922372421669      76.724999991962      50.000000000000
      3711    2       64.969225799869      78.429999987653      50.000000000000
      3712    2       67.922372421669      80.134999994278      50.000000000000
      3713    1       71.859901258024      69.904999987331      50.000000000000
      3714    1       74.813047890758      68.199999991640      50.000000000000
      3715    1       71.859901258024      73.314999989646      50.000000000000
      3716    1       74.813047890758      71.609999993956      50.000000000000
      3717    1       71.859901258024      76.724999991962      50.000000000000
      3718    1       74.813047890758      75.019999985337      50.000000000000
      3719    1       71.859901258024      80.134999994278      50.000000000000
      3720    1       74.813047890758      78.429999987653      50.000000000000
      3721    1       77.766194512558      69.904999987331      50.000000000000
      3722    1       80.719341145291      68.199999991640      50.000000000000
      3723    1       77.766194512558      73.314999989646      50.000000000000
      3724    1       80.719341145291      71.609999993956      50.000000000000
      3725    1       77.766194512558      76.724999991962      50.000000000000
      3726    1       80.719341145291      75.019999985337      50.000000000000
      3727    1       77.766194512558      80.134999994278      50.000000000000
      3728    1       80.719341145291      78.429999987653      50.000000000000
      3729    2       70.875519054402      68.199999991640      50.000000000000
      3730    2       73.828665676202      69.904999987331      50.000000000000
      3731    2       70.875519054402      71.609999993956      50.000000000000
      3732    2       73.828665676202      73.314999989646      50.000000000000
      3733    2       70.875519054402      75.019999985337      50.000000000000
      3734    2       73.828665676202      76.724999991962      50.000000000000
      3735    2       70.875519054402      78.429999987653      50.000000000000
      3736    2       73.828665676202      80.134999994278      50.000000000000
      3737    2       76.781812308936      68.199999991640      50.000000000000
      3738    2       79.734958930736      69.904999987331      50.000000000000
      3739    2       76.781812308936      71.609999993956      50.000000000000
      3740    2       79.734958930736      73.314999989646      50.000000000000
      3741    2       76.781812308936      75.019999985337      50.000000000000
      3742    2       79.734958930736      76.724999991962      50.000000000000
      3743    2       76.781812308936      78.429999987653      50.000000000000
      3744    2       79.734958930736      80.134999994278      50.000000000000
      3745    1       83.672487767091      69.904999987331      50.000000000000
      3746    1       86.625634399825      68.199999991640      50.000000000000
      3747    1       83.672487767091      73.314999989646      50.000000000000
      3748    1       86.625634399825      71.609999993956      50.000000000000
      3749    1       83.672487767091      76.724999991962      50.000000000000
      3750    1       86.625634399825      75.019999985337      50.000000000000
      3751    1       83.672487767091      80.134999994278      50.000000000000
      3752    1       86.625634399825      78.429999987653      50.000000000000
      3753    1       89.578781021625      69.904999987331      50.000000000000
      3754    1       92.531927654358      68.199999991640      50.000000000000
      3755    1       89.578781021625      73.314999989646      50.000000000000
      3756    1       92.531927654358      71.609999993956      50.000000000000
      3757    1       89.578781021625      76.724999991962      50.000000000000
      3758    1       92.531927654358      75.019999985337      50.000000000000
      3759    1       89.578781021625      80.134999994278      50.000000000000
      3760    1       92.531927654358      78.429999987653      50.000000000000
      3761    2       82.688105563469      68.199999991640      50.000000000000
      3762    2       85.641252185269      69.904999987331      50.000000000000
      3763    2       82.688105563469      71.609999993956      50.000000000000
      3764    2       85.641252185269      73.314999989646      50.000000000000
      3765    2       82.688105563469      75.019999985337      50.000000000000
      3766    2       85.641252185269      76.724999991962      50.000000000000
      3767    2       82.688105563469      78.429999987653      50.000000000000
      3768    2       85.641252185269      80.134999994278      50.000000000000
      3769    2       88.594398818003      68.199999991640      50.000000000000
      3770    2       91.547545439803      69.904999987331      50.000000000000
      3771    2       88.594398818003      71.609999993956      50.000000000000
      3772    2       91.547545439803      73.314999989646      50.000000000000
      3773    2       88.594398818003      75.019999985337      50.000000000000
      3774    2       91.547545439803      76.724999991962      50.000000000000
      3775    2       88.594398818003      78.429999987653      50.000000000000
      3776    2       91.547545439803      80.134999994278      50.000000000000
      3777    1       95.485074276158      69.904999987331      50.000000000000
      3778    1       98.438220908892      68.199999991640      50.000000000000
      3779    1       95.485074276158      73.314999989646      50.000000000000
      3780    1       98.438220908892      71.609999993956      50.000000000000
      3781    1       95.485074276158      76.724999991962      50.000000000000
      3782    1       98.438220908892      75.019999985337      50.000000000000
      3783    1       95.485074276158      80.134999994278      50.000000000000
      3784    1       98.438220908892      78.429999987653      50.000000000000
      3785    1      101.391367530692      69.904999987331      50.000000000000
      3786    1      104.344514163425      68.199999991640      50.000000000000
      3787    1      101.391367530692      73.314999989646      50.000000000000
      3788    1      104.344514163425      71.609999993956      50.000000000000
      3789    1      101.391367530692      76.724999991962      50.000000000000
      3790    1      104.344514163425      75.019999985337      50.000000000000
      3791    1      101.391367530692      80.134999994278      50.000000000000
      3792    1      104.344514163425      78.429999987653      50.000000000000
      3793    2       94.500692072536      68.199999991640      50.000000000000
      3794    2       97.453838694336      69.904999987331      50.000000000000
      3795    2       94.500692072536      71.609999993956      50.000000000000
      3796    2       97.453838694336      73.314999989646      50.000000000000
      3797    2       94.500692072536      75.019999985337      50.000000000000
      3798    2       97.453838694336      76.724999991962      50.000000000000
      3799    2       94.500692072536      78.429999987653      50.000000000000
      3800    2       97.453838694336      80.134999994278      50.000000000000
      3801    2      100.406985327070      68.199999991640      50.000000000000
      3802    2      103.360131948870      69.904999987331      50.000000000000
      3803    2      100.406985327070      71.609999993956      50.000000000000
      3804    2      103.360131948870      73.314999989646      50.000000000000
      3805    2      100.406985327070      75.019999985337      50.000000000000
      3806    2      103.360131948870      76.724999991962      50.000000000000
      3807    2      100.406985327070      78.429999987653      50.000000000000
      3808    2      103.360131948870      80.134999994278      50.000000000000
      3809    1      107.297660785225      69.904999987331      50.000000000000
      3810    1      110.250807417959      68.199999991640      50.000000000000
      3811    1      107.297660785225      73.314999989646      50.000000000000
      3812    1      110.250807417959      71.609999993956      50.000000000000
      3813    1      107.297660785225      76.724999991962      50.000000000000
      3814    1      110.250807417959      75.019999985337      50.000000000000
      3815    1      107.297660785225      80.134999994278      50.000000000000
      3816    1      110.250807417959      78.429999987653      50.000000000000
      3817    1      113.203954039759      69.904999987331      50.000000000000
      3818    1      116.157100672492      68.199999991640      50.000000000000
      3819    1      113.203954039759      73.314999989646      50.000000000000
      3820    1      116.157100672492      71.609999993956      50.000000000000
      3821    1      113.203954039759      76.724999991962      50.000000000000
      3822    1      116.157100672492      75.019999985337      50.000000000000
      3823    1      113.203954039759      80.134999994278      50.000000000000
      3824    1      116.157100672492      78.429999987653      50.000000000000
      3825    2      106.313278581603      68.199999991640      50.000000000000
      3826    2      109.266425203403      69.904999987331      50.000000000000
      3827    2      106.313278581603      71.609999993956      50.000000000000
      3828    2      109.266425203403      73.314999989646      50.000000000000
      3829    2      106.313278581603      75.019999985337      50.000000000000
      3830    2      109.266425203403      76.724999991962      50.000000000000
      3831    2      106.313278581603      78.429999987653      50.000000000000
      3832    2      109.266425203403      80.134999994278      50.000000000000
      3833    2      112.219571836137      68.199999991640      50.000000000000
      3834    2      115.172718457937      69.904999987331      50.000000000000
      3835    2      112.219571836137      71.609999993956      50.000000000000
      3836    2      115.172718457937      73.314999989646      50.000000000000
      3837    2      112.219571836137      75.019999985337      50.000000000000
      3838    2      115.172718457937      76.724999991962      50.000000000000
      3839    2      112.219571836137      78.429999987653      50.000000000000
      3840    2      115.172718457937      80.134999994278      50.000000000000
      3841    1      119.110247294292      69.904999987331      50.000000000000
      3842    1      122.063393927026      68.199999991640      50.000000000000
      3843    1      119.110247294292      73.314999989646      50.000000000000
      3844    1      122.063393927026      71.609999993956      50.000000000000
      3845    1      119.110247294292      76.724999991962      50.000000000000
      3846    1      122.063393927026      75.019999985337      50.000000000000
      3847    1      119.110247294292      80.134999994278      50.000000000000
      3848    1      122.063393927026      78.429999987653      50.000000000000
      3849    1      125.016540548826      69.904999987331      50.000000000000
      3850    1      127.969687181559      68.199999991640      50.000000000000
      3851    1      125.016540548826      73.314999989646      50.000000000000
      3852    1      127.969687181559      71.609999993956      50.000000000000
      3853    1      125.016540548826      76.724999991962      50.000000000000
      3854    1      127.969687181559      75.019999985337      50.000000000000
      3855    1      125.016540548826      80.134999994278      50.000000000000
      3856    1      127.969687181559      78.429999987653      50.000000000000
      3857    2      118.125865090670      68.199999991640      50.000000000000
      3858    2      121.079011712470      69.904999987331      50.000000000000
      3859    2      118.125865090670      71.609999993956      50.000000000000
      3860    2      121.079011712470      73.314999989646      50.000000000000
      3861    2      118.125865090670      75.019999985337      50.000000000000
      3862    2      121.079011712470      76.724999991962      50.000000000000
      3863    2      118.125865090670      78.429999987653      50.000000000000
      3864    2      121.079011712470      80.134999994278      50.000000000000
      3865    2      124.032158345204      68.199999991640      50.000000000000
      3866    2      126.985304967004      69.904999987331      50.000000000000
      3867    2      124.032158345204      71.609999993956      50.000000000000
      3868    2      126.985304967004      73.314999989646      50.000000000000
      3869    2      124.032158345204      75.019999985337      50.000000000000
      3870    2      126.985304967004      76.724999991962      50.000000000000
      3871    2      124.032158345204      78.429999987653      50.000000000000
      3872    2      126.985304967004      80.134999994278      50.000000000000
      3873    1      130.922833803359      69.904999987331      50.000000000000
      3874    1      133.875980436093      68.199999991640      50.000000000000
      3875    1      130.922833803359      73.314999989646      50.000000000000
      3876    1      133.875980436093      71.609999993956      50.000000000000
      3877    1      130.922833803359      76.724999991962      50.000000000000
      3878    1      133.875980436093      75.019999985337      50.000000000000
      3879    1      130.922833803359      80.134999994278      50.000000000000
      3880    1      133.875980436093      78.429999987653      50.000000000000
      3881    1      136.829127057893      69.904999987331      50.000000000000
      3882    1      139.782273690626      68.199999991640      50.000000000000
      3883    1      136.829127057893      73.314999989646      50.000000000000
      3884    1      139.782273690626      71.609999993956      50.000000000000
      3885    1      136.829127057893      76.724999991962      50.000000000000
      3886    1      139.782273690626      75.019999985337      50.000000000000
      3887    1      136.829127057893      80.134999994278      50.000000000000
      3888    1      139.782273690626      78.429999987653      50.000000000000
      3889    2      129.938451599737      68.199999991640      50.000000000000
      3890    2      132.891598221537      69.904999987331      50.000000000000
      3891    2      129.938451599737      71.609999993956      50.000000000000
      3892    2      132.891598221537      73.314999989646      50.000000000000
      3893    2      129.938451599737      75.019999985337      50.000000000000
      3894    2      132.891598221537      76.724999991962      50.000000000000
      3895    2      129.938451599737      78.429999987653      50.000000000000
      3896    2      132.891598221537      80.134999994278      50.000000000000
      3897    2      135.844744854271      68.199999991640      50.000000000000
      3898    2      138.797891476071      69.904999987331      50.000000000000
      3899    2      135.844744854271      71.609999993956      50.000000000000
      3900    2      138.797891476071      73.314999989646      50.000000000000
      3901    2      135.844744854271      75.019999985337      50.000000000000
      3902    2      138.797891476071      76.724999991962      50.000000000000
      3903    2      135.844744854271      78.429999987653      50.000000000000
      3904    2      138.797891476071      80.134999994278      50.000000000000
      3905    1      142.735420312426      69.904999987331      50.000000000000
      3906    1      145.688566945160      68.199999991640      50.000000000000
      3907    1      142.735420312426      73.314999989646      50.000000000000
      3908    1      145.688566945160      71.609999993956      50.000000000000
      3909    1      142.735420312426      76.724999991962      50.000000000000
      3910    1      145.688566945160      75.019999985337      50.000000000000
      3911    1      142.735420312426      80.134999994278      50.000000000000
      3912    1      145.688566945160      78.429999987653      50.000000000000
      3913    1      148.641713566960      69.904999987331      50.000000000000
      3914    1      151.594860199693      68.199999991640      50.000000000000
      3915    1      148.641713566960      73.314999989646      50.000000000000
      3916    1      151.594860199693      71.609999993956      50.000000000000
      3917    1      148.641713566960      76.724999991962      50.000000000000
      3918    1      151.594860199693      75.019999985337      50.000000000000
      3919    1      148.641713566960      80.134999994278      50.000000000000
      3920    1      151.594860199693      78.429999987653      50.000000000000
      3921    2      141.751038108804      68.199999991640      50.000000000000
      3922    2      144.704184730604      69.904999987331      50.000000000000
      3923    2      141.751038108804      71.609999993956      50.000000000000
      3924    2      144.704184730604      73.314999989646      50.000000000000
      3925    2      141.751038108804      75.019999985337      50.000000000000
      3926    2      144.704184730604      76.724999991962      50.000000000000
      3927    2      141.751038108804      78.429999987653      50.000000000000
      3928    2      144.704184730604      80.134999994278      50.000000000000
      3929    2      147.657331363338      68.199999991640      50.000000000000
      3930    2      150.610477985138      69.904999987331      50.000000000000
      3931    2      147.657331363338      71.609999993956      50.000000000000
      3932    2      150.610477985138      73.314999989646      50.000000000000
      3933    2      147.657331363338      75.019999985337      50.000000000000
      3934    2      150.610477985138      76.724999991962      50.000000000000
      3935    2      147.657331363338      78.429999987653      50.000000000000
      3936    2      150.610477985138      80.134999994278      50.000000000000
      3937    1      154.548006821493      69.904999987331      50.000000000000
      3938    1      157.501153454227      68.199999991640      50.000000000000
      3939    1      154.548006821493      73.314999989646      50.000000000000
      3940    1      157.501153454227      71.609999993956      50.000000000000
      3941    1      154.548006821493      76.724999991962      50.000000000000
      3942    1      157.501153454227      75.019999985337      50.000000000000
      3943    1      154.548006821493      80.134999994278      50.000000000000
      3944    1      157.501153454227      78.429999987653      50.000000000000
      3945    1      160.454300076027      69.904999987331      50.000000000000
      3946    1      163.407446708760      68.199999991640      50.000000000000
      3947    1      160.454300076027      73.314999989646      50.000000000000
      3948    1      163.407446708760      71.609999993956      50.000000000000
      3949    1      160.454300076027      76.724999991962      50.000000000000
      3950    1      163.407446708760      75.019999985337      50.000000000000
      3951    1      160.454300076027      80.134999994278      50.000000000000
      3952    1      163.407446708760      78.429999987653      50.000000000000
      3953    2      153.563624617871      68.199999991640      50.000000000000
      3954    2      156.516771239671      69.904999987331      50.000000000000
      3955    2      153.563624617871      71.609999993956      50.000000000000
      3956    2      156.516771239671      73.314999989646      50.000000000000
      3957    2      153.563624617871      75.019999985337      50.000000000000
      3958    2      156.516771239671      76.724999991962      50.000000000000
      3959    2      153.563624617871      78.429999987653      50.000000000000
      3960    2      156.516771239671      80.134999994278      50.000000000000
      3961    2      159.469917872405      68.199999991640      50.000000000000
      3962    2      162.423064494205      69.904999987331      50.000000000000
      3963    2      159.469917872405      71.609999993956      50.000000000000
      3964    2      162.423064494205      73.314999989646      50.000000000000
      3965    2      159.469917872405      75.019999985337      50.000000000000
      3966    2      162.423064494205      76.724999991962      50.000000000000
      3967    2      159.469917872405      78.429999987653      50.000000000000
      3968    2      162.423064494205      80.134999994278      50.000000000000
      3969    1      166.360593330560      69.904999987331      50.000000000000
      3970    1      169.313739963294      68.199999991640      50.000000000000
      3971    1      166.360593330560      73.314999989646      50.000000000000
      3972    1      169.313739963294      71.609999993956      50.000000000000
      3973    1      166.360593330560      76.724999991962      50.000000000000
      3974    1      169.313739963294      75.019999985337      50.000000000000
      3975    1      166.360593330560      80.134999994278      50.000000000000
      3976    1      169.313739963294      78.429999987653      50.000000000000
      3977    1      172.266886585094      69.904999987331      50.000000000000
      3978    1      175.220033217827      68.199999991640      50.000000000000
      3979    1      172.266886585094      73.314999989646      50.000000000000
      3980    1      175.220033217827      71.609999993956      50.000000000000
      3981    1      172.266886585094      76.724999991962      50.000000000000
      3982    1      175.220033217827      75.019999985337      50.000000000000
      3983    1      172.266886585094      80.134999994278      50.000000000000
      3984    1      175.220033217827      78.429999987653      50.000000000000
      3985    2      165.376211126938      68.199999991640      50.000000000000
      3986    2      168.329357748738      69.904999987331      50.000000000000
      3987    2      165.376211126938      71.609999993956      50.000000000000
      3988    2      168.329357748738      73.314999989646      50.000000000000
      3989    2      165.376211126938      75.019999985337      50.000000000000
      3990    2      168.329357748738      76.724999991962      50.000000000000
      3991    2      165.376211126938      78.429999987653      50.000000000000
      3992    2      168.329357748738      80.134999994278      50.000000000000
      3993    2      171.282504381472      68.199999991640      50.000000000000
      3994    2      174.235651003272      69.904999987331      50.000000000000
      3995    2      171.282504381472      71.609999993956      50.000000000000
      3996    2      174.235651003272      73.314999989646      50.000000000000
      3997    2      171.282504381472      75.019999985337      50.000000000000
      3998    2      174.235651003272      76.724999991962      50.000000000000
      3999    2      171.282504381472      78.429999987653      50.000000000000
      4000    2      174.235651003272      80.134999994278      50.000000000000
      4001    1      178.173179839627      69.904999987331      50.000000000000
      4002    1      181.126326472361      68.199999991640      50.000000000000
      4003    1      178.173179839627      73.314999989646      50.000000000000
      4004    1      181.126326472361      71.609999993956      50.000000000000
      4005    1      178.173179839627      76.724999991962      50.000000000000
      4006    1      181.126326472361      75.019999985337      50.000000000000
      4007    1      178.173179839627      80.134999994278      50.000000000000
      4008    1      181.126326472361      78.429999987653      50.000000000000
      4009    1      184.079473094161      69.904999987331      50.000000000000
      4010    1      187.032619726894      68.199999991640      50.000000000000
      4011    1      184.079473094161      73.314999989646      50.000000000000
      4012    1      187.032619726894      71.609999993956      50.000000000000
      4013    1      184.079473094161      76.724999991962      50.000000000000
      4014    1      187.032619726894      75.019999985337      50.000000000000
      4015    1      184.079473094161      80.134999994278      50.000000000000
      4016    1      187.032619726894      78.429999987653      50.000000000000
      4017    2      177.188797636005      68.199999991640      50.000000000000
      4018    2      180.141944257805      69.904999987331      50.000000000000
      4019    2      177.188797636005      71.609999993956      50.000000000000
      4020    2      180.141944257805      73.314999989646      50.000000000000
      4021    2      177.188797636005      75.019999985337      50.000000000000
      4022    2      180.141944257805      76.724999991962      50.000000000000
      4023    2      177.188797636005      78.429999987653      50.000000000000
      4024    2      180.141944257805      80.134999994278      50.000000000000
      4025    2      183.095090890539      68.199999991640      50.000000000000
      4026    2      186.048237512339      69.904999987331      50.000000000000
      4027    2      183.095090890539      71.609999993956      50.000000000000
      4028    2      186.048237512339      73.314999989646      50.000000000000
      4029    2      183.095090890539      75.019999985337      50.000000000000
      4030    2      186.048237512339      76.724999991962      50.000000000000
      4031    2      183.095090890539      78.429999987653      50.000000000000
      4032    2      186.048237512339      80.134999994278      50.000000000000
      4033    1      189.985766348694      69.904999987331      50.000000000000
      4034    1      192.938912981428      68.199999991640      50.000000000000
      4035    1      189.985766348694      73.314999989646      50.000000000000
      4036    1      192.938912981428      71.609999993956      50.000000000000
      4037    1      189.985766348694      76.724999991962      50.000000000000
      4038    1      192.938912981428      75.019999985337      50.000000000000
      4039    1      189.985766348694      80.134999994278      50.000000000000
      4040    1      192.938912981428      78.429999987653      50.000000000000
      4041    1      195.892059603228      69.904999987331      50.000000000000
      4042    1      198.845206235961      68.199999991640      50.000000000000
      4043    1      195.892059603228      73.314999989646      50.000000000000
      4044    1      198.845206235961      71.609999993956      50.000000000000
      4045    1      195.892059603228      76.724999991962      50.000000000000
      4046    1      198.845206235961      75.019999985337      50.000000000000
      4047    1      195.892059603228      80.134999994278      50.000000000000
      4048    1      198.845206235961      78.429999987653      50.000000000000
      4049    2      189.001384145072      68.199999991640      50.000000000000
      4050    2      191.954530766872      69.904999987331      50.000000000000
      4051    2      189.001384145072      71.609999993956      50.000000000000
      4052    2      191.954530766872      73.314999989646      50.000000000000
      4053    2      189.001384145072      75.019999985337      50.000000000000
      4054    2      191.954530766872      76.724999991962      50.000000000000
      4055    2      189.001384145072      78.429999987653      50.000000000000
      4056    2      191.954530766872      80.134999994278      50.000000000000
      4057    2      194.907677399606      68.199999991640      50.000000000000
      4058    2      197.860824021406      69.904999987331      50.000000000000
      4059    2      194.907677399606      71.609999993956      50.000000000000
      4060    2      197.860824021406      73.314999989646      50.000000000000
      4061    2      194.907677399606      75.019999985337      50.000000000000
      4062    2      197.860824021406      76.724999991962      50.000000000000
      4063    2      194.907677399606      78.429999987653      50.000000000000
      4064    2      197.860824021406      80.134999994278      50.000000000000
      4065    1      201.798352857761      69.904999987331      50.000000000000
      4066    1      204.751499490495      68.199999991640      50.000000000000
      4067    1      201.798352857761      73.314999989646      50.000000000000
      4068    1      204.751499490495      71.609999993956      50.000000000000
      4069    1      201.798352857761      76.724999991962      50.000000000000
      4070    1      204.751499490495      75.019999985337      50.000000000000
      4071    1      201.798352857761      80.134999994278      50.000000000000
      4072    1      204.751499490495      78.429999987653      50.000000000000
      4073    1      207.704646112295      69.904999987331      50.000000000000
      4074    1      210.657792745028      68.199999991640      50.000000000000
      4075    1      207.704646112295      73.314999989646      50.000000000000
      4076    1      210.657792745028      71.609999993956      50.000000000000
      4077    1      207.704646112295      76.724999991962      50.000000000000
      4078    1      210.657792745028      75.019999985337      50.000000000000
      4079    1      207.704646112295      80.134999994278      50.000000000000
      4080    1      210.657792745028      78.429999987653      50.000000000000
      4081    2      200.813970654139      68.199999991640      50.000000000000
      4082    2      203.767117275939      69.904999987331      50.000000000000
      4083    2      200.813970654139      71.609999993956      50.000000000000
      4084    2      203.767117275939      73.314999989646      50.000000000000
      4085    2      200.813970654139      75.019999985337      50.000000000000
      4086    2      203.767117275939      76.724999991962      50.000000000000
      4087    2      200.813970654139      78.429999987653      50.000000000000
      4088    2      203.767117275939      80.134999994278      50.000000000000
      4089    2      206.720263908673      68.199999991640      50.000000000000
      4090    2      209.673410530473      69.904999987331      50.000000000000
      4091    2      206.720263908673      71.609999993956      50.000000000000
      4092    2      209.673410530473      73.314999989646      50.000000000000
      4093    2      206.720263908673      75.019999985337      50.000000000000
      4094    2      209.673410530473      76.724999991962      50.000000000000
      4095    2      206.720263908673      78.429999987653      50.000000000000
      4096    2      209.673410530473      80.134999994278      50.000000000000
      4097    1      213.610939366828      69.904999987331      50.000000000000
      4098    1      216.564085999562      68.199999991640      50.000000000000
      4099    1      213.610939366828      73.314999989646      50.000000000000
      4100    1      216.564085999562      71.609999993956      50.000000000000
      4101    1      213.610939366828      76.724999991962      50.000000000000
      4102    1      216.564085999562      75.019999985337      50.000000000000
      4103    1      213.610939366828      80.134999994278      50.000000000000
      4104    1      216.564085999562      78.429999987653      50.000000000000
      4105    1      219.517232621362      69.904999987331      50.000000000000
      4106    1      222.470379254095      68.199999991640      50.000000000000
      4107    1      219.517232621362      73.314999989646      50.000000000000
      4108    1      222.470379254095      71.609999993956      50.000000000000
      4109    1      219.517232621362      76.724999991962      50.000000000000
      4110    1      222.470379254095      75.019999985337      50.000000000000
      4111    1      219.517232621362      80.134999994278      50.000000000000
      4112    1      222.470379254095      78.429999987653      50.000000000000
      4113    2      212.626557163206      68.199999991640      50.000000000000
      4114    2      215.579703785006      69.904999987331      50.000000000000
      4115    2      212.626557163206      71.609999993956      50.000000000000
      4116    2      215.579703785006      73.314999989646      50.000000000000
      4117    2      212.626557163206      75.019999985337      50.000000000000
      4118    2      215.579703785006      76.724999991962      50.000000000000
      4119    2      212.626557163206      78.429999987653      50.000000000000
      4120    2      215.579703785006      80.134999994278      50.000000000000
      4121    2      218.532850417740      68.199999991640      50.000000000000
      4122    2      221.485997039540      69.904999987331      50.000000000000
      4123    2      218.532850417740      71.609999993956      50.000000000000
      4124    2      221.485997039540      73.314999989646      50.000000000000
      4125    2      218.532850417740      75.019999985337      50.000000000000
      4126    2      221.485997039540      76.724999991962      50.000000000000
      4127    2      218.532850417740      78.429999987653      50.000000000000
      4128    2      221.485997039540      80.134999994278      50.000000000000
      4129    1      225.423525875895      69.904999987331      50.000000000000
      4130    1      228.376672508629      68.199999991640      50.000000000000
      4131    1      225.423525875895      73.314999989646      50.000000000000
      4132    1      228.376672508629      71.609999993956      50.000000000000
      4133    1      225.423525875895      76.724999991962      50.000000000000
      4134    1      228.376672508629      75.019999985337      50.000000000000
      4135    1      225.423525875895      80.134999994278      50.000000000000
      4136    1      228.376672508629      78.429999987653      50.000000000000
      4137    1      231.329819130429      69.904999987331      50.000000000000
      4138    1      234.282965763162      68.199999991640      50.000000000000
      4139    1      231.329819130429      73.314999989646      50.000000000000
      4140    1      234.282965763162      71.609999993956      50.000000000000
      4141    1      231.329819130429      76.724999991962      50.000000000000
      4142    1      234.282965763162      75.019999985337      50.000000000000
      4143    1      231.329819130429      80.134999994278      50.000000000000
      4144    1      234.282965763162      78.429999987653      50.000000000000
      4145    2      224.439143672273      68.199999991640      50.000000000000
      4146    2      227.392290294073      69.904999987331      50.000000000000
      4147    2      224.439143672273      71.609999993956      50.000000000000
      4148    2      227.392290294073      73.314999989646      50.000000000000
      4149    2      224.439143672273      75.019999985337      50.000000000000
      4150    2      227.392290294073      76.724999991962      50.000000000000
      4151    2      224.439143672273      78.429999987653      50.000000000000
      4152    2      227.392290294073      80.134999994278      50.000000000000
      4153    2      230.345436926807      68.199999991640      50.000000000000
      4154    2      233.298583548607      69.904999987331      50.000000000000
      4155    2      230.345436926807      71.609999993956      50.000000000000
      4156    2      233.298583548607      73.314999989646      50.000000000000
      4157    2      230.345436926807      75.019999985337      50.000000000000
      4158    2      233.298583548607      76.724999991962      50.000000000000
      4159    2      230.345436926807      78.429999987653      50.000000000000
      4160    2      233.298583548607      80.134999994278      50.000000000000
      4161    1      237.236112384962      69.904999987331      50.000000000000
      4162    1      240.189259017696      68.199999991640      50.000000000000
      4163    1      237.236112384962      73.314999989646      50.000000000000
      4164    1      240.189259017696      71.609999993956      50.000000000000
      4165    1      237.236112384962      76.724999991962      50.000000000000
      4166    1      240.189259017696      75.019999985337      50.000000000000
      4167    1      237.236112384962      80.134999994278      50.000000000000
      4168    1      240.189259017696      78.429999987653      50.000000000000
      4169    1      243.142405639496      69.904999987331      50.000000000000
      4170    1      246.095552272229      68.199999991640      50.000000000000
      4171    1      243.142405639496      73.314999989646      50.000000000000
      4172    1      246.095552272229      71.609999993956      50.000000000000
      4173    1      243.142405639496      76.724999991962      50.000000000000
      4174    1      246.095552272229      75.019999985337      50.000000000000
      4175    1      243.142405639496      80.134999994278      50.000000000000
      4176    1      246.095552272229      78.429999987653      50.000000000000
      4177    2      236.251730181340      68.199999991640      50.000000000000
      4178    2      239.204876803140      69.904999987331      50.000000000000
      4179    2      236.251730181340      71.609999993956      50.000000000000
      4180    2      239.204876803140      73.314999989646      50.000000000000
      4181    2      236.251730181340      75.019999985337      50.000000000000
      4182    2      239.204876803140      76.724999991962      50.000000000000
      4183    2      236.251730181340      78.429999987653      50.000000000000
      4184    2      239.204876803140      80.134999994278      50.000000000000
      4185    2      242.158023435874      68.199999991640      50.000000000000
      4186    2      245.111170057674      69.904999987331      50.000000000000
      4187    2      242.158023435874      71.609999993956      50.000000000000
      4188    2      245.111170057674      73.314999989646      50.000000000000
      4189    2      242.158023435874      75.019999985337      50.000000000000
      4190    2      245.111170057674      76.724999991962      50.000000000000
      4191    2      242.158023435874      78.429999987653      50.000000000000
      4192    2      245.111170057674      80.134999994278      50.000000000000
      4193    1      249.048698894029      69.904999987331      50.000000000000
      4194    1      252.001845526763      68.199999991640      50.000000000000
      4195    1      249.048698894029      73.314999989646      50.000000000000
      4196    1      252.001845526763      71.609999993956      50.000000000000
      4197    1      249.048698894029      76.724999991962      50.000000000000
      4198    1      252.001845526763      75.019999985337      50.000000000000
      4199    1      249.048698894029      80.134999994278      50.000000000000
      4200    1      252.001845526763      78.429999987653      50.000000000000
      4201    1      254.954992148563      69.904999987331      50.000000000000
      4202    1      257.908138781296      68.199999991640      50.000000000000
      4203    1      254.954992148563      73.314999989646      50.000000000000
      4204    1      257.908138781296      71.609999993956      50.000000000000
      4205    1      254.954992148563      76.724999991962      50.000000000000
      4206    1      257.908138781296      75.019999985337      50.000000000000
      4207    1      254.954992148563      80.134999994278      50.000000000000
      4208    1      257.908138781296      78.429999987653      50.000000000000
      4209    2      248.064316690407      68.199999991640      50.000000000000
      4210    2      251.017463312207      69.904999987331      50.000000000000
      4211    2      248.064316690407      71.609999993956      50.000000000000
      4212    2      251.017463312207      73.314999989646      50.000000000000
      4213    2      248.064316690407      75.019999985337      50.000000000000
      4214    2      251.017463312207      76.724999991962      50.000000000000
      4215    2      248.064316690407      78.429999987653      50.000000000000
      4216    2      251.017463312207      80.134999994278      50.000000000000
      4217    2      253.970609944941      68.199999991640      50.000000000000
      4218    2      256.923756566741      69.904999987331      50.000000000000
      4219    2      253.970609944941      71.609999993956      50.000000000000
      4220    2      256.923756566741      73.314999989646      50.000000000000
      4221    2      253.970609944941      75.019999985337      50.000000000000
      4222    2      256.923756566741      76.724999991962      50.000000000000
      4223    2      253.970609944941      78.429999987653      50.000000000000
      4224    2      256.923756566741      80.134999994278      50.000000000000
      4225    1        0.984382203622      83.544999985659      50.000000000000
      4226    1        3.937528836356      81.839999989968      50.000000000000
      4227    1        0.984382203622      86.954999987974      50.000000000000
      4228    1        3.937528836356      85.249999992284      50.000000000000
      4229    1        0.984382203622      90.364999990290      50.000000000000
      4230    1        3.937528836356      88.659999983665      50.000000000000
      4231    1        0.984382203622      93.774999992606      50.000000000000
      4232    1        3.937528836356      92.069999985981      50.000000000000
      4233    1        6.890675458156      83.544999985659      50.000000000000
      4234    1        9.843822090889      81.839999989968      50.000000000000
      4235    1        6.890675458156      86.954999987974      50.000000000000
      4236    1        9.843822090889      85.249999992284      50.000000000000
      4237    1        6.890675458156      90.364999990290      50.000000000000
      4238    1        9.843822090889      88.659999983665      50.000000000000
      4239    1        6.890675458156      93.774999992606      50.000000000000
      4240    1        9.843822090889      92.069999985981      50.000000000000
      4241    2        0.000000000000      81.839999989968      50.000000000000
      4242    2        2.953146621800      83.544999985659      50.000000000000
      4243    2        0.000000000000      85.249999992284      50.000000000000
      4244    2        2.953146621800      86.954999987974      50.000000000000
      4245    2        0.000000000000      88.659999983665      50.000000000000
      4246    2        2.953146621800      90.364999990290      50.000000000000
      4247    2        0.000000000000      92.069999985981      50.000000000000
      4248    2        2.953146621800      93.774999992606      50.000000000000
      4249    2        5.906293254534      81.839999989968      50.000000000000
      4250    2        8.859439876334      83.544999985659      50.000000000000
      4251    2        5.906293254534      85.249999992284      50.000000000000
      4252    2        8.859439876334      86.954999987974      50.000000000000
      4253    2        5.906293254534      88.659999983665      50.000000000000
      4254    2        8.859439876334      90.364999990290      50.000000000000
      4255    2        5.906293254534      92.069999985981      50.000000000000
      4256    2        8.859439876334      93.774999992606      50.000000000000
      4257    1       12.796968712689      83.544999985659      50.000000000000
      4258    1       15.750115345423      81.839999989968      50.000000000000
      4259    1       12.796968712689      86.954999987974      50.000000000000
      4260    1       15.750115345423      85.249999992284      50.000000000000
      4261    1       12.796968712689      90.364999990290      50.000000000000
      4262    1       15.750115345423      88.659999983665      50.000000000000
      4263    1       12.796968712689      93.774999992606      50.000000000000
      4264    1       15.750115345423      92.069999985981      50.000000000000
      4265    1       18.703261967223      83.544999985659      50.000000000000
      4266    1       21.656408599956      81.839999989968      50.000000000000
      4267    1       18.703261967223      86.954999987974      50.000000000000
      4268    1       21.656408599956      85.249999992284      50.000000000000
      4269    1       18.703261967223      90.364999990290      50.000000000000
      4270    1       21.656408599956      88.659999983665      50.000000000000
      4271    1       18.703261967223      93.774999992606      50.000000000000
      4272    1       21.656408599956      92.069999985981      50.000000000000
      4273    2       11.812586509067      81.839999989968      50.000000000000
      4274    2       14.765733130867      83.544999985659      50.000000000000
      4275    2       11.812586509067      85.249999992284      50.000000000000
      4276    2       14.765733130867      86.954999987974      50.000000000000
      4277    2       11.812586509067      88.659999983665      50.000000000000
      4278    2       14.765733130867      90.364999990290      50.000000000000
      4279    2       11.812586509067      92.069999985981      50.000000000000
      4280    2       14.765733130867      93.774999992606      50.000000000000
      4281    2       17.718879763601      81.839999989968      50.000000000000
      4282    2       20.672026385401      83.544999985659      50.000000000000
      4283    2       17.718879763601      85.249999992284      50.000000000000
      4284    2       20.672026385401      86.954999987974      50.000000000000
      4285    2       17.718879763601      88.659999983665      50.000000000000
      4286    2       20.672026385401      90.364999990290      50.000000000000
      4287    2       17.718879763601      92.069999985981      50.000000000000
      4288    2       20.672026385401      93.774999992606      50.000000000000
      4289    1       24.609555221756      83.544999985659      50.000000000000
      4290    1       27.562701854490      81.839999989968      50.000000000000
      4291    1       24.609555221756      86.954999987974      50.000000000000
      4292    1       27.562701854490      85.249999992284      50.000000000000
      4293    1       24.609555221756      90.364999990290      50.000000000000
      4294    1       27.562701854490      88.659999983665      50.000000000000
      4295    1       24.609555221756      93.774999992606      50.000000000000
      4296    1       27.562701854490      92.069999985981      50.000000000000
      4297    1       30.515848476290      83.544999985659      50.000000000000
      4298    1       33.468995109023      81.839999989968      50.000000000000
      4299    1       30.515848476290      86.954999987974      50.000000000000
      4300    1       33.468995109023      85.249999992284      50.000000000000
      4301    1       30.515848476290      90.364999990290      50.000000000000
      4302    1       33.468995109023      88.659999983665      50.000000000000
      4303    1       30.515848476290      93.774999992606      50.000000000000
      4304    1       33.468995109023      92.069999985981      50.000000000000
      4305    2       23.625173018134      81.839999989968      50.000000000000
      4306    2       26.578319639934      83.544999985659      50.000000000000
      4307    2       23.625173018134      85.249999992284      50.000000000000
      4308    2       26.578319639934      86.954999987974      50.000000000000
      4309    2       23.625173018134      88.659999983665      50.000000000000
      4310    2       26.578319639934      90.364999990290      50.000000000000
      4311    2       23.625173018134      92.069999985981      50.000000000000
      4312    2       26.578319639934      93.774999992606      50.000000000000
      4313    2       29.531466272668      81.839999989968      50.000000000000
      4314    2       32.484612894468      83.544999985659      50.000000000000
      4315    2       29.531466272668      85.249999992284      50.000000000000
      4316    2       32.484612894468      86.954999987974      50.000000000000
      4317    2       29.531466272668      88.659999983665      50.000000000000
      4318    2       32.484612894468      90.364999990290      50.000000000000
      4319    2       29.531466272668      92.069999985981      50.000000000000
      4320    2       32.484612894468      93.774999992606      50.000000000000
      4321    1       36.422141730823      83.544999985659      50.000000000000
      4322    1       39.375288363557      81.839999989968      50.000000000000
      4323    1       36.422141730823      86.954999987974      50.000000000000
      4324    1       39.375288363557      85.249999992284      50.000000000000
      4325    1       36.422141730823      90.364999990290      50.000000000000
      4326    1       39.375288363557      88.659999983665      50.000000000000
      4327    1       36.422141730823      93.774999992606      50.000000000000
      4328    1       39.375288363557      92.069999985981      50.000000000000
      4329    1       42.328434985357      83.544999985659      50.000000000000
      4330    1       45.281581618090      81.839999989968      50.000000000000
      4331    1       42.328434985357      86.954999987974      50.000000000000
      4332    1       45.281581618090      85.249999992284      50.000000000000
      4333    1       42.328434985357      90.364999990290      50.000000000000
      4334    1       45.281581618090      88.659999983665      50.000000000000
      4335    1       42.328434985357      93.774999992606      50.000000000000
      4336    1       45.281581618090      92.069999985981      50.000000000000
      4337    2       35.437759527201      81.839999989968      50.000000000000
      4338    2       38.390906149001      83.544999985659      50.000000000000
      4339    2       35.437759527201      85.249999992284      50.000000000000
      4340    2       38.390906149001      86.954999987974      50.000000000000
      4341    2       35.437759527201      88.659999983665      50.000000000000
      4342    2       38.390906149001      90.364999990290      50.000000000000
      4343    2       35.437759527201      92.069999985981      50.000000000000
      4344    2       38.390906149001      93.774999992606      50.000000000000
      4345    2       41.344052781735      81.839999989968      50.000000000000
      4346    2       44.297199403535      83.544999985659      50.000000000000
      4347    2       41.344052781735      85.249999992284      50.000000000000
      4348    2       44.297199403535      86.954999987974      50.000000000000
      4349    2       41.344052781735      88.659999983665      50.000000000000
      4350    2       44.297199403535      90.364999990290      50.000000000000
      4351    2       41.344052781735      92.069999985981      50.000000000000
      4352    2       44.297199403535      93.774999992606      50.000000000000
      4353    1       48.234728239890      83.544999985659      50.000000000000
      4354    1       51.187874872624      81.839999989968      50.000000000000
      4355    1       48.234728239890      86.954999987974      50.000000000000
      4356    1       51.187874872624      85.249999992284      50.000000000000
      4357    1       48.234728239890      90.364999990290      50.000000000000
      4358    1       51.187874872624      88.659999983665      50.000000000000
      4359    1       48.234728239890      93.774999992606      50.000000000000
      4360    1       51.187874872624      92.069999985981      50.000000000000
      4361    1       54.141021494424      83.544999985659      50.000000000000
      4362    1       57.094168127157      81.839999989968      50.000000000000
      4363    1       54.141021494424      86.954999987974      50.000000000000
      4364    1       57.094168127157      85.249999992284      50.000000000000
      4365    1       54.141021494424      90.364999990290      50.000000000000
      4366    1       57.094168127157      88.659999983665      50.000000000000
      4367    1       54.141021494424      93.774999992606      50.000000000000
      4368    1       57.094168127157      92.069999985981      50.000000000000
      4369    2       47.250346036268      81.839999989968      50.000000000000
      4370    2       50.203492658068      83.544999985659      50.000000000000
      4371    2       47.250346036268      85.249999992284      50.000000000000
      4372    2       50.203492658068      86.954999987974      50.000000000000
      4373    2       47.250346036268      88.659999983665      50.000000000000
      4374    2       50.203492658068      90.364999990290      50.000000000000
      4375    2       47.250346036268      92.069999985981      50.000000000000
      4376    2       50.203492658068      93.774999992606      50.000000000000
      4377    2       53.156639290802      81.839999989968      50.000000000000
      4378    2       56.109785912602      83.544999985659      50.000000000000
      4379    2       53.156639290802      85.249999992284      50.000000000000
      4380    2       56.109785912602      86.954999987974      50.000000000000
      4381    2       53.156639290802      88.659999983665      50.000000000000
      4382    2       56.109785912602      90.364999990290      50.000000000000
      4383    2       53.156639290802      92.069999985981      50.000000000000
      4384    2       56.109785912602      93.774999992606      50.000000000000
      4385    1       60.047314748957      83.544999985659      50.000000000000
      4386    1       63.000461381691      81.839999989968      50.000000000000
      4387    1       60.047314748957      86.954999987974      50.000000000000
      4388    1       63.000461381691      85.249999992284      50.000000000000
      4389    1       60.047314748957      90.364999990290      50.000000000000
      4390    1       63.000461381691      88.659999983665      50.000000000000
      4391    1       60.047314748957      93.774999992606      50.000000000000
      4392    1       63.000461381691      92.069999985981      50.000000000000
      4393    1       65.953608003491      83.544999985659      50.000000000000
      4394    1       68.906754636224      81.839999989968      50.000000000000
      4395    1       65.953608003491      86.954999987974      50.000000000000
      4396    1       68.906754636224      85.249999992284      50.000000000000
      4397    1       65.953608003491      90.364999990290      50.000000000000
      4398    1       68.906754636224      88.659999983665      50.000000000000
      4399    1       65.953608003491      93.774999992606      50.000000000000
      4400    1       68.906754636224      92.069999985981      50.000000000000
      4401    2       59.062932545335      81.839999989968      50.000000000000
      4402    2       62.016079167135      83.544999985659      50.000000000000
      4403    2       59.062932545335      85.249999992284      50.000000000000
      4404    2       62.016079167135      86.954999987974      50.000000000000
      4405    2       59.062932545335      88.659999983665      50.000000000000
      4406    2       62.016079167135      90.364999990290      50.000000000000
      4407    2       59.062932545335      92.069999985981      50.000000000000
      4408    2       62.016079167135      93.774999992606      50.000000000000
      4409    2       64.969225799869      81.839999989968      50.000000000000
      4410    2       67.922372421669      83.544999985659      50.000000000000
      4411    2       64.969225799869      85.249999992284      50.000000000000
      4412    2       67.922372421669      86.954999987974      50.000000000000
      4413    2       64.969225799869      88.659999983665      50.000000000000
      4414    2       67.922372421669      90.364999990290      50.000000000000
      4415    2       64.969225799869      92.069999985981      50.000000000000
      4416    2       67.922372421669      93.774999992606      50.000000000000
      4417    1       71.859901258024      83.544999985659      50.000000000000
      4418    1       74.813047890758      81.839999989968      50.000000000000
      4419    1       71.859901258024      86.954999987974      50.000000000000
      4420    1       74.813047890758      85.249999992284      50.000000000000
      4421    1       71.859901258024      90.364999990290      50.000000000000
      4422    1       74.813047890758      88.659999983665      50.000000000000
      4423    1       71.859901258024      93.774999992606      50.000000000000
      4424    1       74.813047890758      92.069999985981      50.000000000000
      4425    1       77.766194512558      83.544999985659      50.000000000000
      4426    1       80.719341145291      81.839999989968      50.000000000000
      4427    1       77.766194512558      86.954999987974      50.000000000000
      4428    1       80.719341145291      85.249999992284      50.000000000000
      4429    1       77.766194512558      90.364999990290      50.000000000000
      4430    1       80.719341145291      88.659999983665      50.000000000000
      4431    1       77.766194512558      93.774999992606      50.000000000000
      4432    1       80.719341145291      92.069999985981      50.000000000000
      4433    2       70.875519054402      81.839999989968      50.000000000000
      4434    2       73.828665676202      83.544999985659      50.000000000000
      4435    2       70.875519054402      85.249999992284      50.000000000000
      4436    2       73.828665676202      86.954999987974      50.000000000000
      4437    2       70.875519054402      88.659999983665      50.000000000000
      4438    2       73.828665676202      90.364999990290      50.000000000000
      4439    2       70.875519054402      92.069999985981      50.000000000000
      4440    2       73.828665676202      93.774999992606      50.000000000000
      4441    2       76.781812308936      81.839999989968      50.000000000000
      4442    2       79.734958930736      83.544999985659      50.000000000000
      4443    2       76.781812308936      85.249999992284      50.000000000000
      4444    2       79.734958930736      86.954999987974      50.000000000000
      4445    2       76.781812308936      88.659999983665      50.000000000000
      4446    2       79.734958930736      90.364999990290      50.000000000000
      4447    2       76.781812308936      92.069999985981      50.000000000000
      4448    2       79.734958930736      93.774999992606      50.000000000000
      4449    1       83.672487767091      83.544999985659      50.000000000000
      4450    1       86.625634399825      81.839999989968      50.000000000000
      4451    1       83.672487767091      86.954999987974      50.000000000000
      4452    1       86.625634399825      85.249999992284      50.000000000000
      4453    1       83.672487767091      90.364999990290      50.000000000000
      4454    1       86.625634399825      88.659999983665      50.000000000000
      4455    1       83.672487767091      93.774999992606      50.000000000000
      4456    1       86.625634399825      92.069999985981      50.000000000000
      4457    1       89.578781021625      83.544999985659      50.000000000000
      4458    1       92.531927654358      81.839999989968      50.000000000000
      4459    1       89.578781021625      86.954999987974      50.000000000000
      4460    1       92.531927654358      85.249999992284      50.000000000000
      4461    1       89.578781021625      90.364999990290      50.000000000000
      4462    1       92.531927654358      88.659999983665      50.000000000000
      4463    1       89.578781021625      93.774999992606      50.000000000000
      4464    1       92.531927654358      92.069999985981      50.000000000000
      4465    2       82.688105563469      81.839999989968      50.000000000000
      4466    2       85.641252185269      83.544999985659      50.000000000000
      4467    2       82.688105563469      85.249999992284      50.000000000000
      4468    2       85.641252185269      86.954999987974      50.000000000000
      4469    2       82.688105563469      88.659999983665      50.000000000000
      4470    2       85.641252185269      90.364999990290      50.000000000000
      4471    2       82.688105563469      92.069999985981      50.000000000000
      4472    2       85.641252185269      93.774999992606      50.000000000000
      4473    2       88.594398818003      81.839999989968      50.000000000000
      4474    2       91.547545439803      83.544999985659      50.000000000000
      4475    2       88.594398818003      85.249999992284      50.000000000000
      4476    2       91.547545439803      86.954999987974      50.000000000000
      4477    2       88.594398818003      88.659999983665      50.000000000000
      4478    2       91.547545439803      90.364999990290      50.000000000000
      4479    2       88.594398818003      92.069999985981      50.000000000000
      4480    2       91.547545439803      93.774999992606      50.000000000000
      4481    1       95.485074276158      83.544999985659      50.000000000000
      4482    1       98.438220908892      81.839999989968      50.000000000000
      4483    1       95.485074276158      86.954999987974      50.000000000000
      4484    1       98.438220908892      85.249999992284      50.000000000000
      4485    1       95.485074276158      90.364999990290      50.000000000000
      4486    1       98.438220908892      88.659999983665      50.000000000000
      4487    1       95.485074276158      93.774999992606      50.000000000000
      4488    1       98.438220908892      92.069999985981      50.000000000000
      4489    1      101.391367530692      83.544999985659      50.000000000000
      4490    1      104.344514163425      81.839999989968      50.000000000000
      4491    1      101.391367530692      86.954999987974      50.000000000000
      4492    1      104.344514163425      85.249999992284      50.000000000000
      4493    1      101.391367530692      90.364999990290      50.000000000000
      4494    1      104.344514163425      88.659999983665      50.000000000000
      4495    1      101.391367530692      93.774999992606      50.000000000000
      4496    1      104.344514163425      92.069999985981      50.000000000000
      4497    2       94.500692072536      81.839999989968      50.000000000000
      4498    2       97.453838694336      83.544999985659      50.000000000000
      4499    2       94.500692072536      85.249999992284      50.000000000000
      4500    2       97.453838694336      86.954999987974      50.000000000000
      4501    2       94.500692072536      88.659999983665      50.000000000000
      4502    2       97.453838694336      90.364999990290      50.000000000000
      4503    2       94.500692072536      92.069999985981      50.000000000000
      4504    2       97.453838694336      93.774999992606      50.000000000000
      4505    2      100.406985327070      81.839999989968      50.000000000000
      4506    2      103.360131948870      83.544999985659      50.000000000000
      4507    2      100.406985327070      85.249999992284      50.000000000000
      4508    2      103.360131948870      86.954999987974      50.000000000000
      4509    2      100.406985327070      88.659999983665      50.000000000000
      4510    2      103.360131948870      90.364999990290      50.000000000000
      4511    2      100.406985327070      92.069999985981      50.000000000000
      4512    2      103.360131948870      93.774999992606      50.000000000000
      4513    1      107.297660785225      83.544999985659      50.000000000000
      4514    1      110.250807417959      81.839999989968      50.000000000000
      4515    1      107.297660785225      86.954999987974      50.000000000000
      4516    1      110.250807417959      85.249999992284      50.000000000000
      4517    1      107.297660785225      90.364999990290      50.000000000000
      4518    1      110.250807417959      88.659999983665      50.000000000000
      4519    1      107.297660785225      93.774999992606      50.000000000000
      4520    1      110.250807417959      92.069999985981      50.000000000000
      4521    1      113.203954039759      83.544999985659      50.000000000000
      4522    1      116.157100672492      81.839999989968      50.000000000000
      4523    1      113.203954039759      86.954999987974      50.000000000000
      4524    1      116.157100672492      85.249999992284      50.000000000000
      4525    1      113.203954039759      90.364999990290      50.000000000000
      4526    1      116.157100672492      88.659999983665      50.000000000000
      4527    1      113.203954039759      93.774999992606      50.000000000000
      4528    1      116.157100672492      92.069999985981      50.000000000000
      4529    2      106.313278581603      81.839999989968      50.000000000000
      4530    2      109.266425203403      83.544999985659      50.000000000000
      4531    2      106.313278581603      85.249999992284      50.000000000000
      4532    2      109.266425203403      86.954999987974      50.000000000000
      4533    2      106.313278581603      88.659999983665      50.000000000000
      4534    2      109.266425203403      90.364999990290      50.000000000000
      4535    2      106.313278581603      92.069999985981      50.000000000000
      4536    2      109.266425203403      93.774999992606      50.000000000000
      4537    2      112.219571836137      81.839999989968      50.000000000000
      4538    2      115.172718457937      83.544999985659      50.000000000000
      4539    2      112.219571836137      85.249999992284      50.000000000000
      4540    2      115.172718457937      86.954999987974      50.000000000000
      4541    2      112.219571836137      88.659999983665      50.000000000000
      4542    2      115.172718457937      90.364999990290      50.000000000000
      4543    2      112.219571836137      92.069999985981      50.000000000000
      4544    2      115.172718457937      93.774999992606      50.000000000000
      4545    1      119.110247294292      83.544999985659      50.000000000000
      4546    1      122.063393927026      81.839999989968      50.000000000000
      4547    1      119.110247294292      86.954999987974      50.000000000000
      4548    1      122.063393927026      85.249999992284      50.000000000000
      4549    1      119.110247294292      90.364999990290      50.000000000000
      4550    1      122.063393927026      88.659999983665      50.000000000000
      4551    1      119.110247294292      93.774999992606      50.000000000000
      4552    1      122.063393927026      92.069999985981      50.000000000000
      4553    1      125.016540548826      83.544999985659      50.000000000000
      4554    1      127.969687181559      81.839999989968      50.000000000000
      4555    1      125.016540548826      86.954999987974      50.000000000000
      4556    1      127.969687181559      85.249999992284      50.000000000000
      4557    1      125.016540548826      90.364999990290      50.000000000000
      4558    1      127.969687181559      88.659999983665      50.000000000000
      4559    1      125.016540548826      93.774999992606      50.000000000000
      4560    1      127.969687181559      92.069999985981      50.000000000000
      4561    2      118.125865090670      81.839999989968      50.000000000000
      4562    2      121.079011712470      83.544999985659      50.000000000000
      4563    2      118.125865090670      85.249999992284      50.000000000000
      4564    2      121.079011712470      86.954999987974      50.000000000000
      4565    2      118.125865090670      88.659999983665      50.000000000000
      4566    2      121.079011712470      90.364999990290      50.000000000000
      4567    2      118.125865090670      92.069999985981      50.000000000000
      4568    2      121.079011712470      93.774999992606      50.000000000000
      4569    2      124.032158345204      81.839999989968      50.000000000000
      4570    2      126.985304967004      83.544999985659      50.000000000000
      4571    2      124.032158345204      85.249999992284      50.000000000000
      4572    2      126.985304967004      86.954999987974      50.000000000000
      4573    2      124.032158345204      88.659999983665      50.000000000000
      4574    2      126.985304967004      90.364999990290      50.000000000000
      4575    2      124.032158345204      92.069999985981      50.000000000000
      4576    2      126.985304967004      93.774999992606      50.000000000000
      4577    1      130.922833803359      83.544999985659      50.000000000000
      4578    1      133.875980436093      81.839999989968      50.000000000000
      4579    1      130.922833803359      86.954999987974      50.000000000000
      4580    1      133.875980436093      85.249999992284      50.000000000000
      4581    1      130.922833803359      90.364999990290      50.000000000000
      4582    1      133.875980436093      88.659999983665      50.000000000000
      4583    1      130.922833803359      93.774999992606      50.000000000000
      4584    1      133.875980436093      92.069999985981      50.000000000000
      4585    1      136.829127057893      83.544999985659      50.000000000000
      4586    1      139.782273690626      81.839999989968      50.000000000000
      4587    1      136.829127057893      86.954999987974      50.000000000000
      4588    1      139.782273690626      85.249999992284      50.000000000000
      4589    1      136.829127057893      90.364999990290      50.000000000000
      4590    1      139.782273690626      88.659999983665      50.000000000000
      4591    1      136.829127057893      93.774999992606      50.000000000000
      4592    1      139.782273690626      92.069999985981      50.000000000000
      4593    2      129.938451599737      81.839999989968      50.000000000000
      4594    2      132.891598221537      83.544999985659      50.000000000000
      4595    2      129.938451599737      85.249999992284      50.000000000000
      4596    2      132.891598221537      86.954999987974      50.000000000000
      4597    2      129.938451599737      88.659999983665      50.000000000000
      4598    2      132.891598221537      90.364999990290      50.000000000000
      4599    2      129.938451599737      92.069999985981      50.000000000000
      4600    2      132.891598221537      93.774999992606      50.000000000000
      4601    2      135.844744854271      81.839999989968      50.000000000000
      4602    2      138.797891476071      83.544999985659      50.000000000000
      4603    2      135.844744854271      85.249999992284      50.000000000000
      4604    2      138.797891476071      86.954999987974      50.000000000000
      4605    2      135.844744854271      88.659999983665      50.000000000000
      4606    2      138.797891476071      90.364999990290      50.000000000000
      4607    2      135.844744854271      92.069999985981      50.000000000000
      4608    2      138.797891476071      93.774999992606      50.000000000000
      4609    1      142.735420312426      83.544999985659      50.000000000000
      4610    1      145.688566945160      81.839999989968      50.000000000000
      4611    1      142.735420312426      86.954999987974      50.000000000000
      4612    1      145.688566945160      85.249999992284      50.000000000000
      4613    1      142.735420312426      90.364999990290      50.000000000000
      4614    1      145.688566945160      88.659999983665      50.000000000000
      4615    1      142.735420312426      93.774999992606      50.000000000000
      4616    1      145.688566945160      92.069999985981      50.000000000000
      4617    1      148.641713566960      83.544999985659      50.000000000000
      4618    1      151.594860199693      81.839999989968      50.000000000000
      4619    1      148.641713566960      86.954999987974      50.000000000000
      4620    1      151.594860199693      85.249999992284      50.000000000000
      4621    1      148.641713566960      90.364999990290      50.000000000000
      4622    1      151.594860199693      88.659999983665      50.000000000000
      4623    1      148.641713566960      93.774999992606      50.000000000000
      4624    1      151.594860199693      92.069999985981      50.000000000000
      4625    2      141.751038108804      81.839999989968      50.000000000000
      4626    2      144.704184730604      83.544999985659      50.000000000000
      4627    2      141.751038108804      85.249999992284      50.000000000000
      4628    2      144.704184730604      86.954999987974      50.000000000000
      4629    2      141.751038108804      88.659999983665      50.000000000000
      4630    2      144.704184730604      90.364999990290      50.000000000000
      4631    2      141.751038108804      92.069999985981      50.000000000000
      4632    2      144.704184730604      93.774999992606      50.000000000000
      4633    2      147.657331363338      81.839999989968      50.000000000000
      4634    2      150.610477985138      83.544999985659      50.000000000000
      4635    2      147.657331363338      85.249999992284      50.000000000000
      4636    2      150.610477985138      86.954999987974      50.000000000000
      4637    2      147.657331363338      88.659999983665      50.000000000000
      4638    2      150.610477985138      90.364999990290      50.000000000000
      4639    2      147.657331363338      92.069999985981      50.000000000000
      4640    2      150.610477985138      93.774999992606      50.000000000000
      4641    1      154.548006821493      83.544999985659      50.000000000000
      4642    1      157.501153454227      81.839999989968      50.000000000000
      4643    1      154.548006821493      86.954999987974      50.000000000000
      4644    1      157.501153454227      85.249999992284      50.000000000000
      4645    1      154.548006821493      90.364999990290      50.000000000000
      4646    1      157.501153454227      88.659999983665      50.000000000000
      4647    1      154.548006821493      93.774999992606      50.000000000000
      4648    1      157.501153454227      92.069999985981      50.000000000000
      4649    1      160.454300076027      83.544999985659      50.000000000000
      4650    1      163.407446708760      81.839999989968      50.000000000000
      4651    1      160.454300076027      86.954999987974      50.000000000000
      4652    1      163.407446708760      85.249999992284      50.000000000000
      4653    1      160.454300076027      90.364999990290      50.000000000000
      4654    1      163.407446708760      88.659999983665      50.000000000000
      4655    1      160.454300076027      93.774999992606      50.000000000000
      4656    1      163.407446708760      92.069999985981      50.000000000000
      4657    2      153.563624617871      81.839999989968      50.000000000000
      4658    2      156.516771239671      83.544999985659      50.000000000000
      4659    2      153.563624617871      85.249999992284      50.000000000000
      4660    2      156.516771239671      86.954999987974      50.000000000000
      4661    2      153.563624617871      88.659999983665      50.000000000000
      4662    2      156.516771239671      90.364999990290      50.000000000000
      4663    2      153.563624617871      92.069999985981      50.000000000000
      4664    2      156.516771239671      93.774999992606      50.000000000000
      4665    2      159.469917872405      81.839999989968      50.000000000000
      4666    2      162.423064494205      83.544999985659      50.000000000000
      4667    2      159.469917872405      85.249999992284      50.000000000000
      4668    2      162.423064494205      86.954999987974      50.000000000000
      4669    2      159.469917872405      88.659999983665      50.000000000000
      4670    2      162.423064494205      90.364999990290      50.000000000000
      4671    2      159.469917872405      92.069999985981      50.000000000000
      4672    2      162.423064494205      93.774999992606      50.000000000000
      4673    1      166.360593330560      83.544999985659      50.000000000000
      4674    1      169.313739963294      81.839999989968      50.000000000000
      4675    1      166.360593330560      86.954999987974      50.000000000000
      4676    1      169.313739963294      85.249999992284      50.000000000000
      4677    1      166.360593330560      90.364999990290      50.000000000000
      4678    1      169.313739963294      88.659999983665      50.000000000000
      4679    1      166.360593330560      93.774999992606      50.000000000000
      4680    1      169.313739963294      92.069999985981      50.000000000000
      4681    1      172.266886585094      83.544999985659      50.000000000000
      4682    1      175.220033217827      81.839999989968      50.000000000000
      4683    1      172.266886585094      86.954999987974      50.000000000000
      4684    1      175.220033217827      85.249999992284      50.000000000000
      4685    1      172.266886585094      90.364999990290      50.000000000000
      4686    1      175.220033217827      88.659999983665      50.000000000000
      4687    1      172.266886585094      93.774999992606      50.000000000000
      4688    1      175.220033217827      92.069999985981      50.000000000000
      4689    2      165.376211126938      81.839999989968      50.000000000000
      4690    2      168.329357748738      83.544999985659      50.000000000000
      4691    2      165.376211126938      85.249999992284      50.000000000000
      4692    2      168.329357748738      86.954999987974      50.000000000000
      4693    2      165.376211126938      88.659999983665      50.000000000000
      4694    2      168.329357748738      90.364999990290      50.000000000000
      4695    2      165.376211126938      92.069999985981      50.000000000000
      4696    2      168.329357748738      93.774999992606      50.000000000000
      4697    2      171.282504381472      81.839999989968      50.000000000000
      4698    2      174.235651003272      83.544999985659      50.000000000000
      4699    2      171.282504381472      85.249999992284      50.000000000000
      4700    2      174.235651003272      86.954999987974      50.000000000000
      4701    2      171.282504381472      88.659999983665      50.000000000000
      4702    2      174.235651003272      90.364999990290      50.000000000000
      4703    2      171.282504381472      92.069999985981      50.000000000000
      4704    2      174.235651003272      93.774999992606      50.000000000000
      4705    1      178.173179839627      83.544999985659      50.000000000000
      4706    1      181.126326472361      81.839999989968      50.000000000000
      4707    1      178.173179839627      86.954999987974      50.000000000000
      4708    1      181.126326472361      85.249999992284      50.000000000000
      4709    1      178.173179839627      90.364999990290      50.000000000000
      4710    1      181.126326472361      88.659999983665      50.000000000000
      4711    1      178.173179839627      93.774999992606      50.000000000000
      4712    1      181.126326472361      92.069999985981      50.000000000000
      4713    1      184.079473094161      83.544999985659      50.000000000000
      4714    1      187.032619726894      81.839999989968      50.000000000000
      4715    1      184.079473094161      86.954999987974      50.000000000000
      4716    1      187.032619726894      85.249999992284      50.000000000000
      4717    1      184.079473094161      90.364999990290      50.000000000000
      4718    1      187.032619726894      88.659999983665      50.000000000000
      4719    1      184.079473094161      93.774999992606      50.000000000000
      4720    1      187.032619726894      92.069999985981      50.000000000000
      4721    2      177.188797636005      81.839999989968      50.000000000000
      4722    2      180.141944257805      83.544999985659      50.000000000000
      4723    2      177.188797636005      85.249999992284      50.000000000000
      4724    2      180.141944257805      86.954999987974      50.000000000000
      4725    2      177.188797636005      88.659999983665      50.000000000000
      4726    2      180.141944257805      90.364999990290      50.000000000000
      4727    2      177.188797636005      92.069999985981      50.000000000000
      4728    2      180.141944257805      93.774999992606      50.000000000000
      4729    2      183.095090890539      81.839999989968      50.000000000000
      4730    2      186.048237512339      83.544999985659      50.000000000000
      4731    2      183.095090890539      85.249999992284      50.000000000000
      4732    2      186.048237512339      86.954999987974      50.000000000000
      4733    2      183.095090890539      88.659999983665      50.000000000000
      4734    2      186.048237512339      90.364999990290      50.000000000000
      4735    2      183.095090890539      92.069999985981      50.000000000000
      4736    2      186.048237512339      93.774999992606      50.000000000000
      4737    1      189.985766348694      83.544999985659      50.000000000000
      4738    1      192.938912981428      81.839999989968      50.000000000000
      4739    1      189.985766348694      86.954999987974      50.000000000000
      4740    1      192.938912981428      85.249999992284      50.000000000000
      4741    1      189.985766348694      90.364999990290      50.000000000000
      4742    1      192.938912981428      88.659999983665      50.000000000000
      4743    1      189.985766348694      93.774999992606      50.000000000000
      4744    1      192.938912981428      92.069999985981      50.000000000000
      4745    1      195.892059603228      83.544999985659      50.000000000000
      4746    1      198.845206235961      81.839999989968      50.000000000000
      4747    1      195.892059603228      86.954999987974      50.000000000000
      4748    1      198.845206235961      85.249999992284      50.000000000000
      4749    1      195.892059603228      90.364999990290      50.000000000000
      4750    1      198.845206235961      88.659999983665      50.000000000000
      4751    1      195.892059603228      93.774999992606      50.000000000000
      4752    1      198.845206235961      92.069999985981      50.000000000000
      4753    2      189.001384145072      81.839999989968      50.000000000000
      4754    2      191.954530766872      83.544999985659      50.000000000000
      4755    2      189.001384145072      85.249999992284      50.000000000000
      4756    2      191.954530766872      86.954999987974      50.000000000000
      4757    2      189.001384145072      88.659999983665      50.000000000000
      4758    2      191.954530766872      90.364999990290      50.000000000000
      4759    2      189.001384145072      92.069999985981      50.000000000000
      4760    2      191.954530766872      93.774999992606      50.000000000000
      4761    2      194.907677399606      81.839999989968      50.000000000000
      4762    2      197.860824021406      83.544999985659      50.000000000000
      4763    2      194.907677399606      85.249999992284      50.000000000000
      4764    2      197.860824021406      86.954999987974      50.000000000000
      4765    2      194.907677399606      88.659999983665      50.000000000000
      4766    2      197.860824021406      90.364999990290      50.000000000000
      4767    2      194.907677399606      92.069999985981      50.000000000000
      4768    2      197.860824021406      93.774999992606      50.000000000000
      4769    1      201.798352857761      83.544999985659      50.000000000000
      4770    1      204.751499490495      81.839999989968      50.000000000000
      4771    1      201.798352857761      86.954999987974      50.000000000000
      4772    1      204.751499490495      85.249999992284      50.000000000000
      4773    1      201.798352857761      90.364999990290      50.000000000000
      4774    1      204.751499490495      88.659999983665      50.000000000000
      4775    1      201.798352857761      93.774999992606      50.000000000000
      4776    1      204.751499490495      92.069999985981      50.000000000000
      4777    1      207.704646112295      83.544999985659      50.000000000000
      4778    1      210.657792745028      81.839999989968      50.000000000000
      4779    1      207.704646112295      86.954999987974      50.000000000000
      4780    1      210.657792745028      85.249999992284      50.000000000000
      4781    1      207.704646112295      90.364999990290      50.000000000000
      4782    1      210.657792745028      88.659999983665      50.000000000000
      4783    1      207.704646112295      93.774999992606      50.000000000000
      4784    1      210.657792745028      92.069999985981      50.000000000000
      4785    2      200.813970654139      81.839999989968      50.000000000000
      4786    2      203.767117275939      83.544999985659      50.000000000000
      4787    2      200.813970654139      85.249999992284      50.000000000000
      4788    2      203.767117275939      86.954999987974      50.000000000000
      4789    2      200.813970654139      88.659999983665      50.000000000000
      4790    2      203.767117275939      90.364999990290      50.000000000000
      4791    2      200.813970654139      92.069999985981      50.000000000000
      4792    2      203.767117275939      93.774999992606      50.000000000000
      4793    2      206.720263908673      81.839999989968      50.000000000000
      4794    2      209.673410530473      83.544999985659      50.000000000000
      4795    2      206.720263908673      85.249999992284      50.000000000000
      4796    2      209.673410530473      86.954999987974      50.000000000000
      4797    2      206.720263908673      88.659999983665      50.000000000000
      4798    2      209.673410530473      90.364999990290      50.000000000000
      4799    2      206.720263908673      92.069999985981      50.000000000000
      4800    2      209.673410530473      93.774999992606      50.000000000000
      4801    1      213.610939366828      83.544999985659      50.000000000000
      4802    1      216.564085999562      81.839999989968      50.000000000000
      4803    1      213.610939366828      86.954999987974      50.000000000000
      4804    1      216.564085999562      85.249999992284      50.000000000000
      4805    1      213.610939366828      90.364999990290      50.000000000000
      4806    1      216.564085999562      88.659999983665      50.000000000000
      4807    1      213.610939366828      93.774999992606      50.000000000000
      4808    1      216.564085999562      92.069999985981      50.000000000000
      4809    1      219.517232621362      83.544999985659      50.000000000000
      4810    1      222.470379254095      81.839999989968      50.000000000000
      4811    1      219.517232621362      86.954999987974      50.000000000000
      4812    1      222.470379254095      85.249999992284      50.000000000000
      4813    1      219.517232621362      90.364999990290      50.000000000000
      4814    1      222.470379254095      88.659999983665      50.000000000000
      4815    1      219.517232621362      93.774999992606      50.000000000000
      4816    1      222.470379254095      92.069999985981      50.000000000000
      4817    2      212.626557163206      81.839999989968      50.000000000000
      4818    2      215.579703785006      83.544999985659      50.000000000000
      4819    2      212.626557163206      85.249999992284      50.000000000000
      4820    2      215.579703785006      86.954999987974      50.000000000000
      4821    2      212.626557163206      88.659999983665      50.000000000000
      4822    2      215.579703785006      90.364999990290      50.000000000000
      4823    2      212.626557163206      92.069999985981      50.000000000000
      4824    2      215.579703785006      93.774999992606      50.000000000000
      4825    2      218.532850417740      81.839999989968      50.000000000000
      4826    2      221.485997039540      83.544999985659      50.000000000000
      4827    2      218.532850417740      85.249999992284      50.000000000000
      4828    2      221.485997039540      86.954999987974      50.000000000000
      4829    2      218.532850417740      88.659999983665      50.000000000000
      4830    2      221.485997039540      90.364999990290      50.000000000000
      4831    2      218.532850417740      92.069999985981      50.000000000000
      4832    2      221.485997039540      93.774999992606      50.000000000000
      4833    1      225.423525875895      83.544999985659      50.000000000000
      4834    1      228.376672508629      81.839999989968      50.000000000000
      4835    1      225.423525875895      86.954999987974      50.000000000000
      4836    1      228.376672508629      85.249999992284      50.000000000000
      4837    1      225.423525875895      90.364999990290      50.000000000000
      4838    1      228.376672508629      88.659999983665      50.000000000000
      4839    1      225.423525875895      93.774999992606      50.000000000000
      4840    1      228.376672508629      92.069999985981      50.000000000000
      4841    1      231.329819130429      83.544999985659      50.000000000000
      4842    1      234.282965763162      81.839999989968      50.000000000000
      4843    1      231.329819130429      86.954999987974      50.000000000000
      4844    1      234.282965763162      85.249999992284      50.000000000000
      4845    1      231.329819130429      90.364999990290      50.000000000000
      4846    1      234.282965763162      88.659999983665      50.000000000000
      4847    1      231.329819130429      93.774999992606      50.000000000000
      4848    1      234.282965763162      92.069999985981      50.000000000000
      4849    2      224.439143672273      81.839999989968      50.000000000000
      4850    2      227.392290294073      83.544999985659      50.000000000000
      4851    2      224.439143672273      85.249999992284      50.000000000000
      4852    2      227.392290294073      86.954999987974      50.000000000000
      4853    2      224.439143672273      88.659999983665      50.000000000000
      4854    2      227.392290294073      90.364999990290      50.000000000000
      4855    2      224.439143672273      92.069999985981      50.000000000000
      4856    2      227.392290294073      93.774999992606      50.000000000000
      4857    2      230.345436926807      81.839999989968      50.000000000000
      4858    2      233.298583548607      83.544999985659      50.000000000000
      4859    2      230.345436926807      85.249999992284      50.000000000000
      4860    2      233.298583548607      86.954999987974      50.000000000000
      4861    2      230.345436926807      88.659999983665      50.000000000000
      4862    2      233.298583548607      90.364999990290      50.000000000000
      4863    2      230.345436926807      92.069999985981      50.000000000000
      4864    2      233.298583548607      93.774999992606      50.000000000000
      4865    1      237.236112384962      83.544999985659      50.000000000000
      4866    1      240.189259017696      81.839999989968      50.000000000000
      4867    1      237.236112384962      86.954999987974      50.000000000000
      4868    1      240.189259017696      85.249999992284      50.000000000000
      4869    1      237.236112384962      90.364999990290      50.000000000000
      4870    1      240.189259017696      88.659999983665      50.000000000000
      4871    1      237.236112384962      93.774999992606      50.000000000000
      4872    1      240.189259017696      92.069999985981      50.000000000000
      4873    1      243.142405639496      83.544999985659      50.000000000000
      4874    1      246.095552272229      81.839999989968      50.000000000000
      4875    1      243.142405639496      86.954999987974      50.000000000000
      4876    1      246.095552272229      85.249999992284      50.000000000000
      4877    1      243.142405639496      90.364999990290      50.000000000000
      4878    1      246.095552272229      88.659999983665      50.000000000000
      4879    1      243.142405639496      93.774999992606      50.000000000000
      4880    1      246.095552272229      92.069999985981      50.000000000000
      4881    2      236.251730181340      81.839999989968      50.000000000000
      4882    2      239.204876803140      83.544999985659      50.000000000000
      4883    2      236.251730181340      85.249999992284      50.000000000000
      4884    2      239.204876803140      86.954999987974      50.000000000000
      4885    2      236.251730181340      88.659999983665      50.000000000000
      4886    2      239.204876803140      90.364999990290      50.000000000000
      4887    2      236.251730181340      92.069999985981      50.000000000000
      4888    2      239.204876803140      93.774999992606      50.000000000000
      4889    2      242.158023435874      81.839999989968      50.000000000000
      4890    2      245.111170057674      83.544999985659      50.000000000000
      4891    2      242.158023435874      85.249999992284      50.000000000000
      4892    2      245.111170057674      86.954999987974      50.000000000000
      4893    2      242.158023435874      88.659999983665      50.000000000000
      4894    2      245.111170057674      90.364999990290      50.000000000000
      4895    2      242.158023435874      92.069999985981      50.000000000000
      4896    2      245.111170057674      93.774999992606      50.000000000000
      4897    1      249.048698894029      83.544999985659      50.000000000000
      4898    1      252.001845526763      81.839999989968      50.000000000000
      4899    1      249.048698894029      86.954999987974      50.000000000000
      4900    1      252.001845526763      85.249999992284      50.000000000000
      4901    1      249.048698894029      90.364999990290      50.000000000000
      4902    1      252.001845526763      88.659999983665      50.000000000000
      4903    1      249.048698894029      93.774999992606      50.000000000000
      4904    1      252.001845526763      92.069999985981      50.000000000000
      4905    1      254.954992148563      83.544999985659      50.000000000000
      4906    1      257.908138781296      81.839999989968      50.000000000000
      4907    1      254.954992148563      86.954999987974      50.000000000000
      4908    1      257.908138781296      85.249999992284      50.000000000000
      4909    1      254.954992148563      90.364999990290      50.000000000000
      4910    1      257.908138781296      88.659999983665      50.000000000000
      4911    1      254.954992148563      93.774999992606      50.000000000000
      4912    1      257.908138781296      92.069999985981      50.000000000000
      4913    2      248.064316690407      81.839999989968      50.000000000000
      4914    2      251.017463312207      83.544999985659      50.000000000000
      4915    2      248.064316690407      85.249999992284      50.000000000000
      4916    2      251.017463312207      86.954999987974      50.000000000000
      4917    2      248.064316690407      88.659999983665      50.000000000000
      4918    2      251.017463312207      90.364999990290      50.000000000000
      4919    2      248.064316690407      92.069999985981      50.000000000000
      4920    2      251.017463312207      93.774999992606      50.000000000000
      4921    2      253.970609944941      81.839999989968      50.000000000000
      4922    2      256.923756566741      83.544999985659      50.000000000000
      4923    2      253.970609944941      85.249999992284      50.000000000000
      4924    2      256.923756566741      86.954999987974      50.000000000000
      4925    2      253.970609944941      88.659999983665      50.000000000000
      4926    2      256.923756566741      90.364999990290      50.000000000000
      4927    2      253.970609944941      92.069999985981      50.000000000000
      4928    2      256.923756566741      93.774999992606      50.000000000000
      4929    1        0.984382203622      97.184999983987      50.000000000000
      4930    1        3.937528836356      95.479999988296      50.000000000000
      4931    1        0.984382203622     100.594999986302      50.000000000000
      4932    1        3.937528836356      98.889999990612      50.000000000000
      4933    1        0.984382203622     104.004999988618      50.000000000000
      4934    1        3.937528836356     102.299999981993      50.000000000000
      4935    1        0.984382203622     107.414999990934      50.000000000000
      4936    1        3.937528836356     105.709999984309      50.000000000000
      4937    1        6.890675458156      97.184999983987      50.000000000000
      4938    1        9.843822090889      95.479999988296      50.000000000000
      4939    1        6.890675458156     100.594999986302      50.000000000000
      4940    1        9.843822090889      98.889999990612      50.000000000000
      4941    1        6.890675458156     104.004999988618      50.000000000000
      4942    1        9.843822090889     102.299999981993      50.000000000000
      4943    1        6.890675458156     107.414999990934      50.000000000000
      4944    1        9.843822090889     105.709999984309      50.000000000000
      4945    2        0.000000000000      95.479999988296      50.000000000000
      4946    2        2.953146621800      97.184999983987      50.000000000000
      4947    2        0.000000000000      98.889999990612      50.000000000000
      4948    2        2.953146621800     100.594999986302      50.000000000000
      4949    2        0.000000000000     102.299999981993      50.000000000000
      4950    2        2.953146621800     104.004999988618      50.000000000000
      4951    2        0.000000000000     105.709999984309      50.000000000000
      4952    2        2.953146621800     107.414999990934      50.000000000000
      4953    2        5.906293254534      95.479999988296      50.000000000000
      4954    2        8.859439876334      97.184999983987      50.000000000000
      4955    2        5.906293254534      98.889999990612      50.000000000000
      4956    2        8.859439876334     100.594999986302      50.000000000000
      4957    2        5.906293254534     102.299999981993      50.000000000000
      4958    2        8.859439876334     104.004999988618      50.000000000000
      4959    2        5.906293254534     105.709999984309      50.000000000000
      4960    2        8.859439876334     107.414999990934      50.000000000000
      4961    1       12.796968712689      97.184999983987      50.000000000000
      4962    1       15.750115345423      95.479999988296      50.000000000000
      4963    1       12.796968712689     100.594999986302      50.000000000000
      4964    1       15.750115345423      98.889999990612      50.000000000000
      4965    1       12.796968712689     104.004999988618      50.000000000000
      4966    1       15.750115345423     102.299999981993      50.000000000000
      4967    1       12.796968712689     107.414999990934      50.000000000000
      4968    1       15.750115345423     105.709999984309      50.000000000000
      4969    1       18.703261967223      97.184999983987      50.000000000000
      4970    1       21.656408599956      95.479999988296      50.000000000000
      4971    1       18.703261967223     100.594999986302      50.000000000000
      4972    1       21.656408599956      98.889999990612      50.000000000000
      4973    1       18.703261967223     104.004999988618      50.000000000000
      4974    1       21.656408599956     102.299999981993      50.000000000000
      4975    1       18.703261967223     107.414999990934      50.000000000000
      4976    1       21.656408599956     105.709999984309      50.000000000000
      4977    2       11.812586509067      95.479999988296      50.000000000000
      4978    2       14.765733130867      97.184999983987      50.000000000000
      4979    2       11.812586509067      98.889999990612      50.000000000000
      4980    2       14.765733130867     100.594999986302      50.000000000000
      4981    2       11.812586509067     102.299999981993      50.000000000000
      4982    2       14.765733130867     104.004999988618      50.000000000000
      4983    2       11.812586509067     105.709999984309      50.000000000000
      4984    2       14.765733130867     107.414999990934      50.000000000000
      4985    2       17.718879763601      95.479999988296      50.000000000000
      4986    2       20.672026385401      97.184999983987      50.000000000000
      4987    2       17.718879763601      98.889999990612      50.000000000000
      4988    2       20.672026385401     100.594999986302      50.000000000000
      4989    2       17.718879763601     102.299999981993      50.000000000000
      4990    2       20.672026385401     104.004999988618      50.000000000000
      4991    2       17.718879763601     105.709999984309      50.000000000000
      4992    2       20.672026385401     107.414999990934      50.000000000000
      4993    1       24.609555221756      97.184999983987      50.000000000000
      4994    1       27.562701854490      95.479999988296      50.000000000000
      4995    1       24.609555221756     100.594999986302      50.000000000000
      4996    1       27.562701854490      98.889999990612      50.000000000000
      4997    1       24.609555221756     104.004999988618      50.000000000000
      4998    1       27.562701854490     102.299999981993      50.000000000000
      4999    1       24.609555221756     107.414999990934      50.000000000000
      5000    1       27.562701854490     105.709999984309      50.000000000000
      5001    1       30.515848476290      97.184999983987      50.000000000000
      5002    1       33.468995109023      95.479999988296      50.000000000000
      5003    1       30.515848476290     100.594999986302      50.000000000000
      5004    1       33.468995109023      98.889999990612      50.000000000000
      5005    1       30.515848476290     104.004999988618      50.000000000000
      5006    1       33.468995109023     102.299999981993      50.000000000000
      5007    1       30.515848476290     107.414999990934      50.000000000000
      5008    1       33.468995109023     105.709999984309      50.000000000000
      5009    2       23.625173018134      95.479999988296      50.000000000000
      5010    2       26.578319639934      97.184999983987      50.000000000000
      5011    2       23.625173018134      98.889999990612      50.000000000000
      5012    2       26.578319639934     100.594999986302      50.000000000000
      5013    2       23.625173018134     102.299999981993      50.000000000000
      5014    2       26.578319639934     104.004999988618      50.000000000000
      5015    2       23.625173018134     105.709999984309      50.000000000000
      5016    2       26.578319639934     107.414999990934      50.000000000000
      5017    2       29.531466272668      95.479999988296      50.000000000000
      5018    2       32.484612894468      97.184999983987      50.000000000000
      5019    2       29.531466272668      98.889999990612      50.000000000000
      5020    2       32.484612894468     100.594999986302      50.000000000000
      5021    2       29.531466272668     102.299999981993      50.000000000000
      5022    2       32.484612894468     104.004999988618      50.000000000000
      5023    2       29.531466272668     105.709999984309      50.000000000000
      5024    2       32.484612894468     107.414999990934      50.000000000000
      5025    1       36.422141730823      97.184999983987      50.000000000000
      5026    1       39.375288363557      95.479999988296      50.000000000000
      5027    1       36.422141730823     100.594999986302      50.000000000000
      5028    1       39.375288363557      98.889999990612      50.000000000000
      5029    1       36.422141730823     104.004999988618      50.000000000000
      5030    1       39.375288363557     102.299999981993      50.000000000000
      5031    1       36.422141730823     107.414999990934      50.000000000000
      5032    1       39.375288363557     105.709999984309      50.000000000000
      5033    1       42.328434985357      97.184999983987      50.000000000000
      5034    1       45.281581618090      95.479999988296      50.000000000000
      5035    1       42.328434985357     100.594999986302      50.000000000000
      5036    1       45.281581618090      98.889999990612      50.000000000000
      5037    1       42.328434985357     104.004999988618      50.000000000000
      5038    1       45.281581618090     102.299999981993      50.000000000000
      5039    1       42.328434985357     107.414999990934      50.000000000000
      5040    1       45.281581618090     105.709999984309      50.000000000000
      5041    2       35.437759527201      95.479999988296      50.000000000000
      5042    2       38.390906149001      97.184999983987      50.000000000000
      5043    2       35.437759527201      98.889999990612      50.000000000000
      5044    2       38.390906149001     100.594999986302      50.000000000000
      5045    2       35.437759527201     102.299999981993      50.000000000000
      5046    2       38.390906149001     104.004999988618      50.000000000000
      5047    2       35.437759527201     105.709999984309      50.000000000000
      5048    2       38.390906149001     107.414999990934      50.000000000000
      5049    2       41.344052781735      95.479999988296      50.000000000000
      5050    2       44.297199403535      97.184999983987      50.000000000000
      5051    2       41.344052781735      98.889999990612      50.000000000000
      5052    2       44.297199403535     100.594999986302      50.000000000000
      5053    2       41.344052781735     102.299999981993      50.000000000000
      5054    2       44.297199403535     104.004999988618      50.000000000000
      5055    2       41.344052781735     105.709999984309      50.000000000000
      5056    2       44.297199403535     107.414999990934      50.000000000000
      5057    1       48.234728239890      97.184999983987      50.000000000000
      5058    1       51.187874872624      95.479999988296      50.000000000000
      5059    1       48.234728239890     100.594999986302      50.000000000000
      5060    1       51.187874872624      98.889999990612      50.000000000000
      5061    1       48.234728239890     104.004999988618      50.000000000000
      5062    1       51.187874872624     102.299999981993      50.000000000000
      5063    1       48.234728239890     107.414999990934      50.000000000000
      5064    1       51.187874872624     105.709999984309      50.000000000000
      5065    1       54.141021494424      97.184999983987      50.000000000000
      5066    1       57.094168127157      95.479999988296      50.000000000000
      5067    1       54.141021494424     100.594999986302      50.000000000000
      5068    1       57.094168127157      98.889999990612      50.000000000000
      5069    1       54.141021494424     104.004999988618      50.000000000000
      5070    1       57.094168127157     102.299999981993      50.000000000000
      5071    1       54.141021494424     107.414999990934      50.000000000000
      5072    1       57.094168127157     105.709999984309      50.000000000000
      5073    2       47.250346036268      95.479999988296      50.000000000000
      5074    2       50.203492658068      97.184999983987      50.000000000000
      5075    2       47.250346036268      98.889999990612      50.000000000000
      5076    2       50.203492658068     100.594999986302      50.000000000000
      5077    2       47.250346036268     102.299999981993      50.000000000000
      5078    2       50.203492658068     104.004999988618      50.000000000000
      5079    2       47.250346036268     105.709999984309      50.000000000000
      5080    2       50.203492658068     107.414999990934      50.000000000000
      5081    2       53.156639290802      95.479999988296      50.000000000000
      5082    2       56.109785912602      97.184999983987      50.000000000000
      5083    2       53.156639290802      98.889999990612      50.000000000000
      5084    2       56.109785912602     100.594999986302      50.000000000000
      5085    2       53.156639290802     102.299999981993      50.000000000000
      5086    2       56.109785912602     104.004999988618      50.000000000000
      5087    2       53.156639290802     105.709999984309      50.000000000000
      5088    2       56.109785912602     107.414999990934      50.000000000000
      5089    1       60.047314748957      97.184999983987      50.000000000000
      5090    1       63.000461381691      95.479999988296      50.000000000000
      5091    1       60.047314748957     100.594999986302      50.000000000000
      5092    1       63.000461381691      98.889999990612      50.000000000000
      5093    1       60.047314748957     104.004999988618      50.000000000000
      5094    1       63.000461381691     102.299999981993      50.000000000000
      5095    1       60.047314748957     107.414999990934      50.000000000000
      5096    1       63.000461381691     105.709999984309      50.000000000000
      5097    1       65.953608003491      97.184999983987      50.000000000000
      5098    1       68.906754636224      95.479999988296      50.000000000000
      5099    1       65.953608003491     100.594999986302      50.000000000000
      5100    1       68.906754636224      98.889999990612      50.000000000000
      5101    1       65.953608003491     104.004999988618      50.000000000000
      5102    1       68.906754636224     102.299999981993      50.000000000000
      5103    1       65.953608003491     107.414999990934      50.000000000000
      5104    1       68.906754636224     105.709999984309      50.000000000000
      5105    2       59.062932545335      95.479999988296      50.000000000000
      5106    2       62.016079167135      97.184999983987      50.000000000000
      5107    2       59.062932545335      98.889999990612      50.000000000000
      5108    2       62.016079167135     100.594999986302      50.000000000000
      5109    2       59.062932545335     102.299999981993      50.000000000000
      5110    2       62.016079167135     104.004999988618      50.000000000000
      5111    2       59.062932545335     105.709999984309      50.000000000000
      5112    2       62.016079167135     107.414999990934      50.000000000000
      5113    2       64.969225799869      95.479999988296      50.000000000000
      5114    2       67.922372421669      97.184999983987      50.000000000000
      5115    2       64.969225799869      98.889999990612      50.000000000000
      5116    2       67.922372421669     100.594999986302      50.000000000000
      5117    2       64.969225799869     102.299999981993      50.000000000000
      5118    2       67.922372421669     104.004999988618      50.000000000000
      5119    2       64.969225799869     105.709999984309      50.000000000000
      5120    2       67.922372421669     107.414999990934      50.000000000000
      5121    1       71.859901258024      97.184999983987      50.000000000000
      5122    1       74.813047890758      95.479999988296      50.000000000000
      5123    1       71.859901258024     100.594999986302      50.000000000000
      5124    1       74.813047890758      98.889999990612      50.000000000000
      5125    1       71.859901258024     104.004999988618      50.000000000000
      5126    1       74.813047890758     102.299999981993      50.000000000000
      5127    1       71.859901258024     107.414999990934      50.000000000000
      5128    1       74.813047890758     105.709999984309      50.000000000000
      5129    1       77.766194512558      97.184999983987      50.000000000000
      5130    1       80.719341145291      95.479999988296      50.000000000000
      5131    1       77.766194512558     100.594999986302      50.000000000000
      5132    1       80.719341145291      98.889999990612      50.000000000000
      5133    1       77.766194512558     104.004999988618      50.000000000000
      5134    1       80.719341145291     102.299999981993      50.000000000000
      5135    1       77.766194512558     107.414999990934      50.000000000000
      5136    1       80.719341145291     105.709999984309      50.000000000000
      5137    2       70.875519054402      95.479999988296      50.000000000000
      5138    2       73.828665676202      97.184999983987      50.000000000000
      5139    2       70.875519054402      98.889999990612      50.000000000000
      5140    2       73.828665676202     100.594999986302      50.000000000000
      5141    2       70.875519054402     102.299999981993      50.000000000000
      5142    2       73.828665676202     104.004999988618      50.000000000000
      5143    2       70.875519054402     105.709999984309      50.000000000000
      5144    2       73.828665676202     107.414999990934      50.000000000000
      5145    2       76.781812308936      95.479999988296      50.000000000000
      5146    2       79.734958930736      97.184999983987      50.000000000000
      5147    2       76.781812308936      98.889999990612      50.000000000000
      5148    2       79.734958930736     100.594999986302      50.000000000000
      5149    2       76.781812308936     102.299999981993      50.000000000000
      5150    2       79.734958930736     104.004999988618      50.000000000000
      5151    2       76.781812308936     105.709999984309      50.000000000000
      5152    2       79.734958930736     107.414999990934      50.000000000000
      5153    1       83.672487767091      97.184999983987      50.000000000000
      5154    1       86.625634399825      95.479999988296      50.000000000000
      5155    1       83.672487767091     100.594999986302      50.000000000000
      5156    1       86.625634399825      98.889999990612      50.000000000000
      5157    1       83.672487767091     104.004999988618      50.000000000000
      5158    1       86.625634399825     102.299999981993      50.000000000000
      5159    1       83.672487767091     107.414999990934      50.000000000000
      5160    1       86.625634399825     105.709999984309      50.000000000000
      5161    1       89.578781021625      97.184999983987      50.000000000000
      5162    1       92.531927654358      95.479999988296      50.000000000000
      5163    1       89.578781021625     100.594999986302      50.000000000000
      5164    1       92.531927654358      98.889999990612      50.000000000000
      5165    1       89.578781021625     104.004999988618      50.000000000000
      5166    1       92.531927654358     102.299999981993      50.000000000000
      5167    1       89.578781021625     107.414999990934      50.000000000000
      5168    1       92.531927654358     105.709999984309      50.000000000000
      5169    2       82.688105563469      95.479999988296      50.000000000000
      5170    2       85.641252185269      97.184999983987      50.000000000000
      5171    2       82.688105563469      98.889999990612      50.000000000000
      5172    2       85.641252185269     100.594999986302      50.000000000000
      5173    2       82.688105563469     102.299999981993      50.000000000000
      5174    2       85.641252185269     104.004999988618      50.000000000000
      5175    2       82.688105563469     105.709999984309      50.000000000000
      5176    2       85.641252185269     107.414999990934      50.000000000000
      5177    2       88.594398818003      95.479999988296      50.000000000000
      5178    2       91.547545439803      97.184999983987      50.000000000000
      5179    2       88.594398818003      98.889999990612      50.000000000000
      5180    2       91.547545439803     100.594999986302      50.000000000000
      5181    2       88.594398818003     102.299999981993      50.000000000000
      5182    2       91.547545439803     104.004999988618      50.000000000000
      5183    2       88.594398818003     105.709999984309      50.000000000000
      5184    2       91.547545439803     107.414999990934      50.000000000000
      5185    1       95.485074276158      97.184999983987      50.000000000000
      5186    1       98.438220908892      95.479999988296      50.000000000000
      5187    1       95.485074276158     100.594999986302      50.000000000000
      5188    1       98.438220908892      98.889999990612      50.000000000000
      5189    1       95.485074276158     104.004999988618      50.000000000000
      5190    1       98.438220908892     102.299999981993      50.000000000000
      5191    1       95.485074276158     107.414999990934      50.000000000000
      5192    1       98.438220908892     105.709999984309      50.000000000000
      5193    1      101.391367530692      97.184999983987      50.000000000000
      5194    1      104.344514163425      95.479999988296      50.000000000000
      5195    1      101.391367530692     100.594999986302      50.000000000000
      5196    1      104.344514163425      98.889999990612      50.000000000000
      5197    1      101.391367530692     104.004999988618      50.000000000000
      5198    1      104.344514163425     102.299999981993      50.000000000000
      5199    1      101.391367530692     107.414999990934      50.000000000000
      5200    1      104.344514163425     105.709999984309      50.000000000000
      5201    2       94.500692072536      95.479999988296      50.000000000000
      5202    2       97.453838694336      97.184999983987      50.000000000000
      5203    2       94.500692072536      98.889999990612      50.000000000000
      5204    2       97.453838694336     100.594999986302      50.000000000000
      5205    2       94.500692072536     102.299999981993      50.000000000000
      5206    2       97.453838694336     104.004999988618      50.000000000000
      5207    2       94.500692072536     105.709999984309      50.000000000000
      5208    2       97.453838694336     107.414999990934      50.000000000000
      5209    2      100.406985327070      95.479999988296      50.000000000000
      5210    2      103.360131948870      97.184999983987      50.000000000000
      5211    2      100.406985327070      98.889999990612      50.000000000000
      5212    2      103.360131948870     100.594999986302      50.000000000000
      5213    2      100.406985327070     102.299999981993      50.000000000000
      5214    2      103.360131948870     104.004999988618      50.000000000000
      5215    2      100.406985327070     105.709999984309      50.000000000000
      5216    2      103.360131948870     107.414999990934      50.000000000000
      5217    1      107.297660785225      97.184999983987      50.000000000000
      5218    1      110.250807417959      95.479999988296      50.000000000000
      5219    1      107.297660785225     100.594999986302      50.000000000000
      5220    1      110.250807417959      98.889999990612      50.000000000000
      5221    1      107.297660785225     104.004999988618      50.000000000000
      5222    1      110.250807417959     102.299999981993      50.000000000000
      5223    1      107.297660785225     107.414999990934      50.000000000000
      5224    1      110.250807417959     105.709999984309      50.000000000000
      5225    1      113.203954039759      97.184999983987      50.000000000000
      5226    1      116.157100672492      95.479999988296      50.000000000000
      5227    1      113.203954039759     100.594999986302      50.000000000000
      5228    1      116.157100672492      98.889999990612      50.000000000000
      5229    1      113.203954039759     104.004999988618      50.000000000000
      5230    1      116.157100672492     102.299999981993      50.000000000000
      5231    1      113.203954039759     107.414999990934      50.000000000000
      5232    1      116.157100672492     105.709999984309      50.000000000000
      5233    2      106.313278581603      95.479999988296      50.000000000000
      5234    2      109.266425203403      97.184999983987      50.000000000000
      5235    2      106.313278581603      98.889999990612      50.000000000000
      5236    2      109.266425203403     100.594999986302      50.000000000000
      5237    2      106.313278581603     102.299999981993      50.000000000000
      5238    2      109.266425203403     104.004999988618      50.000000000000
      5239    2      106.313278581603     105.709999984309      50.000000000000
      5240    2      109.266425203403     107.414999990934      50.000000000000
      5241    2      112.219571836137      95.479999988296      50.000000000000
      5242    2      115.172718457937      97.184999983987      50.000000000000
      5243    2      112.219571836137      98.889999990612      50.000000000000
      5244    2      115.172718457937     100.594999986302      50.000000000000
      5245    2      112.219571836137     102.299999981993      50.000000000000
      5246    2      115.172718457937     104.004999988618      50.000000000000
      5247    2      112.219571836137     105.709999984309      50.000000000000
      5248    2      115.172718457937     107.414999990934      50.000000000000
      5249    1      119.110247294292      97.184999983987      50.000000000000
      5250    1      122.063393927026      95.479999988296      50.000000000000
      5251    1      119.110247294292     100.594999986302      50.000000000000
      5252    1      122.063393927026      98.889999990612      50.000000000000
      5253    1      119.110247294292     104.004999988618      50.000000000000
      5254    1      122.063393927026     102.299999981993      50.000000000000
      5255    1      119.110247294292     107.414999990934      50.000000000000
      5256    1      122.063393927026     105.709999984309      50.000000000000
      5257    1      125.016540548826      97.184999983987      50.000000000000
      5258    1      127.969687181559      95.479999988296      50.000000000000
      5259    1      125.016540548826     100.594999986302      50.000000000000
      5260    1      127.969687181559      98.889999990612      50.000000000000
      5261    1      125.016540548826     104.004999988618      50.000000000000
      5262    1      127.969687181559     102.299999981993      50.000000000000
      5263    1      125.016540548826     107.414999990934      50.000000000000
      5264    1      127.969687181559     105.709999984309      50.000000000000
      5265    2      118.125865090670      95.479999988296      50.000000000000
      5266    2      121.079011712470      97.184999983987      50.000000000000
      5267    2      118.125865090670      98.889999990612      50.000000000000
      5268    2      121.079011712470     100.594999986302      50.000000000000
      5269    2      118.125865090670     102.299999981993      50.000000000000
      5270    2      121.079011712470     104.004999988618      50.000000000000
      5271    2      118.125865090670     105.709999984309      50.000000000000
      5272    2      121.079011712470     107.414999990934      50.000000000000
      5273    2      124.032158345204      95.479999988296      50.000000000000
      5274    2      126.985304967004      97.184999983987      50.000000000000
      5275    2      124.032158345204      98.889999990612      50.000000000000
      5276    2      126.985304967004     100.594999986302      50.000000000000
      5277    2      124.032158345204     102.299999981993      50.000000000000
      5278    2      126.985304967004     104.004999988618      50.000000000000
      5279    2      124.032158345204     105.709999984309      50.000000000000
      5280    2      126.985304967004     107.414999990934      50.000000000000
      5281    1      130.922833803359      97.184999983987      50.000000000000
      5282    1      133.875980436093      95.479999988296      50.000000000000
      5283    1      130.922833803359     100.594999986302      50.000000000000
      5284    1      133.875980436093      98.889999990612      50.000000000000
      5285    1      130.922833803359     104.004999988618      50.000000000000
      5286    1      133.875980436093     102.299999981993      50.000000000000
      5287    1      130.922833803359     107.414999990934      50.000000000000
      5288    1      133.875980436093     105.709999984309      50.000000000000
      5289    1      136.829127057893      97.184999983987      50.000000000000
      5290    1      139.782273690626      95.479999988296      50.000000000000
      5291    1      136.829127057893     100.594999986302      50.000000000000
      5292    1      139.782273690626      98.889999990612      50.000000000000
      5293    1      136.829127057893     104.004999988618      50.000000000000
      5294    1      139.782273690626     102.299999981993      50.000000000000
      5295    1      136.829127057893     107.414999990934      50.000000000000
      5296    1      139.782273690626     105.709999984309      50.000000000000
      5297    2      129.938451599737      95.479999988296      50.000000000000
      5298    2      132.891598221537      97.184999983987      50.000000000000
      5299    2      129.938451599737      98.889999990612      50.000000000000
      5300    2      132.891598221537     100.594999986302      50.000000000000
      5301    2      129.938451599737     102.299999981993      50.000000000000
      5302    2      132.891598221537     104.004999988618      50.000000000000
      5303    2      129.938451599737     105.709999984309      50.000000000000
      5304    2      132.891598221537     107.414999990934      50.000000000000
      5305    2      135.844744854271      95.479999988296      50.000000000000
      5306    2      138.797891476071      97.184999983987      50.000000000000
      5307    2      135.844744854271      98.889999990612      50.000000000000
      5308    2      138.797891476071     100.594999986302      50.000000000000
      5309    2      135.844744854271     102.299999981993      50.000000000000
      5310    2      138.797891476071     104.004999988618      50.000000000000
      5311    2      135.844744854271     105.709999984309      50.000000000000
      5312    2      138.797891476071     107.414999990934      50.000000000000
      5313    1      142.735420312426      97.184999983987      50.000000000000
      5314    1      145.688566945160      95.479999988296      50.000000000000
      5315    1      142.735420312426     100.594999986302      50.000000000000
      5316    1      145.688566945160      98.889999990612      50.000000000000
      5317    1      142.735420312426     104.004999988618      50.000000000000
      5318    1      145.688566945160     102.299999981993      50.000000000000
      5319    1      142.735420312426     107.414999990934      50.000000000000
      5320    1      145.688566945160     105.709999984309      50.000000000000
      5321    1      148.641713566960      97.184999983987      50.000000000000
      5322    1      151.594860199693      95.479999988296      50.000000000000
      5323    1      148.641713566960     100.594999986302      50.000000000000
      5324    1      151.594860199693      98.889999990612      50.000000000000
      5325    1      148.641713566960     104.004999988618      50.000000000000
      5326    1      151.594860199693     102.299999981993      50.000000000000
      5327    1      148.641713566960     107.414999990934      50.000000000000
      5328    1      151.594860199693     105.709999984309      50.000000000000
      5329    2      141.751038108804      95.479999988296      50.000000000000
      5330    2      144.704184730604      97.184999983987      50.000000000000
      5331    2      141.751038108804      98.889999990612      50.000000000000
      5332    2      144.704184730604     100.594999986302      50.000000000000
      5333    2      141.751038108804     102.299999981993      50.000000000000
      5334    2      144.704184730604     104.004999988618      50.000000000000
      5335    2      141.751038108804     105.709999984309      50.000000000000
      5336    2      144.704184730604     107.414999990934      50.000000000000
      5337    2      147.657331363338      95.479999988296      50.000000000000
      5338    2      150.610477985138      97.184999983987      50.000000000000
      5339    2      147.657331363338      98.889999990612      50.000000000000
      5340    2      150.610477985138     100.594999986302      50.000000000000
      5341    2      147.657331363338     102.299999981993      50.000000000000
      5342    2      150.610477985138     104.004999988618      50.000000000000
      5343    2      147.657331363338     105.709999984309      50.000000000000
      5344    2      150.610477985138     107.414999990934      50.000000000000
      5345    1      154.548006821493      97.184999983987      50.000000000000
      5346    1      157.501153454227      95.479999988296      50.000000000000
      5347    1      154.548006821493     100.594999986302      50.000000000000
      5348    1      157.501153454227      98.889999990612      50.000000000000
      5349    1      154.548006821493     104.004999988618      50.000000000000
      5350    1      157.501153454227     102.299999981993      50.000000000000
      5351    1      154.548006821493     107.414999990934      50.000000000000
      5352    1      157.501153454227     105.709999984309      50.000000000000
      5353    1      160.454300076027      97.184999983987      50.000000000000
      5354    1      163.407446708760      95.479999988296      50.000000000000
      5355    1      160.454300076027     100.594999986302      50.000000000000
      5356    1      163.407446708760      98.889999990612      50.000000000000
      5357    1      160.454300076027     104.004999988618      50.000000000000
      5358    1      163.407446708760     102.299999981993      50.000000000000
      5359    1      160.454300076027     107.414999990934      50.000000000000
      5360    1      163.407446708760     105.709999984309      50.000000000000
      5361    2      153.563624617871      95.479999988296      50.000000000000
      5362    2      156.516771239671      97.184999983987      50.000000000000
      5363    2      153.563624617871      98.889999990612      50.000000000000
      5364    2      156.516771239671     100.594999986302      50.000000000000
      5365    2      153.563624617871     102.299999981993      50.000000000000
      5366    2      156.516771239671     104.004999988618      50.000000000000
      5367    2      153.563624617871     105.709999984309      50.000000000000
      5368    2      156.516771239671     107.414999990934      50.000000000000
      5369    2      159.469917872405      95.479999988296      50.000000000000
      5370    2      162.423064494205      97.184999983987      50.000000000000
      5371    2      159.469917872405      98.889999990612      50.000000000000
      5372    2      162.423064494205     100.594999986302      50.000000000000
      5373    2      159.469917872405     102.299999981993      50.000000000000
      5374    2      162.423064494205     104.004999988618      50.000000000000
      5375    2      159.469917872405     105.709999984309      50.000000000000
      5376    2      162.423064494205     107.414999990934      50.000000000000
      5377    1      166.360593330560      97.184999983987      50.000000000000
      5378    1      169.313739963294      95.479999988296      50.000000000000
      5379    1      166.360593330560     100.594999986302      50.000000000000
      5380    1      169.313739963294      98.889999990612      50.000000000000
      5381    1      166.360593330560     104.004999988618      50.000000000000
      5382    1      169.313739963294     102.299999981993      50.000000000000
      5383    1      166.360593330560     107.414999990934      50.000000000000
      5384    1      169.313739963294     105.709999984309      50.000000000000
      5385    1      172.266886585094      97.184999983987      50.000000000000
      5386    1      175.220033217827      95.479999988296      50.000000000000
      5387    1      172.266886585094     100.594999986302      50.000000000000
      5388    1      175.220033217827      98.889999990612      50.000000000000
      5389    1      172.266886585094     104.004999988618      50.000000000000
      5390    1      175.220033217827     102.299999981993      50.000000000000
      5391    1      172.266886585094     107.414999990934      50.000000000000
      5392    1      175.220033217827     105.709999984309      50.000000000000
      5393    2      165.376211126938      95.479999988296      50.000000000000
      5394    2      168.329357748738      97.184999983987      50.000000000000
      5395    2      165.376211126938      98.889999990612      50.000000000000
      5396    2      168.329357748738     100.594999986302      50.000000000000
      5397    2      165.376211126938     102.299999981993      50.000000000000
      5398    2      168.329357748738     104.004999988618      50.000000000000
      5399    2      165.376211126938     105.709999984309      50.000000000000
      5400    2      168.329357748738     107.414999990934      50.000000000000
      5401    2      171.282504381472      95.479999988296      50.000000000000
      5402    2      174.235651003272      97.184999983987      50.000000000000
      5403    2      171.282504381472      98.889999990612      50.000000000000
      5404    2      174.235651003272     100.594999986302      50.000000000000
      5405    2      171.282504381472     102.299999981993      50.000000000000
      5406    2      174.235651003272     104.004999988618      50.000000000000
      5407    2      171.282504381472     105.709999984309      50.000000000000
      5408    2      174.235651003272     107.414999990934      50.000000000000
      5409    1      178.173179839627      97.184999983987      50.000000000000
      5410    1      181.126326472361      95.479999988296      50.000000000000
      5411    1      178.173179839627     100.594999986302      50.000000000000
      5412    1      181.126326472361      98.889999990612      50.000000000000
      5413    1      178.173179839627     104.004999988618      50.000000000000
      5414    1      181.126326472361     102.299999981993      50.000000000000
      5415    1      178.173179839627     107.414999990934      50.000000000000
      5416    1      181.126326472361     105.709999984309      50.000000000000
      5417    1      184.079473094161      97.184999983987      50.000000000000
      5418    1      187.032619726894      95.479999988296      50.000000000000
      5419    1      184.079473094161     100.594999986302      50.000000000000
      5420    1      187.032619726894      98.889999990612      50.000000000000
      5421    1      184.079473094161     104.004999988618      50.000000000000
      5422    1      187.032619726894     102.299999981993      50.000000000000
      5423    1      184.079473094161     107.414999990934      50.000000000000
      5424    1      187.032619726894     105.709999984309      50.000000000000
      5425    2      177.188797636005      95.479999988296      50.000000000000
      5426    2      180.141944257805      97.184999983987      50.000000000000
      5427    2      177.188797636005      98.889999990612      50.000000000000
      5428    2      180.141944257805     100.594999986302      50.000000000000
      5429    2      177.188797636005     102.299999981993      50.000000000000
      5430    2      180.141944257805     104.004999988618      50.000000000000
      5431    2      177.188797636005     105.709999984309      50.000000000000
      5432    2      180.141944257805     107.414999990934      50.000000000000
      5433    2      183.095090890539      95.479999988296      50.000000000000
      5434    2      186.048237512339      97.184999983987      50.000000000000
      5435    2      183.095090890539      98.889999990612      50.000000000000
      5436    2      186.048237512339     100.594999986302      50.000000000000
      5437    2      183.095090890539     102.299999981993      50.000000000000
      5438    2      186.048237512339     104.004999988618      50.000000000000
      5439    2      183.095090890539     105.709999984309      50.000000000000
      5440    2      186.048237512339     107.414999990934      50.000000000000
      5441    1      189.985766348694      97.184999983987      50.000000000000
      5442    1      192.938912981428      95.479999988296      50.000000000000
      5443    1      189.985766348694     100.594999986302      50.000000000000
      5444    1      192.938912981428      98.889999990612      50.000000000000
      5445    1      189.985766348694     104.004999988618      50.000000000000
      5446    1      192.938912981428     102.299999981993      50.000000000000
      5447    1      189.985766348694     107.414999990934      50.000000000000
      5448    1      192.938912981428     105.709999984309      50.000000000000
      5449    1      195.892059603228      97.184999983987      50.000000000000
      5450    1      198.845206235961      95.479999988296      50.000000000000
      5451    1      195.892059603228     100.594999986302      50.000000000000
      5452    1      198.845206235961      98.889999990612      50.000000000000
      5453    1      195.892059603228     104.004999988618      50.000000000000
      5454    1      198.845206235961     102.299999981993      50.000000000000
      5455    1      195.892059603228     107.414999990934      50.000000000000
      5456    1      198.845206235961     105.709999984309      50.000000000000
      5457    2      189.001384145072      95.479999988296      50.000000000000
      5458    2      191.954530766872      97.184999983987      50.000000000000
      5459    2      189.001384145072      98.889999990612      50.000000000000
      5460    2      191.954530766872     100.594999986302      50.000000000000
      5461    2      189.001384145072     102.299999981993      50.000000000000
      5462    2      191.954530766872     104.004999988618      50.000000000000
      5463    2      189.001384145072     105.709999984309      50.000000000000
      5464    2      191.954530766872     107.414999990934      50.000000000000
      5465    2      194.907677399606      95.479999988296      50.000000000000
      5466    2      197.860824021406      97.184999983987      50.000000000000
      5467    2      194.907677399606      98.889999990612      50.000000000000
      5468    2      197.860824021406     100.594999986302      50.000000000000
      5469    2      194.907677399606     102.299999981993      50.000000000000
      5470    2      197.860824021406     104.004999988618      50.000000000000
      5471    2      194.907677399606     105.709999984309      50.000000000000
      5472    2      197.860824021406     107.414999990934      50.000000000000
      5473    1      201.798352857761      97.184999983987      50.000000000000
      5474    1      204.751499490495      95.479999988296      50.000000000000
      5475    1      201.798352857761     100.594999986302      50.000000000000
      5476    1      204.751499490495      98.889999990612      50.000000000000
      5477    1      201.798352857761     104.004999988618      50.000000000000
      5478    1      204.751499490495     102.299999981993      50.000000000000
      5479    1      201.798352857761     107.414999990934      50.000000000000
      5480    1      204.751499490495     105.709999984309      50.000000000000
      5481    1      207.704646112295      97.184999983987      50.000000000000
      5482    1      210.657792745028      95.479999988296      50.000000000000
      5483    1      207.704646112295     100.594999986302      50.000000000000
      5484    1      210.657792745028      98.889999990612      50.000000000000
      5485    1      207.704646112295     104.004999988618      50.000000000000
      5486    1      210.657792745028     102.299999981993      50.000000000000
      5487    1      207.704646112295     107.414999990934      50.000000000000
      5488    1      210.657792745028     105.709999984309      50.000000000000
      5489    2      200.813970654139      95.479999988296      50.000000000000
      5490    2      203.767117275939      97.184999983987      50.000000000000
      5491    2      200.813970654139      98.889999990612      50.000000000000
      5492    2      203.767117275939     100.594999986302      50.000000000000
      5493    2      200.813970654139     102.299999981993      50.000000000000
      5494    2      203.767117275939     104.004999988618      50.000000000000
      5495    2      200.813970654139     105.709999984309      50.000000000000
      5496    2      203.767117275939     107.414999990934      50.000000000000
      5497    2      206.720263908673      95.479999988296      50.000000000000
      5498    2      209.673410530473      97.184999983987      50.000000000000
      5499    2      206.720263908673      98.889999990612      50.000000000000
      5500    2      209.673410530473     100.594999986302      50.000000000000
      5501    2      206.720263908673     102.299999981993      50.000000000000
      5502    2      209.673410530473     104.004999988618      50.000000000000
      5503    2      206.720263908673     105.709999984309      50.000000000000
      5504    2      209.673410530473     107.414999990934      50.000000000000
      5505    1      213.610939366828      97.184999983987      50.000000000000
      5506    1      216.564085999562      95.479999988296      50.000000000000
      5507    1      213.610939366828     100.594999986302      50.000000000000
      5508    1      216.564085999562      98.889999990612      50.000000000000
      5509    1      213.610939366828     104.004999988618      50.000000000000
      5510    1      216.564085999562     102.299999981993      50.000000000000
      5511    1      213.610939366828     107.414999990934      50.000000000000
      5512    1      216.564085999562     105.709999984309      50.000000000000
      5513    1      219.517232621362      97.184999983987      50.000000000000
      5514    1      222.470379254095      95.479999988296      50.000000000000
      5515    1      219.517232621362     100.594999986302      50.000000000000
      5516    1      222.470379254095      98.889999990612      50.000000000000
      5517    1      219.517232621362     104.004999988618      50.000000000000
      5518    1      222.470379254095     102.299999981993      50.000000000000
      5519    1      219.517232621362     107.414999990934      50.000000000000
      5520    1      222.470379254095     105.709999984309      50.000000000000
      5521    2      212.626557163206      95.479999988296      50.000000000000
      5522    2      215.579703785006      97.184999983987      50.000000000000
      5523    2      212.626557163206      98.889999990612      50.000000000000
      5524    2      215.579703785006     100.594999986302      50.000000000000
      5525    2      212.626557163206     102.299999981993      50.000000000000
      5526    2      215.579703785006     104.004999988618      50.000000000000
      5527    2      212.626557163206     105.709999984309      50.000000000000
      5528    2      215.579703785006     107.414999990934      50.000000000000
      5529    2      218.532850417740      95.479999988296      50.000000000000
      5530    2      221.485997039540      97.184999983987      50.000000000000
      5531    2      218.532850417740      98.889999990612      50.000000000000
      5532    2      221.485997039540     100.594999986302      50.000000000000
      5533    2      218.532850417740     102.299999981993      50.000000000000
      5534    2      221.485997039540     104.004999988618      50.000000000000
      5535    2      218.532850417740     105.709999984309      50.000000000000
      5536    2      221.485997039540     107.414999990934      50.000000000000
      5537    1      225.423525875895      97.184999983987      50.000000000000
      5538    1      228.376672508629      95.479999988296      50.000000000000
      5539    1      225.423525875895     100.594999986302      50.000000000000
      5540    1      228.376672508629      98.889999990612      50.000000000000
      5541    1      225.423525875895     104.004999988618      50.000000000000
      5542    1      228.376672508629     102.299999981993      50.000000000000
      5543    1      225.423525875895     107.414999990934      50.000000000000
      5544    1      228.376672508629     105.709999984309      50.000000000000
      5545    1      231.329819130429      97.184999983987      50.000000000000
      5546    1      234.282965763162      95.479999988296      50.000000000000
      5547    1      231.329819130429     100.594999986302      50.000000000000
      5548    1      234.282965763162      98.889999990612      50.000000000000
      5549    1      231.329819130429     104.004999988618      50.000000000000
      5550    1      234.282965763162     102.299999981993      50.000000000000
      5551    1      231.329819130429     107.414999990934      50.000000000000
      5552    1      234.282965763162     105.709999984309      50.000000000000
      5553    2      224.439143672273      95.479999988296      50.000000000000
      5554    2      227.392290294073      97.184999983987      50.000000000000
      5555    2      224.439143672273      98.889999990612      50.000000000000
      5556    2      227.392290294073     100.594999986302      50.000000000000
      5557    2      224.439143672273     102.299999981993      50.000000000000
      5558    2      227.392290294073     104.004999988618      50.000000000000
      5559    2      224.439143672273     105.709999984309      50.000000000000
      5560    2      227.392290294073     107.414999990934      50.000000000000
      5561    2      230.345436926807      95.479999988296      50.000000000000
      5562    2      233.298583548607      97.184999983987      50.000000000000
      5563    2      230.345436926807      98.889999990612      50.000000000000
      5564    2      233.298583548607     100.594999986302      50.000000000000
      5565    2      230.345436926807     102.299999981993      50.000000000000
      5566    2      233.298583548607     104.004999988618      50.000000000000
      5567    2      230.345436926807     105.709999984309      50.000000000000
      5568    2      233.298583548607     107.414999990934      50.000000000000
      5569    1      237.236112384962      97.184999983987      50.000000000000
      5570    1      240.189259017696      95.479999988296      50.000000000000
      5571    1      237.236112384962     100.594999986302      50.000000000000
      5572    1      240.189259017696      98.889999990612      50.000000000000
      5573    1      237.236112384962     104.004999988618      50.000000000000
      5574    1      240.189259017696     102.299999981993      50.000000000000
      5575    1      237.236112384962     107.414999990934      50.000000000000
      5576    1      240.189259017696     105.709999984309      50.000000000000
      5577    1      243.142405639496      97.184999983987      50.000000000000
      5578    1      246.095552272229      95.479999988296      50.000000000000
      5579    1      243.142405639496     100.594999986302      50.000000000000
      5580    1      246.095552272229      98.889999990612      50.000000000000
      5581    1      243.142405639496     104.004999988618      50.000000000000
      5582    1      246.095552272229     102.299999981993      50.000000000000
      5583    1      243.142405639496     107.414999990934      50.000000000000
      5584    1      246.095552272229     105.709999984309      50.000000000000
      5585    2      236.251730181340      95.479999988296      50.000000000000
      5586    2      239.204876803140      97.184999983987      50.000000000000
      5587    2      236.251730181340      98.889999990612      50.000000000000
      5588    2      239.204876803140     100.594999986302      50.000000000000
      5589    2      236.251730181340     102.299999981993      50.000000000000
      5590    2      239.204876803140     104.004999988618      50.000000000000
      5591    2      236.251730181340     105.709999984309      50.000000000000
      5592    2      239.204876803140     107.414999990934      50.000000000000
      5593    2      242.158023435874      95.479999988296      50.000000000000
      5594    2      245.111170057674      97.184999983987      50.000000000000
      5595    2      242.158023435874      98.889999990612      50.000000000000
      5596    2      245.111170057674     100.594999986302      50.000000000000
      5597    2      242.158023435874     102.299999981993      50.000000000000
      5598    2      245.111170057674     104.004999988618      50.000000000000
      5599    2      242.158023435874     105.709999984309      50.000000000000
      5600    2      245.111170057674     107.414999990934      50.000000000000
      5601    1      249.048698894029      97.184999983987      50.000000000000
      5602    1      252.001845526763      95.479999988296      50.000000000000
      5603    1      249.048698894029     100.594999986302      50.000000000000
      5604    1      252.001845526763      98.889999990612      50.000000000000
      5605    1      249.048698894029     104.004999988618      50.000000000000
      5606    1      252.001845526763     102.299999981993      50.000000000000
      5607    1      249.048698894029     107.414999990934      50.000000000000
      5608    1      252.001845526763     105.709999984309      50.000000000000
      5609    1      254.954992148563      97.184999983987      50.000000000000
      5610    1      257.908138781296      95.479999988296      50.000000000000
      5611    1      254.954992148563     100.594999986302      50.000000000000
      5612    1      257.908138781296      98.889999990612      50.000000000000
      5613    1      254.954992148563     104.004999988618      50.000000000000
      5614    1      257.908138781296     102.299999981993      50.000000000000
      5615    1      254.954992148563     107.414999990934      50.000000000000
      5616    1      257.908138781296     105.709999984309      50.000000000000
      5617    2      248.064316690407      95.479999988296      50.000000000000
      5618    2      251.017463312207      97.184999983987      50.000000000000
      5619    2      248.064316690407      98.889999990612      50.000000000000
      5620    2      251.017463312207     100.594999986302      50.000000000000
      5621    2      248.064316690407     102.299999981993      50.000000000000
      5622    2      251.017463312207     104.004999988618      50.000000000000
      5623    2      248.064316690407     105.709999984309      50.000000000000
      5624    2      251.017463312207     107.414999990934      50.000000000000
      5625    2      253.970609944941      95.479999988296      50.000000000000
      5626    2      256.923756566741      97.184999983987      50.000000000000
      5627    2      253.970609944941      98.889999990612      50.000000000000
      5628    2      256.923756566741     100.594999986302      50.000000000000
      5629    2      253.970609944941     102.299999981993      50.000000000000
      5630    2      256.923756566741     104.004999988618      50.000000000000
      5631    2      253.970609944941     105.709999984309      50.000000000000
      5632    2      256.923756566741     107.414999990934      50.000000000000
      5633    1        0.984382203622     110.824999982315      50.000000000000
      5634    1        3.937528836356     109.119999986624      50.000000000000
      5635    1        0.984382203622     114.234999984630      50.000000000000
      5636    1        3.937528836356     112.529999988940      50.000000000000
      5637    1        0.984382203622     117.644999986946      50.000000000000
      5638    1        3.937528836356     115.939999980321      50.000000000000
      5639    1        0.984382203622     121.054999989262      50.000000000000
      5640    1        3.937528836356     119.349999982637      50.000000000000
      5641    1        6.890675458156     110.824999982315      50.000000000000
      5642    1        9.843822090889     109.119999986624      50.000000000000
      5643    1        6.890675458156     114.234999984630      50.000000000000
      5644    1        9.843822090889     112.529999988940      50.000000000000
      5645    1        6.890675458156     117.644999986946      50.000000000000
      5646    1        9.843822090889     115.939999980321      50.000000000000
      5647    1        6.890675458156     121.054999989262      50.000000000000
      5648    1        9.843822090889     119.349999982637      50.000000000000
      5649    2        0.000000000000     109.119999986624      50.000000000000
      5650    2        2.953146621800     110.824999982315      50.000000000000
      5651    2        0.000000000000     112.529999988940      50.000000000000
      5652    2        2.953146621800     114.234999984630      50.000000000000
      5653    2        0.000000000000     115.939999980321      50.000000000000
      5654    2        2.953146621800     117.644999986946      50.000000000000
      5655    2        0.000000000000     119.349999982637      50.000000000000
      5656    2        2.953146621800     121.054999989262      50.000000000000
      5657    2        5.906293254534     109.119999986624      50.000000000000
      5658    2        8.859439876334     110.824999982315      50.000000000000
      5659    2        5.906293254534     112.529999988940      50.000000000000
      5660    2        8.859439876334     114.234999984630      50.000000000000
      5661    2        5.906293254534     115.939999980321      50.000000000000
      5662    2        8.859439876334     117.644999986946      50.000000000000
      5663    2        5.906293254534     119.349999982637      50.000000000000
      5664    2        8.859439876334     121.054999989262      50.000000000000
      5665    1       12.796968712689     110.824999982315      50.000000000000
      5666    1       15.750115345423     109.119999986624      50.000000000000
      5667    1       12.796968712689     114.234999984630      50.000000000000
      5668    1       15.750115345423     112.529999988940      50.000000000000
      5669    1       12.796968712689     117.644999986946      50.000000000000
      5670    1       15.750115345423     115.939999980321      50.000000000000
      5671    1       12.796968712689     121.054999989262      50.000000000000
      5672    1       15.750115345423     119.349999982637      50.000000000000
      5673    1       18.703261967223     110.824999982315      50.000000000000
      5674    1       21.656408599956     109.119999986624      50.000000000000
      5675    1       18.703261967223     114.234999984630      50.000000000000
      5676    1       21.656408599956     112.529999988940      50.000000000000
      5677    1       18.703261967223     117.644999986946      50.000000000000
      5678    1       21.656408599956     115.939999980321      50.000000000000
      5679    1       18.703261967223     121.054999989262      50.000000000000
      5680    1       21.656408599956     119.349999982637      50.000000000000
      5681    2       11.812586509067     109.119999986624      50.000000000000
      5682    2       14.765733130867     110.824999982315      50.000000000000
      5683    2       11.812586509067     112.529999988940      50.000000000000
      5684    2       14.765733130867     114.234999984630      50.000000000000
      5685    2       11.812586509067     115.939999980321      50.000000000000
      5686    2       14.765733130867     117.644999986946      50.000000000000
      5687    2       11.812586509067     119.349999982637      50.000000000000
      5688    2       14.765733130867     121.054999989262      50.000000000000
      5689    2       17.718879763601     109.119999986624      50.000000000000
      5690    2       20.672026385401     110.824999982315      50.000000000000
      5691    2       17.718879763601     112.529999988940      50.000000000000
      5692    2       20.672026385401     114.234999984630      50.000000000000
      5693    2       17.718879763601     115.939999980321      50.000000000000
      5694    2       20.672026385401     117.644999986946      50.000000000000
      5695    2       17.718879763601     119.349999982637      50.000000000000
      5696    2       20.672026385401     121.054999989262      50.000000000000
      5697    1       24.609555221756     110.824999982315      50.000000000000
      5698    1       27.562701854490     109.119999986624      50.000000000000
      5699    1       24.609555221756     114.234999984630      50.000000000000
      5700    1       27.562701854490     112.529999988940      50.000000000000
      5701    1       24.609555221756     117.644999986946      50.000000000000
      5702    1       27.562701854490     115.939999980321      50.000000000000
      5703    1       24.609555221756     121.054999989262      50.000000000000
      5704    1       27.562701854490     119.349999982637      50.000000000000
      5705    1       30.515848476290     110.824999982315      50.000000000000
      5706    1       33.468995109023     109.119999986624      50.000000000000
      5707    1       30.515848476290     114.234999984630      50.000000000000
      5708    1       33.468995109023     112.529999988940      50.000000000000
      5709    1       30.515848476290     117.644999986946      50.000000000000
      5710    1       33.468995109023     115.939999980321      50.000000000000
      5711    1       30.515848476290     121.054999989262      50.000000000000
      5712    1       33.468995109023     119.349999982637      50.000000000000
      5713    2       23.625173018134     109.119999986624      50.000000000000
      5714    2       26.578319639934     110.824999982315      50.000000000000
      5715    2       23.625173018134     112.529999988940      50.000000000000
      5716    2       26.578319639934     114.234999984630      50.000000000000
      5717    2       23.625173018134     115.939999980321      50.000000000000
      5718    2       26.578319639934     117.644999986946      50.000000000000
      5719    2       23.625173018134     119.349999982637      50.000000000000
      5720    2       26.578319639934     121.054999989262      50.000000000000
      5721    2       29.531466272668     109.119999986624      50.000000000000
      5722    2       32.484612894468     110.824999982315      50.000000000000
      5723    2       29.531466272668     112.529999988940      50.000000000000
      5724    2       32.484612894468     114.234999984630      50.000000000000
      5725    2       29.531466272668     115.939999980321      50.000000000000
      5726    2       32.484612894468     117.644999986946      50.000000000000
      5727    2       29.531466272668     119.349999982637      50.000000000000
      5728    2       32.484612894468     121.054999989262      50.000000000000
      5729    1       36.422141730823     110.824999982315      50.000000000000
      5730    1       39.375288363557     109.119999986624      50.000000000000
      5731    1       36.422141730823     114.234999984630      50.000000000000
      5732    1       39.375288363557     112.529999988940      50.000000000000
      5733    1       36.422141730823     117.644999986946      50.000000000000
      5734    1       39.375288363557     115.939999980321      50.000000000000
      5735    1       36.422141730823     121.054999989262      50.000000000000
      5736    1       39.375288363557     119.349999982637      50.000000000000
      5737    1       42.328434985357     110.824999982315      50.000000000000
      5738    1       45.281581618090     109.119999986624      50.000000000000
      5739    1       42.328434985357     114.234999984630      50.000000000000
      5740    1       45.281581618090     112.529999988940      50.000000000000
      5741    1       42.328434985357     117.644999986946      50.000000000000
      5742    1       45.281581618090     115.939999980321      50.000000000000
      5743    1       42.328434985357     121.054999989262      50.000000000000
      5744    1       45.281581618090     119.349999982637      50.000000000000
      5745    2       35.437759527201     109.119999986624      50.000000000000
      5746    2       38.390906149001     110.824999982315      50.000000000000
      5747    2       35.437759527201     112.529999988940      50.000000000000
      5748    2       38.390906149001     114.234999984630      50.000000000000
      5749    2       35.437759527201     115.939999980321      50.000000000000
      5750    2       38.390906149001     117.644999986946      50.000000000000
      5751    2       35.437759527201     119.349999982637      50.000000000000
      5752    2       38.390906149001     121.054999989262      50.000000000000
      5753    2       41.344052781735     109.119999986624      50.000000000000
      5754    2       44.297199403535     110.824999982315      50.000000000000
      5755    2       41.344052781735     112.529999988940      50.000000000000
      5756    2       44.297199403535     114.234999984630      50.000000000000
      5757    2       41.344052781735     115.939999980321      50.000000000000
      5758    2       44.297199403535     117.644999986946      50.000000000000
      5759    2       41.344052781735     119.349999982637      50.000000000000
      5760    2       44.297199403535     121.054999989262      50.000000000000
      5761    1       48.234728239890     110.824999982315      50.000000000000
      5762    1       51.187874872624     109.119999986624      50.000000000000
      5763    1       48.234728239890     114.234999984630      50.000000000000
      5764    1       51.187874872624     112.529999988940      50.000000000000
      5765    1       48.234728239890     117.644999986946      50.000000000000
      5766    1       51.187874872624     115.939999980321      50.000000000000
      5767    1       48.234728239890     121.054999989262      50.000000000000
      5768    1       51.187874872624     119.349999982637      50.000000000000
      5769    1       54.141021494424     110.824999982315      50.000000000000
      5770    1       57.094168127157     109.119999986624      50.000000000000
      5771    1       54.141021494424     114.234999984630      50.000000000000
      5772    1       57.094168127157     112.529999988940      50.000000000000
      5773    1       54.141021494424     117.644999986946      50.000000000000
      5774    1       57.094168127157     115.939999980321      50.000000000000
      5775    1       54.141021494424     121.054999989262      50.000000000000
      5776    1       57.094168127157     119.349999982637      50.000000000000
      5777    2       47.250346036268     109.119999986624      50.000000000000
      5778    2       50.203492658068     110.824999982315      50.000000000000
      5779    2       47.250346036268     112.529999988940      50.000000000000
      5780    2       50.203492658068     114.234999984630      50.000000000000
      5781    2       47.250346036268     115.939999980321      50.000000000000
      5782    2       50.203492658068     117.644999986946      50.000000000000
      5783    2       47.250346036268     119.349999982637      50.000000000000
      5784    2       50.203492658068     121.054999989262      50.000000000000
      5785    2       53.156639290802     109.119999986624      50.000000000000
      5786    2       56.109785912602     110.824999982315      50.000000000000
      5787    2       53.156639290802     112.529999988940      50.000000000000
      5788    2       56.109785912602     114.234999984630      50.000000000000
      5789    2       53.156639290802     115.939999980321      50.000000000000
      5790    2       56.109785912602     117.644999986946      50.000000000000
      5791    2       53.156639290802     119.349999982637      50.000000000000
      5792    2       56.109785912602     121.054999989262      50.000000000000
      5793    1       60.047314748957     110.824999982315      50.000000000000
      5794    1       63.000461381691     109.119999986624      50.000000000000
      5795    1       60.047314748957     114.234999984630      50.000000000000
      5796    1       63.000461381691     112.529999988940      50.000000000000
      5797    1       60.047314748957     117.644999986946      50.000000000000
      5798    1       63.000461381691     115.939999980321      50.000000000000
      5799    1       60.047314748957     121.054999989262      50.000000000000
      5800    1       63.000461381691     119.349999982637      50.000000000000
      5801    1       65.953608003491     110.824999982315      50.000000000000
      5802    1       68.906754636224     109.119999986624      50.000000000000
      5803    1       65.953608003491     114.234999984630      50.000000000000
      5804    1       68.906754636224     112.529999988940      50.000000000000
      5805    1       65.953608003491     117.644999986946      50.000000000000
      5806    1       68.906754636224     115.939999980321      50.000000000000
      5807    1       65.953608003491     121.054999989262      50.000000000000
      5808    1       68.906754636224     119.349999982637      50.000000000000
      5809    2       59.062932545335     109.119999986624      50.000000000000
      5810    2       62.016079167135     110.824999982315      50.000000000000
      5811    2       59.062932545335     112.529999988940      50.000000000000
      5812    2       62.016079167135     114.234999984630      50.000000000000
      5813    2       59.062932545335     115.939999980321      50.000000000000
      5814    2       62.016079167135     117.644999986946      50.000000000000
      5815    2       59.062932545335     119.349999982637      50.000000000000
      5816    2       62.016079167135     121.054999989262      50.000000000000
      5817    2       64.969225799869     109.119999986624      50.000000000000
      5818    2       67.922372421669     110.824999982315      50.000000000000
      5819    2       64.969225799869     112.529999988940      50.000000000000
      5820    2       67.922372421669     114.234999984630      50.000000000000
      5821    2       64.969225799869     115.939999980321      50.000000000000
      5822    2       67.922372421669     117.644999986946      50.000000000000
      5823    2       64.969225799869     119.349999982637      50.000000000000
      5824    2       67.922372421669     121.054999989262      50.000000000000
      5825    1       71.859901258024     110.824999982315      50.000000000000
      5826    1       74.813047890758     109.119999986624      50.000000000000
      5827    1       71.859901258024     114.234999984630      50.000000000000
      5828    1       74.813047890758     112.529999988940      50.000000000000
      5829    1       71.859901258024     117.644999986946      50.000000000000
      5830    1       74.813047890758     115.939999980321      50.000000000000
      5831    1       71.859901258024     121.054999989262      50.000000000000
      5832    1       74.813047890758     119.349999982637      50.000000000000
      5833    1       77.766194512558     110.824999982315      50.000000000000
      5834    1       80.719341145291     109.119999986624      50.000000000000
      5835    1       77.766194512558     114.234999984630      50.000000000000
      5836    1       80.719341145291     112.529999988940      50.000000000000
      5837    1       77.766194512558     117.644999986946      50.000000000000
      5838    1       80.719341145291     115.939999980321      50.000000000000
      5839    1       77.766194512558     121.054999989262      50.000000000000
      5840    1       80.719341145291     119.349999982637      50.000000000000
      5841    2       70.875519054402     109.119999986624      50.000000000000
      5842    2       73.828665676202     110.824999982315      50.000000000000
      5843    2       70.875519054402     112.529999988940      50.000000000000
      5844    2       73.828665676202     114.234999984630      50.000000000000
      5845    2       70.875519054402     115.939999980321      50.000000000000
      5846    2       73.828665676202     117.644999986946      50.000000000000
      5847    2       70.875519054402     119.349999982637      50.000000000000
      5848    2       73.828665676202     121.054999989262      50.000000000000
      5849    2       76.781812308936     109.119999986624      50.000000000000
      5850    2       79.734958930736     110.824999982315      50.000000000000
      5851    2       76.781812308936     112.529999988940      50.000000000000
      5852    2       79.734958930736     114.234999984630      50.000000000000
      5853    2       76.781812308936     115.939999980321      50.000000000000
      5854    2       79.734958930736     117.644999986946      50.000000000000
      5855    2       76.781812308936     119.349999982637      50.000000000000
      5856    2       79.734958930736     121.054999989262      50.000000000000
      5857    1       83.672487767091     110.824999982315      50.000000000000
      5858    1       86.625634399825     109.119999986624      50.000000000000
      5859    1       83.672487767091     114.234999984630      50.000000000000
      5860    1       86.625634399825     112.529999988940      50.000000000000
      5861    1       83.672487767091     117.644999986946      50.000000000000
      5862    1       86.625634399825     115.939999980321      50.000000000000
      5863    1       83.672487767091     121.054999989262      50.000000000000
      5864    1       86.625634399825     119.349999982637      50.000000000000
      5865    1       89.578781021625     110.824999982315      50.000000000000
      5866    1       92.531927654358     109.119999986624      50.000000000000
      5867    1       89.578781021625     114.234999984630      50.000000000000
      5868    1       92.531927654358     112.529999988940      50.000000000000
      5869    1       89.578781021625     117.644999986946      50.000000000000
      5870    1       92.531927654358     115.939999980321      50.000000000000
      5871    1       89.578781021625     121.054999989262      50.000000000000
      5872    1       92.531927654358     119.349999982637      50.000000000000
      5873    2       82.688105563469     109.119999986624      50.000000000000
      5874    2       85.641252185269     110.824999982315      50.000000000000
      5875    2       82.688105563469     112.529999988940      50.000000000000
      5876    2       85.641252185269     114.234999984630      50.000000000000
      5877    2       82.688105563469     115.939999980321      50.000000000000
      5878    2       85.641252185269     117.644999986946      50.000000000000
      5879    2       82.688105563469     119.349999982637      50.000000000000
      5880    2       85.641252185269     121.054999989262      50.000000000000
      5881    2       88.594398818003     109.119999986624      50.000000000000
      5882    2       91.547545439803     110.824999982315      50.000000000000
      5883    2       88.594398818003     112.529999988940      50.000000000000
      5884    2       91.547545439803     114.234999984630      50.000000000000
      5885    2       88.594398818003     115.939999980321      50.000000000000
      5886    2       91.547545439803     117.644999986946      50.000000000000
      5887    2       88.594398818003     119.349999982637      50.000000000000
      5888    2       91.547545439803     121.054999989262      50.000000000000
      5889    1       95.485074276158     110.824999982315      50.000000000000
      5890    1       98.438220908892     109.119999986624      50.000000000000
      5891    1       95.485074276158     114.234999984630      50.000000000000
      5892    1       98.438220908892     112.529999988940      50.000000000000
      5893    1       95.485074276158     117.644999986946      50.000000000000
      5894    1       98.438220908892     115.939999980321      50.000000000000
      5895    1       95.485074276158     121.054999989262      50.000000000000
      5896    1       98.438220908892     119.349999982637      50.000000000000
      5897    1      101.391367530692     110.824999982315      50.000000000000
      5898    1      104.344514163425     109.119999986624      50.000000000000
      5899    1      101.391367530692     114.234999984630      50.000000000000
      5900    1      104.344514163425     112.529999988940      50.000000000000
      5901    1      101.391367530692     117.644999986946      50.000000000000
      5902    1      104.344514163425     115.939999980321      50.000000000000
      5903    1      101.391367530692     121.054999989262      50.000000000000
      5904    1      104.344514163425     119.349999982637      50.000000000000
      5905    2       94.500692072536     109.119999986624      50.000000000000
      5906    2       97.453838694336     110.824999982315      50.000000000000
      5907    2       94.500692072536     112.529999988940      50.000000000000
      5908    2       97.453838694336     114.234999984630      50.000000000000
      5909    2       94.500692072536     115.939999980321      50.000000000000
      5910    2       97.453838694336     117.644999986946      50.000000000000
      5911    2       94.500692072536     119.349999982637      50.000000000000
      5912    2       97.453838694336     121.054999989262      50.000000000000
      5913    2      100.406985327070     109.119999986624      50.000000000000
      5914    2      103.360131948870     110.824999982315      50.000000000000
      5915    2      100.406985327070     112.529999988940      50.000000000000
      5916    2      103.360131948870     114.234999984630      50.000000000000
      5917    2      100.406985327070     115.939999980321      50.000000000000
      5918    2      103.360131948870     117.644999986946      50.000000000000
      5919    2      100.406985327070     119.349999982637      50.000000000000
      5920    2      103.360131948870     121.054999989262      50.000000000000
      5921    1      107.297660785225     110.824999982315      50.000000000000
      5922    1      110.250807417959     109.119999986624      50.000000000000
      5923    1      107.297660785225     114.234999984630      50.000000000000
      5924    1      110.250807417959     112.529999988940      50.000000000000
      5925    1      107.297660785225     117.644999986946      50.000000000000
      5926    1      110.250807417959     115.939999980321      50.000000000000
      5927    1      107.297660785225     121.054999989262      50.000000000000
      5928    1      110.250807417959     119.349999982637      50.000000000000
      5929    1      113.203954039759     110.824999982315      50.000000000000
      5930    1      116.157100672492     109.119999986624      50.000000000000
      5931    1      113.203954039759     114.234999984630      50.000000000000
      5932    1      116.157100672492     112.529999988940      50.000000000000
      5933    1      113.203954039759     117.644999986946      50.000000000000
      5934    1      116.157100672492     115.939999980321      50.000000000000
      5935    1      113.203954039759     121.054999989262      50.000000000000
      5936    1      116.157100672492     119.349999982637      50.000000000000
      5937    2      106.313278581603     109.119999986624      50.000000000000
      5938    2      109.266425203403     110.824999982315      50.000000000000
      5939    2      106.313278581603     112.529999988940      50.000000000000
      5940    2      109.266425203403     114.234999984630      50.000000000000
      5941    2      106.313278581603     115.939999980321      50.000000000000
      5942    2      109.266425203403     117.644999986946      50.000000000000
      5943    2      106.313278581603     119.349999982637      50.000000000000
      5944    2      109.266425203403     121.054999989262      50.000000000000
      5945    2      112.219571836137     109.119999986624      50.000000000000
      5946    2      115.172718457937     110.824999982315      50.000000000000
      5947    2      112.219571836137     112.529999988940      50.000000000000
      5948    2      115.172718457937     114.234999984630      50.000000000000
      5949    2      112.219571836137     115.939999980321      50.000000000000
      5950    2      115.172718457937     117.644999986946      50.000000000000
      5951    2      112.219571836137     119.349999982637      50.000000000000
      5952    2      115.172718457937     121.054999989262      50.000000000000
      5953    1      119.110247294292     110.824999982315      50.000000000000
      5954    1      122.063393927026     109.119999986624      50.000000000000
      5955    1      119.110247294292     114.234999984630      50.000000000000
      5956    1      122.063393927026     112.529999988940      50.000000000000
      5957    1      119.110247294292     117.644999986946      50.000000000000
      5958    1      122.063393927026     115.939999980321      50.000000000000
      5959    1      119.110247294292     121.054999989262      50.000000000000
      5960    1      122.063393927026     119.349999982637      50.000000000000
      5961    1      125.016540548826     110.824999982315      50.000000000000
      5962    1      127.969687181559     109.119999986624      50.000000000000
      5963    1      125.016540548826     114.234999984630      50.000000000000
      5964    1      127.969687181559     112.529999988940      50.000000000000
      5965    1      125.016540548826     117.644999986946      50.000000000000
      5966    1      127.969687181559     115.939999980321      50.000000000000
      5967    1      125.016540548826     121.054999989262      50.000000000000
      5968    1      127.969687181559     119.349999982637      50.000000000000
      5969    2      118.125865090670     109.119999986624      50.000000000000
      5970    2      121.079011712470     110.824999982315      50.000000000000
      5971    2      118.125865090670     112.529999988940      50.000000000000
      5972    2      121.079011712470     114.234999984630      50.000000000000
      5973    2      118.125865090670     115.939999980321      50.000000000000
      5974    2      121.079011712470     117.644999986946      50.000000000000
      5975    2      118.125865090670     119.349999982637      50.000000000000
      5976    2      121.079011712470     121.054999989262      50.000000000000
      5977    2      124.032158345204     109.119999986624      50.000000000000
      5978    2      126.985304967004     110.824999982315      50.000000000000
      5979    2      124.032158345204     112.529999988940      50.000000000000
      5980    2      126.985304967004     114.234999984630      50.000000000000
      5981    2      124.032158345204     115.939999980321      50.000000000000
      5982    2      126.985304967004     117.644999986946      50.000000000000
      5983    2      124.032158345204     119.349999982637      50.000000000000
      5984    2      126.985304967004     121.054999989262      50.000000000000
      5985    1      130.922833803359     110.824999982315      50.000000000000
      5986    1      133.875980436093     109.119999986624      50.000000000000
      5987    1      130.922833803359     114.234999984630      50.000000000000
      5988    1      133.875980436093     112.529999988940      50.000000000000
      5989    1      130.922833803359     117.644999986946      50.000000000000
      5990    1      133.875980436093     115.939999980321      50.000000000000
      5991    1      130.922833803359     121.054999989262      50.000000000000
      5992    1      133.875980436093     119.349999982637      50.000000000000
      5993    1      136.829127057893     110.824999982315      50.000000000000
      5994    1      139.782273690626     109.119999986624      50.000000000000
      5995    1      136.829127057893     114.234999984630      50.000000000000
      5996    1      139.782273690626     112.529999988940      50.000000000000
      5997    1      136.829127057893     117.644999986946      50.000000000000
      5998    1      139.782273690626     115.939999980321      50.000000000000
      5999    1      136.829127057893     121.054999989262      50.000000000000
      6000    1      139.782273690626     119.349999982637      50.000000000000
      6001    2      129.938451599737     109.119999986624      50.000000000000
      6002    2      132.891598221537     110.824999982315      50.000000000000
      6003    2      129.938451599737     112.529999988940      50.000000000000
      6004    2      132.891598221537     114.234999984630      50.000000000000
      6005    2      129.938451599737     115.939999980321      50.000000000000
      6006    2      132.891598221537     117.644999986946      50.000000000000
      6007    2      129.938451599737     119.349999982637      50.000000000000
      6008    2      132.891598221537     121.054999989262      50.000000000000
      6009    2      135.844744854271     109.119999986624      50.000000000000
      6010    2      138.797891476071     110.824999982315      50.000000000000
      6011    2      135.844744854271     112.529999988940      50.000000000000
      6012    2      138.797891476071     114.234999984630      50.000000000000
      6013    2      135.844744854271     115.939999980321      50.000000000000
      6014    2      138.797891476071     117.644999986946      50.000000000000
      6015    2      135.844744854271     119.349999982637      50.000000000000
      6016    2      138.797891476071     121.054999989262      50.000000000000
      6017    1      142.735420312426     110.824999982315      50.000000000000
      6018    1      145.688566945160     109.119999986624      50.000000000000
      6019    1      142.735420312426     114.234999984630      50.000000000000
      6020    1      145.688566945160     112.529999988940      50.000000000000
      6021    1      142.735420312426     117.644999986946      50.000000000000
      6022    1      145.688566945160     115.939999980321      50.000000000000
      6023    1      142.735420312426     121.054999989262      50.000000000000
      6024    1      145.688566945160     119.349999982637      50.000000000000
      6025    1      148.641713566960     110.824999982315      50.000000000000
      6026    1      151.594860199693     109.119999986624      50.000000000000
      6027    1      148.641713566960     114.234999984630      50.000000000000
      6028    1      151.594860199693     112.529999988940      50.000000000000
      6029    1      148.641713566960     117.644999986946      50.000000000000
      6030    1      151.594860199693     115.939999980321      50.000000000000
      6031    1      148.641713566960     121.054999989262      50.000000000000
      6032    1      151.594860199693     119.349999982637      50.000000000000
      6033    2      141.751038108804     109.119999986624      50.000000000000
      6034    2      144.704184730604     110.824999982315      50.000000000000
      6035    2      141.751038108804     112.529999988940      50.000000000000
      6036    2      144.704184730604     114.234999984630      50.000000000000
      6037    2      141.751038108804     115.939999980321      50.000000000000
      6038    2      144.704184730604     117.644999986946      50.000000000000
      6039    2      141.751038108804     119.349999982637      50.000000000000
      6040    2      144.704184730604     121.054999989262      50.000000000000
      6041    2      147.657331363338     109.119999986624      50.000000000000
      6042    2      150.610477985138     110.824999982315      50.000000000000
      6043    2      147.657331363338     112.529999988940      50.000000000000
      6044    2      150.610477985138     114.234999984630      50.000000000000
      6045    2      147.657331363338     115.939999980321      50.000000000000
      6046    2      150.610477985138     117.644999986946      50.000000000000
      6047    2      147.657331363338     119.349999982637      50.000000000000
      6048    2      150.610477985138     121.054999989262      50.000000000000
      6049    1      154.548006821493     110.824999982315      50.000000000000
      6050    1      157.501153454227     109.119999986624      50.000000000000
      6051    1      154.548006821493     114.234999984630      50.000000000000
      6052    1      157.501153454227     112.529999988940      50.000000000000
      6053    1      154.548006821493     117.644999986946      50.000000000000
      6054    1      157.501153454227     115.939999980321      50.000000000000
      6055    1      154.548006821493     121.054999989262      50.000000000000
      6056    1      157.501153454227     119.349999982637      50.000000000000
      6057    1      160.454300076027     110.824999982315      50.000000000000
      6058    1      163.407446708760     109.119999986624      50.000000000000
      6059    1      160.454300076027     114.234999984630      50.000000000000
      6060    1      163.407446708760     112.529999988940      50.000000000000
      6061    1      160.454300076027     117.644999986946      50.000000000000
      6062    1      163.407446708760     115.939999980321      50.000000000000
      6063    1      160.454300076027     121.054999989262      50.000000000000
      6064    1      163.407446708760     119.349999982637      50.000000000000
      6065    2      153.563624617871     109.119999986624      50.000000000000
      6066    2      156.516771239671     110.824999982315      50.000000000000
      6067    2      153.563624617871     112.529999988940      50.000000000000
      6068    2      156.516771239671     114.234999984630      50.000000000000
      6069    2      153.563624617871     115.939999980321      50.000000000000
      6070    2      156.516771239671     117.644999986946      50.000000000000
      6071    2      153.563624617871     119.349999982637      50.000000000000
      6072    2      156.516771239671     121.054999989262      50.000000000000
      6073    2      159.469917872405     109.119999986624      50.000000000000
      6074    2      162.423064494205     110.824999982315      50.000000000000
      6075    2      159.469917872405     112.529999988940      50.000000000000
      6076    2      162.423064494205     114.234999984630      50.000000000000
      6077    2      159.469917872405     115.939999980321      50.000000000000
      6078    2      162.423064494205     117.644999986946      50.000000000000
      6079    2      159.469917872405     119.349999982637      50.000000000000
      6080    2      162.423064494205     121.054999989262      50.000000000000
      6081    1      166.360593330560     110.824999982315      50.000000000000
      6082    1      169.313739963294     109.119999986624      50.000000000000
      6083    1      166.360593330560     114.234999984630      50.000000000000
      6084    1      169.313739963294     112.529999988940      50.000000000000
      6085    1      166.360593330560     117.644999986946      50.000000000000
      6086    1      169.313739963294     115.939999980321      50.000000000000
      6087    1      166.360593330560     121.054999989262      50.000000000000
      6088    1      169.313739963294     119.349999982637      50.000000000000
      6089    1      172.266886585094     110.824999982315      50.000000000000
      6090    1      175.220033217827     109.119999986624      50.000000000000
      6091    1      172.266886585094     114.234999984630      50.000000000000
      6092    1      175.220033217827     112.529999988940      50.000000000000
      6093    1      172.266886585094     117.644999986946      50.000000000000
      6094    1      175.220033217827     115.939999980321      50.000000000000
      6095    1      172.266886585094     121.054999989262      50.000000000000
      6096    1      175.220033217827     119.349999982637      50.000000000000
      6097    2      165.376211126938     109.119999986624      50.000000000000
      6098    2      168.329357748738     110.824999982315      50.000000000000
      6099    2      165.376211126938     112.529999988940      50.000000000000
      6100    2      168.329357748738     114.234999984630      50.000000000000
      6101    2      165.376211126938     115.939999980321      50.000000000000
      6102    2      168.329357748738     117.644999986946      50.000000000000
      6103    2      165.376211126938     119.349999982637      50.000000000000
      6104    2      168.329357748738     121.054999989262      50.000000000000
      6105    2      171.282504381472     109.119999986624      50.000000000000
      6106    2      174.235651003272     110.824999982315      50.000000000000
      6107    2      171.282504381472     112.529999988940      50.000000000000
      6108    2      174.235651003272     114.234999984630      50.000000000000
      6109    2      171.282504381472     115.939999980321      50.000000000000
      6110    2      174.235651003272     117.644999986946      50.000000000000
      6111    2      171.282504381472     119.349999982637      50.000000000000
      6112    2      174.235651003272     121.054999989262      50.000000000000
      6113    1      178.173179839627     110.824999982315      50.000000000000
      6114    1      181.126326472361     109.119999986624      50.000000000000
      6115    1      178.173179839627     114.234999984630      50.000000000000
      6116    1      181.126326472361     112.529999988940      50.000000000000
      6117    1      178.173179839627     117.644999986946      50.000000000000
      6118    1      181.126326472361     115.939999980321      50.000000000000
      6119    1      178.173179839627     121.054999989262      50.000000000000
      6120    1      181.126326472361     119.349999982637      50.000000000000
      6121    1      184.079473094161     110.824999982315      50.000000000000
      6122    1      187.032619726894     109.119999986624      50.000000000000
      6123    1      184.079473094161     114.234999984630      50.000000000000
      6124    1      187.032619726894     112.529999988940      50.000000000000
      6125    1      184.079473094161     117.644999986946      50.000000000000
      6126    1      187.032619726894     115.939999980321      50.000000000000
      6127    1      184.079473094161     121.054999989262      50.000000000000
      6128    1      187.032619726894     119.349999982637      50.000000000000
      6129    2      177.188797636005     109.119999986624      50.000000000000
      6130    2      180.141944257805     110.824999982315      50.000000000000
      6131    2      177.188797636005     112.529999988940      50.000000000000
      6132    2      180.141944257805     114.234999984630      50.000000000000
      6133    2      177.188797636005     115.939999980321      50.000000000000
      6134    2      180.141944257805     117.644999986946      50.000000000000
      6135    2      177.188797636005     119.349999982637      50.000000000000
      6136    2      180.141944257805     121.054999989262      50.000000000000
      6137    2      183.095090890539     109.119999986624      50.000000000000
      6138    2      186.048237512339     110.824999982315      50.000000000000
      6139    2      183.095090890539     112.529999988940      50.000000000000
      6140    2      186.048237512339     114.234999984630      50.000000000000
      6141    2      183.095090890539     115.939999980321      50.000000000000
      6142    2      186.048237512339     117.644999986946      50.000000000000
      6143    2      183.095090890539     119.349999982637      50.000000000000
      6144    2      186.048237512339     121.054999989262      50.000000000000
      6145    1      189.985766348694     110.824999982315      50.000000000000
      6146    1      192.938912981428     109.119999986624      50.000000000000
      6147    1      189.985766348694     114.234999984630      50.000000000000
      6148    1      192.938912981428     112.529999988940      50.000000000000
      6149    1      189.985766348694     117.644999986946      50.000000000000
      6150    1      192.938912981428     115.939999980321      50.000000000000
      6151    1      189.985766348694     121.054999989262      50.000000000000
      6152    1      192.938912981428     119.349999982637      50.000000000000
      6153    1      195.892059603228     110.824999982315      50.000000000000
      6154    1      198.845206235961     109.119999986624      50.000000000000
      6155    1      195.892059603228     114.234999984630      50.000000000000
      6156    1      198.845206235961     112.529999988940      50.000000000000
      6157    1      195.892059603228     117.644999986946      50.000000000000
      6158    1      198.845206235961     115.939999980321      50.000000000000
      6159    1      195.892059603228     121.054999989262      50.000000000000
      6160    1      198.845206235961     119.349999982637      50.000000000000
      6161    2      189.001384145072     109.119999986624      50.000000000000
      6162    2      191.954530766872     110.824999982315      50.000000000000
      6163    2      189.001384145072     112.529999988940      50.000000000000
      6164    2      191.954530766872     114.234999984630      50.000000000000
      6165    2      189.001384145072     115.939999980321      50.000000000000
      6166    2      191.954530766872     117.644999986946      50.000000000000
      6167    2      189.001384145072     119.349999982637      50.000000000000
      6168    2      191.954530766872     121.054999989262      50.000000000000
      6169    2      194.907677399606     109.119999986624      50.000000000000
      6170    2      197.860824021406     110.824999982315      50.000000000000
      6171    2      194.907677399606     112.529999988940      50.000000000000
      6172    2      197.860824021406     114.234999984630      50.000000000000
      6173    2      194.907677399606     115.939999980321      50.000000000000
      6174    2      197.860824021406     117.644999986946      50.000000000000
      6175    2      194.907677399606     119.349999982637      50.000000000000
      6176    2      197.860824021406     121.054999989262      50.000000000000
      6177    1      201.798352857761     110.824999982315      50.000000000000
      6178    1      204.751499490495     109.119999986624      50.000000000000
      6179    1      201.798352857761     114.234999984630      50.000000000000
      6180    1      204.751499490495     112.529999988940      50.000000000000
      6181    1      201.798352857761     117.644999986946      50.000000000000
      6182    1      204.751499490495     115.939999980321      50.000000000000
      6183    1      201.798352857761     121.054999989262      50.000000000000
      6184    1      204.751499490495     119.349999982637      50.000000000000
      6185    1      207.704646112295     110.824999982315      50.000000000000
      6186    1      210.657792745028     109.119999986624      50.000000000000
      6187    1      207.704646112295     114.234999984630      50.000000000000
      6188    1      210.657792745028     112.529999988940      50.000000000000
      6189    1      207.704646112295     117.644999986946      50.000000000000
      6190    1      210.657792745028     115.939999980321      50.000000000000
      6191    1      207.704646112295     121.054999989262      50.000000000000
      6192    1      210.657792745028     119.349999982637      50.000000000000
      6193    2      200.813970654139     109.119999986624      50.000000000000
      6194    2      203.767117275939     110.824999982315      50.000000000000
      6195    2      200.813970654139     112.529999988940      50.000000000000
      6196    2      203.767117275939     114.234999984630      50.000000000000
      6197    2      200.813970654139     115.939999980321      50.000000000000
      6198    2      203.767117275939     117.644999986946      50.000000000000
      6199    2      200.813970654139     119.349999982637      50.000000000000
      6200    2      203.767117275939     121.054999989262      50.000000000000
      6201    2      206.720263908673     109.119999986624      50.000000000000
      6202    2      209.673410530473     110.824999982315      50.000000000000
      6203    2      206.720263908673     112.529999988940      50.000000000000
      6204    2      209.673410530473     114.234999984630      50.000000000000
      6205    2      206.720263908673     115.939999980321      50.000000000000
      6206    2      209.673410530473     117.644999986946      50.000000000000
      6207    2      206.720263908673     119.349999982637      50.000000000000
      6208    2      209.673410530473     121.054999989262      50.000000000000
      6209    1      213.610939366828     110.824999982315      50.000000000000
      6210    1      216.564085999562     109.119999986624      50.000000000000
      6211    1      213.610939366828     114.234999984630      50.000000000000
      6212    1      216.564085999562     112.529999988940      50.000000000000
      6213    1      213.610939366828     117.644999986946      50.000000000000
      6214    1      216.564085999562     115.939999980321      50.000000000000
      6215    1      213.610939366828     121.054999989262      50.000000000000
      6216    1      216.564085999562     119.349999982637      50.000000000000
      6217    1      219.517232621362     110.824999982315      50.000000000000
      6218    1      222.470379254095     109.119999986624      50.000000000000
      6219    1      219.517232621362     114.234999984630      50.000000000000
      6220    1      222.470379254095     112.529999988940      50.000000000000
      6221    1      219.517232621362     117.644999986946      50.000000000000
      6222    1      222.470379254095     115.939999980321      50.000000000000
      6223    1      219.517232621362     121.054999989262      50.000000000000
      6224    1      222.470379254095     119.349999982637      50.000000000000
      6225    2      212.626557163206     109.119999986624      50.000000000000
      6226    2      215.579703785006     110.824999982315      50.000000000000
      6227    2      212.626557163206     112.529999988940      50.000000000000
      6228    2      215.579703785006     114.234999984630      50.000000000000
      6229    2      212.626557163206     115.939999980321      50.000000000000
      6230    2      215.579703785006     117.644999986946      50.000000000000
      6231    2      212.626557163206     119.349999982637      50.000000000000
      6232    2      215.579703785006     121.054999989262      50.000000000000
      6233    2      218.532850417740     109.119999986624      50.000000000000
      6234    2      221.485997039540     110.824999982315      50.000000000000
      6235    2      218.532850417740     112.529999988940      50.000000000000
      6236    2      221.485997039540     114.234999984630      50.000000000000
      6237    2      218.532850417740     115.939999980321      50.000000000000
      6238    2      221.485997039540     117.644999986946      50.000000000000
      6239    2      218.532850417740     119.349999982637      50.000000000000
      6240    2      221.485997039540     121.054999989262      50.000000000000
      6241    1      225.423525875895     110.824999982315      50.000000000000
      6242    1      228.376672508629     109.119999986624      50.000000000000
      6243    1      225.423525875895     114.234999984630      50.000000000000
      6244    1      228.376672508629     112.529999988940      50.000000000000
      6245    1      225.423525875895     117.644999986946      50.000000000000
      6246    1      228.376672508629     115.939999980321      50.000000000000
      6247    1      225.423525875895     121.054999989262      50.000000000000
      6248    1      228.376672508629     119.349999982637      50.000000000000
      6249    1      231.329819130429     110.824999982315      50.000000000000
      6250    1      234.282965763162     109.119999986624      50.000000000000
      6251    1      231.329819130429     114.234999984630      50.000000000000
      6252    1      234.282965763162     112.529999988940      50.000000000000
      6253    1      231.329819130429     117.644999986946      50.000000000000
      6254    1      234.282965763162     115.939999980321      50.000000000000
      6255    1      231.329819130429     121.054999989262      50.000000000000
      6256    1      234.282965763162     119.349999982637      50.000000000000
      6257    2      224.439143672273     109.119999986624      50.000000000000
      6258    2      227.392290294073     110.824999982315      50.000000000000
      6259    2      224.439143672273     112.529999988940      50.000000000000
      6260    2      227.392290294073     114.234999984630      50.000000000000
      6261    2      224.439143672273     115.939999980321      50.000000000000
      6262    2      227.392290294073     117.644999986946      50.000000000000
      6263    2      224.439143672273     119.349999982637      50.000000000000
      6264    2      227.392290294073     121.054999989262      50.000000000000
      6265    2      230.345436926807     109.119999986624      50.000000000000
      6266    2      233.298583548607     110.824999982315      50.000000000000
      6267    2      230.345436926807     112.529999988940      50.000000000000
      6268    2      233.298583548607     114.234999984630      50.000000000000
      6269    2      230.345436926807     115.939999980321      50.000000000000
      6270    2      233.298583548607     117.644999986946      50.000000000000
      6271    2      230.345436926807     119.349999982637      50.000000000000
      6272    2      233.298583548607     121.054999989262      50.000000000000
      6273    1      237.236112384962     110.824999982315      50.000000000000
      6274    1      240.189259017696     109.119999986624      50.000000000000
      6275    1      237.236112384962     114.234999984630      50.000000000000
      6276    1      240.189259017696     112.529999988940      50.000000000000
      6277    1      237.236112384962     117.644999986946      50.000000000000
      6278    1      240.189259017696     115.939999980321      50.000000000000
      6279    1      237.236112384962     121.054999989262      50.000000000000
      6280    1      240.189259017696     119.349999982637      50.000000000000
      6281    1      243.142405639496     110.824999982315      50.000000000000
      6282    1      246.095552272229     109.119999986624      50.000000000000
      6283    1      243.142405639496     114.234999984630      50.000000000000
      6284    1      246.095552272229     112.529999988940      50.000000000000
      6285    1      243.142405639496     117.644999986946      50.000000000000
      6286    1      246.095552272229     115.939999980321      50.000000000000
      6287    1      243.142405639496     121.054999989262      50.000000000000
      6288    1      246.095552272229     119.349999982637      50.000000000000
      6289    2      236.251730181340     109.119999986624      50.000000000000
      6290    2      239.204876803140     110.824999982315      50.000000000000
      6291    2      236.251730181340     112.529999988940      50.000000000000
      6292    2      239.204876803140     114.234999984630      50.000000000000
      6293    2      236.251730181340     115.939999980321      50.000000000000
      6294    2      239.204876803140     117.644999986946      50.000000000000
      6295    2      236.251730181340     119.349999982637      50.000000000000
      6296    2      239.204876803140     121.054999989262      50.000000000000
      6297    2      242.158023435874     109.119999986624      50.000000000000
      6298    2      245.111170057674     110.824999982315      50.000000000000
      6299    2      242.158023435874     112.529999988940      50.000000000000
      6300    2      245.111170057674     114.234999984630      50.000000000000
      6301    2      242.158023435874     115.939999980321      50.000000000000
      6302    2      245.111170057674     117.644999986946      50.000000000000
      6303    2      242.158023435874     119.349999982637      50.000000000000
      6304    2      245.111170057674     121.054999989262      50.000000000000
      6305    1      249.048698894029     110.824999982315      50.000000000000
      6306    1      252.001845526763     109.119999986624      50.000000000000
      6307    1      249.048698894029     114.234999984630      50.000000000000
      6308    1      252.001845526763     112.529999988940      50.000000000000
      6309    1      249.048698894029     117.644999986946      50.000000000000
      6310    1      252.001845526763     115.939999980321      50.000000000000
      6311    1      249.048698894029     121.054999989262      50.000000000000
      6312    1      252.001845526763     119.349999982637      50.000000000000
      6313    1      254.954992148563     110.824999982315      50.000000000000
      6314    1      257.908138781296     109.119999986624      50.000000000000
      6315    1      254.954992148563     114.234999984630      50.000000000000
      6316    1      257.908138781296     112.529999988940      50.000000000000
      6317    1      254.954992148563     117.644999986946      50.000000000000
      6318    1      257.908138781296     115.939999980321      50.000000000000
      6319    1      254.954992148563     121.054999989262      50.000000000000
      6320    1      257.908138781296     119.349999982637      50.000000000000
      6321    2      248.064316690407     109.119999986624      50.000000000000
      6322    2      251.017463312207     110.824999982315      50.000000000000
      6323    2      248.064316690407     112.529999988940      50.000000000000
      6324    2      251.017463312207     114.234999984630      50.000000000000
      6325    2      248.064316690407     115.939999980321      50.000000000000
      6326    2      251.017463312207     117.644999986946      50.000000000000
      6327    2      248.064316690407     119.349999982637      50.000000000000
      6328    2      251.017463312207     121.054999989262      50.000000000000
      6329    2      253.970609944941     109.119999986624      50.000000000000
      6330    2      256.923756566741     110.824999982315      50.000000000000
      6331    2      253.970609944941     112.529999988940      50.000000000000
      6332    2      256.923756566741     114.234999984630      50.000000000000
      6333    2      253.970609944941     115.939999980321      50.000000000000
      6334    2      256.923756566741     117.644999986946      50.000000000000
      6335    2      253.970609944941     119.349999982637      50.000000000000
      6336    2      256.923756566741     121.054999989262      50.000000000000
      6337    1        0.984382203622     124.464999980643      50.000000000000
      6338    1        3.937528836356     122.759999984952      50.000000000000
      6339    1        0.984382203622     127.874999982958      50.000000000000
      6340    1        3.937528836356     126.169999987268      50.000000000000
      6341    1        0.984382203622     131.284999985274      50.000000000000
      6342    1        3.937528836356     129.579999978649      50.000000000000
      6343    1        0.984382203622     134.694999987590      50.000000000000
      6344    1        3.937528836356     132.989999980965      50.000000000000
      6345    1        6.890675458156     124.464999980643      50.000000000000
      6346    1        9.843822090889     122.759999984952      50.000000000000
      6347    1        6.890675458156     127.874999982958      50.000000000000
      6348    1        9.843822090889     126.169999987268      50.000000000000
      6349    1        6.890675458156     131.284999985274      50.000000000000
      6350    1        9.843822090889     129.579999978649      50.000000000000
      6351    1        6.890675458156     134.694999987590      50.000000000000
      6352    1        9.843822090889     132.989999980965      50.000000000000
      6353    2        0.000000000000     122.759999984952      50.000000000000
      6354    2        2.953146621800     124.464999980643      50.000000000000
      6355    2        0.000000000000     126.169999987268      50.000000000000
      6356    2        2.953146621800     127.874999982958      50.000000000000
      6357    2        0.000000000000     129.579999978649      50.000000000000
      6358    2        2.953146621800     131.284999985274      50.000000000000
      6359    2        0.000000000000     132.989999980965      50.000000000000
      6360    2        2.953146621800     134.694999987590      50.000000000000
      6361    2        5.906293254534     122.759999984952      50.000000000000
      6362    2        8.859439876334     124.464999980643      50.000000000000
      6363    2        5.906293254534     126.169999987268      50.000000000000
      6364    2        8.859439876334     127.874999982958      50.000000000000
      6365    2        5.906293254534     129.579999978649      50.000000000000
      6366    2        8.859439876334     131.284999985274      50.000000000000
      6367    2        5.906293254534     132.989999980965      50.000000000000
      6368    2        8.859439876334     134.694999987590      50.000000000000
      6369    1       12.796968712689     124.464999980643      50.000000000000
      6370    1       15.750115345423     122.759999984952      50.000000000000
      6371    1       12.796968712689     127.874999982958      50.000000000000
      6372    1       15.750115345423     126.169999987268      50.000000000000
      6373    1       12.796968712689     131.284999985274      50.000000000000
      6374    1       15.750115345423     129.579999978649      50.000000000000
      6375    1       12.796968712689     134.694999987590      50.000000000000
      6376    1       15.750115345423     132.989999980965      50.000000000000
      6377    1       18.703261967223     124.464999980643      50.000000000000
      6378    1       21.656408599956     122.759999984952      50.000000000000
      6379    1       18.703261967223     127.874999982958      50.000000000000
      6380    1       21.656408599956     126.169999987268      50.000000000000
      6381    1       18.703261967223     131.284999985274      50.000000000000
      6382    1       21.656408599956     129.579999978649      50.000000000000
      6383    1       18.703261967223     134.694999987590      50.000000000000
      6384    1       21.656408599956     132.989999980965      50.000000000000
      6385    2       11.812586509067     122.759999984952      50.000000000000
      6386    2       14.765733130867     124.464999980643      50.000000000000
      6387    2       11.812586509067     126.169999987268      50.000000000000
      6388    2       14.765733130867     127.874999982958      50.000000000000
      6389    2       11.812586509067     129.579999978649      50.000000000000
      6390    2       14.765733130867     131.284999985274      50.000000000000
      6391    2       11.812586509067     132.989999980965      50.000000000000
      6392    2       14.765733130867     134.694999987590      50.000000000000
      6393    2       17.718879763601     122.759999984952      50.000000000000
      6394    2       20.672026385401     124.464999980643      50.000000000000
      6395    2       17.718879763601     126.169999987268      50.000000000000
      6396    2       20.672026385401     127.874999982958      50.000000000000
      6397    2       17.718879763601     129.579999978649      50.000000000000
      6398    2       20.672026385401     131.284999985274      50.000000000000
      6399    2       17.718879763601     132.989999980965      50.000000000000
      6400    2       20.672026385401     134.694999987590      50.000000000000
      6401    1       24.609555221756     124.464999980643      50.000000000000
      6402    1       27.562701854490     122.759999984952      50.000000000000
      6403    1       24.609555221756     127.874999982958      50.000000000000
      6404    1       27.562701854490     126.169999987268      50.000000000000
      6405    1       24.609555221756     131.284999985274      50.000000000000
      6406    1       27.562701854490     129.579999978649      50.000000000000
      6407    1       24.609555221756     134.694999987590      50.000000000000
      6408    1       27.562701854490     132.989999980965      50.000000000000
      6409    1       30.515848476290     124.464999980643      50.000000000000
      6410    1       33.468995109023     122.759999984952      50.000000000000
      6411    1       30.515848476290     127.874999982958      50.000000000000
      6412    1       33.468995109023     126.169999987268      50.000000000000
      6413    1       30.515848476290     131.284999985274      50.000000000000
      6414    1       33.468995109023     129.579999978649      50.000000000000
      6415    1       30.515848476290     134.694999987590      50.000000000000
      6416    1       33.468995109023     132.989999980965      50.000000000000
      6417    2       23.625173018134     122.759999984952      50.000000000000
      6418    2       26.578319639934     124.464999980643      50.000000000000
      6419    2       23.625173018134     126.169999987268      50.000000000000
      6420    2       26.578319639934     127.874999982958      50.000000000000
      6421    2       23.625173018134     129.579999978649      50.000000000000
      6422    2       26.578319639934     131.284999985274      50.000000000000
      6423    2       23.625173018134     132.989999980965      50.000000000000
      6424    2       26.578319639934     134.694999987590      50.000000000000
      6425    2       29.531466272668     122.759999984952      50.000000000000
      6426    2       32.484612894468     124.464999980643      50.000000000000
      6427    2       29.531466272668     126.169999987268      50.000000000000
      6428    2       32.484612894468     127.874999982958      50.000000000000
      6429    2       29.531466272668     129.579999978649      50.000000000000
      6430    2       32.484612894468     131.284999985274      50.000000000000
      6431    2       29.531466272668     132.989999980965      50.000000000000
      6432    2       32.484612894468     134.694999987590      50.000000000000
      6433    1       36.422141730823     124.464999980643      50.000000000000
      6434    1       39.375288363557     122.759999984952      50.000000000000
      6435    1       36.422141730823     127.874999982958      50.000000000000
      6436    1       39.375288363557     126.169999987268      50.000000000000
      6437    1       36.422141730823     131.284999985274      50.000000000000
      6438    1       39.375288363557     129.579999978649      50.000000000000
      6439    1       36.422141730823     134.694999987590      50.000000000000
      6440    1       39.375288363557     132.989999980965      50.000000000000
      6441    1       42.328434985357     124.464999980643      50.000000000000
      6442    1       45.281581618090     122.759999984952      50.000000000000
      6443    1       42.328434985357     127.874999982958      50.000000000000
      6444    1       45.281581618090     126.169999987268      50.000000000000
      6445    1       42.328434985357     131.284999985274      50.000000000000
      6446    1       45.281581618090     129.579999978649      50.000000000000
      6447    1       42.328434985357     134.694999987590      50.000000000000
      6448    1       45.281581618090     132.989999980965      50.000000000000
      6449    2       35.437759527201     122.759999984952      50.000000000000
      6450    2       38.390906149001     124.464999980643      50.000000000000
      6451    2       35.437759527201     126.169999987268      50.000000000000
      6452    2       38.390906149001     127.874999982958      50.000000000000
      6453    2       35.437759527201     129.579999978649      50.000000000000
      6454    2       38.390906149001     131.284999985274      50.000000000000
      6455    2       35.437759527201     132.989999980965      50.000000000000
      6456    2       38.390906149001     134.694999987590      50.000000000000
      6457    2       41.344052781735     122.759999984952      50.000000000000
      6458    2       44.297199403535     124.464999980643      50.000000000000
      6459    2       41.344052781735     126.169999987268      50.000000000000
      6460    2       44.297199403535     127.874999982958      50.000000000000
      6461    2       41.344052781735     129.579999978649      50.000000000000
      6462    2       44.297199403535     131.284999985274      50.000000000000
      6463    2       41.344052781735     132.989999980965      50.000000000000
      6464    2       44.297199403535     134.694999987590      50.000000000000
      6465    1       48.234728239890     124.464999980643      50.000000000000
      6466    1       51.187874872624     122.759999984952      50.000000000000
      6467    1       48.234728239890     127.874999982958      50.000000000000
      6468    1       51.187874872624     126.169999987268      50.000000000000
      6469    1       48.234728239890     131.284999985274      50.000000000000
      6470    1       51.187874872624     129.579999978649      50.000000000000
      6471    1       48.234728239890     134.694999987590      50.000000000000
      6472    1       51.187874872624     132.989999980965      50.000000000000
      6473    1       54.141021494424     124.464999980643      50.000000000000
      6474    1       57.094168127157     122.759999984952      50.000000000000
      6475    1       54.141021494424     127.874999982958      50.000000000000
      6476    1       57.094168127157     126.169999987268      50.000000000000
      6477    1       54.141021494424     131.284999985274      50.000000000000
      6478    1       57.094168127157     129.579999978649      50.000000000000
      6479    1       54.141021494424     134.694999987590      50.000000000000
      6480    1       57.094168127157     132.989999980965      50.000000000000
      6481    2       47.250346036268     122.759999984952      50.000000000000
      6482    2       50.203492658068     124.464999980643      50.000000000000
      6483    2       47.250346036268     126.169999987268      50.000000000000
      6484    2       50.203492658068     127.874999982958      50.000000000000
      6485    2       47.250346036268     129.579999978649      50.000000000000
      6486    2       50.203492658068     131.284999985274      50.000000000000
      6487    2       47.250346036268     132.989999980965      50.000000000000
      6488    2       50.203492658068     134.694999987590      50.000000000000
      6489    2       53.156639290802     122.759999984952      50.000000000000
      6490    2       56.109785912602     124.464999980643      50.000000000000
      6491    2       53.156639290802     126.169999987268      50.000000000000
      6492    2       56.109785912602     127.874999982958      50.000000000000
      6493    2       53.156639290802     129.579999978649      50.000000000000
      6494    2       56.109785912602     131.284999985274      50.000000000000
      6495    2       53.156639290802     132.989999980965      50.000000000000
      6496    2       56.109785912602     134.694999987590      50.000000000000
      6497    1       60.047314748957     124.464999980643      50.000000000000
      6498    1       63.000461381691     122.759999984952      50.000000000000
      6499    1       60.047314748957     127.874999982958      50.000000000000
      6500    1       63.000461381691     126.169999987268      50.000000000000
      6501    1       60.047314748957     131.284999985274      50.000000000000
      6502    1       63.000461381691     129.579999978649      50.000000000000
      6503    1       60.047314748957     134.694999987590      50.000000000000
      6504    1       63.000461381691     132.989999980965      50.000000000000
      6505    1       65.953608003491     124.464999980643      50.000000000000
      6506    1       68.906754636224     122.759999984952      50.000000000000
      6507    1       65.953608003491     127.874999982958      50.000000000000
      6508    1       68.906754636224     126.169999987268      50.000000000000
      6509    1       65.953608003491     131.284999985274      50.000000000000
      6510    1       68.906754636224     129.579999978649      50.000000000000
      6511    1       65.953608003491     134.694999987590      50.000000000000
      6512    1       68.906754636224     132.989999980965      50.000000000000
      6513    2       59.062932545335     122.759999984952      50.000000000000
      6514    2       62.016079167135     124.464999980643      50.000000000000
      6515    2       59.062932545335     126.169999987268      50.000000000000
      6516    2       62.016079167135     127.874999982958      50.000000000000
      6517    2       59.062932545335     129.579999978649      50.000000000000
      6518    2       62.016079167135     131.284999985274      50.000000000000
      6519    2       59.062932545335     132.989999980965      50.000000000000
      6520    2       62.016079167135     134.694999987590      50.000000000000
      6521    2       64.969225799869     122.759999984952      50.000000000000
      6522    2       67.922372421669     124.464999980643      50.000000000000
      6523    2       64.969225799869     126.169999987268      50.000000000000
      6524    2       67.922372421669     127.874999982958      50.000000000000
      6525    2       64.969225799869     129.579999978649      50.000000000000
      6526    2       67.922372421669     131.284999985274      50.000000000000
      6527    2       64.969225799869     132.989999980965      50.000000000000
      6528    2       67.922372421669     134.694999987590      50.000000000000
      6529    1       71.859901258024     124.464999980643      50.000000000000
      6530    1       74.813047890758     122.759999984952      50.000000000000
      6531    1       71.859901258024     127.874999982958      50.000000000000
      6532    1       74.813047890758     126.169999987268      50.000000000000
      6533    1       71.859901258024     131.284999985274      50.000000000000
      6534    1       74.813047890758     129.579999978649      50.000000000000
      6535    1       71.859901258024     134.694999987590      50.000000000000
      6536    1       74.813047890758     132.989999980965      50.000000000000
      6537    1       77.766194512558     124.464999980643      50.000000000000
      6538    1       80.719341145291     122.759999984952      50.000000000000
      6539    1       77.766194512558     127.874999982958      50.000000000000
      6540    1       80.719341145291     126.169999987268      50.000000000000
      6541    1       77.766194512558     131.284999985274      50.000000000000
      6542    1       80.719341145291     129.579999978649      50.000000000000
      6543    1       77.766194512558     134.694999987590      50.000000000000
      6544    1       80.719341145291     132.989999980965      50.000000000000
      6545    2       70.875519054402     122.759999984952      50.000000000000
      6546    2       73.828665676202     124.464999980643      50.000000000000
      6547    2       70.875519054402     126.169999987268      50.000000000000
      6548    2       73.828665676202     127.874999982958      50.000000000000
      6549    2       70.875519054402     129.579999978649      50.000000000000
      6550    2       73.828665676202     131.284999985274      50.000000000000
      6551    2       70.875519054402     132.989999980965      50.000000000000
      6552    2       73.828665676202     134.694999987590      50.000000000000
      6553    2       76.781812308936     122.759999984952      50.000000000000
      6554    2       79.734958930736     124.464999980643      50.000000000000
      6555    2       76.781812308936     126.169999987268      50.000000000000
      6556    2       79.734958930736     127.874999982958      50.000000000000
      6557    2       76.781812308936     129.579999978649      50.000000000000
      6558    2       79.734958930736     131.284999985274      50.000000000000
      6559    2       76.781812308936     132.989999980965      50.000000000000
      6560    2       79.734958930736     134.694999987590      50.000000000000
      6561    1       83.672487767091     124.464999980643      50.000000000000
      6562    1       86.625634399825     122.759999984952      50.000000000000
      6563    1       83.672487767091     127.874999982958      50.000000000000
      6564    1       86.625634399825     126.169999987268      50.000000000000
      6565    1       83.672487767091     131.284999985274      50.000000000000
      6566    1       86.625634399825     129.579999978649      50.000000000000
      6567    1       83.672487767091     134.694999987590      50.000000000000
      6568    1       86.625634399825     132.989999980965      50.000000000000
      6569    1       89.578781021625     124.464999980643      50.000000000000
      6570    1       92.531927654358     122.759999984952      50.000000000000
      6571    1       89.578781021625     127.874999982958      50.000000000000
      6572    1       92.531927654358     126.169999987268      50.000000000000
      6573    1       89.578781021625     131.284999985274      50.000000000000
      6574    1       92.531927654358     129.579999978649      50.000000000000
      6575    1       89.578781021625     134.694999987590      50.000000000000
      6576    1       92.531927654358     132.989999980965      50.000000000000
      6577    2       82.688105563469     122.759999984952      50.000000000000
      6578    2       85.641252185269     124.464999980643      50.000000000000
      6579    2       82.688105563469     126.169999987268      50.000000000000
      6580    2       85.641252185269     127.874999982958      50.000000000000
      6581    2       82.688105563469     129.579999978649      50.000000000000
      6582    2       85.641252185269     131.284999985274      50.000000000000
      6583    2       82.688105563469     132.989999980965      50.000000000000
      6584    2       85.641252185269     134.694999987590      50.000000000000
      6585    2       88.594398818003     122.759999984952      50.000000000000
      6586    2       91.547545439803     124.464999980643      50.000000000000
      6587    2       88.594398818003     126.169999987268      50.000000000000
      6588    2       91.547545439803     127.874999982958      50.000000000000
      6589    2       88.594398818003     129.579999978649      50.000000000000
      6590    2       91.547545439803     131.284999985274      50.000000000000
      6591    2       88.594398818003     132.989999980965      50.000000000000
      6592    2       91.547545439803     134.694999987590      50.000000000000
      6593    1       95.485074276158     124.464999980643      50.000000000000
      6594    1       98.438220908892     122.759999984952      50.000000000000
      6595    1       95.485074276158     127.874999982958      50.000000000000
      6596    1       98.438220908892     126.169999987268      50.000000000000
      6597    1       95.485074276158     131.284999985274      50.000000000000
      6598    1       98.438220908892     129.579999978649      50.000000000000
      6599    1       95.485074276158     134.694999987590      50.000000000000
      6600    1       98.438220908892     132.989999980965      50.000000000000
      6601    1      101.391367530692     124.464999980643      50.000000000000
      6602    1      104.344514163425     122.759999984952      50.000000000000
      6603    1      101.391367530692     127.874999982958      50.000000000000
      6604    1      104.344514163425     126.169999987268      50.000000000000
      6605    1      101.391367530692     131.284999985274      50.000000000000
      6606    1      104.344514163425     129.579999978649      50.000000000000
      6607    1      101.391367530692     134.694999987590      50.000000000000
      6608    1      104.344514163425     132.989999980965      50.000000000000
      6609    2       94.500692072536     122.759999984952      50.000000000000
      6610    2       97.453838694336     124.464999980643      50.000000000000
      6611    2       94.500692072536     126.169999987268      50.000000000000
      6612    2       97.453838694336     127.874999982958      50.000000000000
      6613    2       94.500692072536     129.579999978649      50.000000000000
      6614    2       97.453838694336     131.284999985274      50.000000000000
      6615    2       94.500692072536     132.989999980965      50.000000000000
      6616    2       97.453838694336     134.694999987590      50.000000000000
      6617    2      100.406985327070     122.759999984952      50.000000000000
      6618    2      103.360131948870     124.464999980643      50.000000000000
      6619    2      100.406985327070     126.169999987268      50.000000000000
      6620    2      103.360131948870     127.874999982958      50.000000000000
      6621    2      100.406985327070     129.579999978649      50.000000000000
      6622    2      103.360131948870     131.284999985274      50.000000000000
      6623    2      100.406985327070     132.989999980965      50.000000000000
      6624    2      103.360131948870     134.694999987590      50.000000000000
      6625    1      107.297660785225     124.464999980643      50.000000000000
      6626    1      110.250807417959     122.759999984952      50.000000000000
      6627    1      107.297660785225     127.874999982958      50.000000000000
      6628    1      110.250807417959     126.169999987268      50.000000000000
      6629    1      107.297660785225     131.284999985274      50.000000000000
      6630    1      110.250807417959     129.579999978649      50.000000000000
      6631    1      107.297660785225     134.694999987590      50.000000000000
      6632    1      110.250807417959     132.989999980965      50.000000000000
      6633    1      113.203954039759     124.464999980643      50.000000000000
      6634    1      116.157100672492     122.759999984952      50.000000000000
      6635    1      113.203954039759     127.874999982958      50.000000000000
      6636    1      116.157100672492     126.169999987268      50.000000000000
      6637    1      113.203954039759     131.284999985274      50.000000000000
      6638    1      116.157100672492     129.579999978649      50.000000000000
      6639    1      113.203954039759     134.694999987590      50.000000000000
      6640    1      116.157100672492     132.989999980965      50.000000000000
      6641    2      106.313278581603     122.759999984952      50.000000000000
      6642    2      109.266425203403     124.464999980643      50.000000000000
      6643    2      106.313278581603     126.169999987268      50.000000000000
      6644    2      109.266425203403     127.874999982958      50.000000000000
      6645    2      106.313278581603     129.579999978649      50.000000000000
      6646    2      109.266425203403     131.284999985274      50.000000000000
      6647    2      106.313278581603     132.989999980965      50.000000000000
      6648    2      109.266425203403     134.694999987590      50.000000000000
      6649    2      112.219571836137     122.759999984952      50.000000000000
      6650    2      115.172718457937     124.464999980643      50.000000000000
      6651    2      112.219571836137     126.169999987268      50.000000000000
      6652    2      115.172718457937     127.874999982958      50.000000000000
      6653    2      112.219571836137     129.579999978649      50.000000000000
      6654    2      115.172718457937     131.284999985274      50.000000000000
      6655    2      112.219571836137     132.989999980965      50.000000000000
      6656    2      115.172718457937     134.694999987590      50.000000000000
      6657    1      119.110247294292     124.464999980643      50.000000000000
      6658    1      122.063393927026     122.759999984952      50.000000000000
      6659    1      119.110247294292     127.874999982958      50.000000000000
      6660    1      122.063393927026     126.169999987268      50.000000000000
      6661    1      119.110247294292     131.284999985274      50.000000000000
      6662    1      122.063393927026     129.579999978649      50.000000000000
      6663    1      119.110247294292     134.694999987590      50.000000000000
      6664    1      122.063393927026     132.989999980965      50.000000000000
      6665    1      125.016540548826     124.464999980643      50.000000000000
      6666    1      127.969687181559     122.759999984952      50.000000000000
      6667    1      125.016540548826     127.874999982958      50.000000000000
      6668    1      127.969687181559     126.169999987268      50.000000000000
      6669    1      125.016540548826     131.284999985274      50.000000000000
      6670    1      127.969687181559     129.579999978649      50.000000000000
      6671    1      125.016540548826     134.694999987590      50.000000000000
      6672    1      127.969687181559     132.989999980965      50.000000000000
      6673    2      118.125865090670     122.759999984952      50.000000000000
      6674    2      121.079011712470     124.464999980643      50.000000000000
      6675    2      118.125865090670     126.169999987268      50.000000000000
      6676    2      121.079011712470     127.874999982958      50.000000000000
      6677    2      118.125865090670     129.579999978649      50.000000000000
      6678    2      121.079011712470     131.284999985274      50.000000000000
      6679    2      118.125865090670     132.989999980965      50.000000000000
      6680    2      121.079011712470     134.694999987590      50.000000000000
      6681    2      124.032158345204     122.759999984952      50.000000000000
      6682    2      126.985304967004     124.464999980643      50.000000000000
      6683    2      124.032158345204     126.169999987268      50.000000000000
      6684    2      126.985304967004     127.874999982958      50.000000000000
      6685    2      124.032158345204     129.579999978649      50.000000000000
      6686    2      126.985304967004     131.284999985274      50.000000000000
      6687    2      124.032158345204     132.989999980965      50.000000000000
      6688    2      126.985304967004     134.694999987590      50.000000000000
      6689    1      130.922833803359     124.464999980643      50.000000000000
      6690    1      133.875980436093     122.759999984952      50.000000000000
      6691    1      130.922833803359     127.874999982958      50.000000000000
      6692    1      133.875980436093     126.169999987268      50.000000000000
      6693    1      130.922833803359     131.284999985274      50.000000000000
      6694    1      133.875980436093     129.579999978649      50.000000000000
      6695    1      130.922833803359     134.694999987590      50.000000000000
      6696    1      133.875980436093     132.989999980965      50.000000000000
      6697    1      136.829127057893     124.464999980643      50.000000000000
      6698    1      139.782273690626     122.759999984952      50.000000000000
      6699    1      136.829127057893     127.874999982958      50.000000000000
      6700    1      139.782273690626     126.169999987268      50.000000000000
      6701    1      136.829127057893     131.284999985274      50.000000000000
      6702    1      139.782273690626     129.579999978649      50.000000000000
      6703    1      136.829127057893     134.694999987590      50.000000000000
      6704    1      139.782273690626     132.989999980965      50.000000000000
      6705    2      129.938451599737     122.759999984952      50.000000000000
      6706    2      132.891598221537     124.464999980643      50.000000000000
      6707    2      129.938451599737     126.169999987268      50.000000000000
      6708    2      132.891598221537     127.874999982958      50.000000000000
      6709    2      129.938451599737     129.579999978649      50.000000000000
      6710    2      132.891598221537     131.284999985274      50.000000000000
      6711    2      129.938451599737     132.989999980965      50.000000000000
      6712    2      132.891598221537     134.694999987590      50.000000000000
      6713    2      135.844744854271     122.759999984952      50.000000000000
      6714    2      138.797891476071     124.464999980643      50.000000000000
      6715    2      135.844744854271     126.169999987268      50.000000000000
      6716    2      138.797891476071     127.874999982958      50.000000000000
      6717    2      135.844744854271     129.579999978649      50.000000000000
      6718    2      138.797891476071     131.284999985274      50.000000000000
      6719    2      135.844744854271     132.989999980965      50.000000000000
      6720    2      138.797891476071     134.694999987590      50.000000000000
      6721    1      142.735420312426     124.464999980643      50.000000000000
      6722    1      145.688566945160     122.759999984952      50.000000000000
      6723    1      142.735420312426     127.874999982958      50.000000000000
      6724    1      145.688566945160     126.169999987268      50.000000000000
      6725    1      142.735420312426     131.284999985274      50.000000000000
      6726    1      145.688566945160     129.579999978649      50.000000000000
      6727    1      142.735420312426     134.694999987590      50.000000000000
      6728    1      145.688566945160     132.989999980965      50.000000000000
      6729    1      148.641713566960     124.464999980643      50.000000000000
      6730    1      151.594860199693     122.759999984952      50.000000000000
      6731    1      148.641713566960     127.874999982958      50.000000000000
      6732    1      151.594860199693     126.169999987268      50.000000000000
      6733    1      148.641713566960     131.284999985274      50.000000000000
      6734    1      151.594860199693     129.579999978649      50.000000000000
      6735    1      148.641713566960     134.694999987590      50.000000000000
      6736    1      151.594860199693     132.989999980965      50.000000000000
      6737    2      141.751038108804     122.759999984952      50.000000000000
      6738    2      144.704184730604     124.464999980643      50.000000000000
      6739    2      141.751038108804     126.169999987268      50.000000000000
      6740    2      144.704184730604     127.874999982958      50.000000000000
      6741    2      141.751038108804     129.579999978649      50.000000000000
      6742    2      144.704184730604     131.284999985274      50.000000000000
      6743    2      141.751038108804     132.989999980965      50.000000000000
      6744    2      144.704184730604     134.694999987590      50.000000000000
      6745    2      147.657331363338     122.759999984952      50.000000000000
      6746    2      150.610477985138     124.464999980643      50.000000000000
      6747    2      147.657331363338     126.169999987268      50.000000000000
      6748    2      150.610477985138     127.874999982958      50.000000000000
      6749    2      147.657331363338     129.579999978649      50.000000000000
      6750    2      150.610477985138     131.284999985274      50.000000000000
      6751    2      147.657331363338     132.989999980965      50.000000000000
      6752    2      150.610477985138     134.694999987590      50.000000000000
      6753    1      154.548006821493     124.464999980643      50.000000000000
      6754    1      157.501153454227     122.759999984952      50.000000000000
      6755    1      154.548006821493     127.874999982958      50.000000000000
      6756    1      157.501153454227     126.169999987268      50.000000000000
      6757    1      154.548006821493     131.284999985274      50.000000000000
      6758    1      157.501153454227     129.579999978649      50.000000000000
      6759    1      154.548006821493     134.694999987590      50.000000000000
      6760    1      157.501153454227     132.989999980965      50.000000000000
      6761    1      160.454300076027     124.464999980643      50.000000000000
      6762    1      163.407446708760     122.759999984952      50.000000000000
      6763    1      160.454300076027     127.874999982958      50.000000000000
      6764    1      163.407446708760     126.169999987268      50.000000000000
      6765    1      160.454300076027     131.284999985274      50.000000000000
      6766    1      163.407446708760     129.579999978649      50.000000000000
      6767    1      160.454300076027     134.694999987590      50.000000000000
      6768    1      163.407446708760     132.989999980965      50.000000000000
      6769    2      153.563624617871     122.759999984952      50.000000000000
      6770    2      156.516771239671     124.464999980643      50.000000000000
      6771    2      153.563624617871     126.169999987268      50.000000000000
      6772    2      156.516771239671     127.874999982958      50.000000000000
      6773    2      153.563624617871     129.579999978649      50.000000000000
      6774    2      156.516771239671     131.284999985274      50.000000000000
      6775    2      153.563624617871     132.989999980965      50.000000000000
      6776    2      156.516771239671     134.694999987590      50.000000000000
      6777    2      159.469917872405     122.759999984952      50.000000000000
      6778    2      162.423064494205     124.464999980643      50.000000000000
      6779    2      159.469917872405     126.169999987268      50.000000000000
      6780    2      162.423064494205     127.874999982958      50.000000000000
      6781    2      159.469917872405     129.579999978649      50.000000000000
      6782    2      162.423064494205     131.284999985274      50.000000000000
      6783    2      159.469917872405     132.989999980965      50.000000000000
      6784    2      162.423064494205     134.694999987590      50.000000000000
      6785    1      166.360593330560     124.464999980643      50.000000000000
      6786    1      169.313739963294     122.759999984952      50.000000000000
      6787    1      166.360593330560     127.874999982958      50.000000000000
      6788    1      169.313739963294     126.169999987268      50.000000000000
      6789    1      166.360593330560     131.284999985274      50.000000000000
      6790    1      169.313739963294     129.579999978649      50.000000000000
      6791    1      166.360593330560     134.694999987590      50.000000000000
      6792    1      169.313739963294     132.989999980965      50.000000000000
      6793    1      172.266886585094     124.464999980643      50.000000000000
      6794    1      175.220033217827     122.759999984952      50.000000000000
      6795    1      172.266886585094     127.874999982958      50.000000000000
      6796    1      175.220033217827     126.169999987268      50.000000000000
      6797    1      172.266886585094     131.284999985274      50.000000000000
      6798    1      175.220033217827     129.579999978649      50.000000000000
      6799    1      172.266886585094     134.694999987590      50.000000000000
      6800    1      175.220033217827     132.989999980965      50.000000000000
      6801    2      165.376211126938     122.759999984952      50.000000000000
      6802    2      168.329357748738     124.464999980643      50.000000000000
      6803    2      165.376211126938     126.169999987268      50.000000000000
      6804    2      168.329357748738     127.874999982958      50.000000000000
      6805    2      165.376211126938     129.579999978649      50.000000000000
      6806    2      168.329357748738     131.284999985274      50.000000000000
      6807    2      165.376211126938     132.989999980965      50.000000000000
      6808    2      168.329357748738     134.694999987590      50.000000000000
      6809    2      171.282504381472     122.759999984952      50.000000000000
      6810    2      174.235651003272     124.464999980643      50.000000000000
      6811    2      171.282504381472     126.169999987268      50.000000000000
      6812    2      174.235651003272     127.874999982958      50.000000000000
      6813    2      171.282504381472     129.579999978649      50.000000000000
      6814    2      174.235651003272     131.284999985274      50.000000000000
      6815    2      171.282504381472     132.989999980965      50.000000000000
      6816    2      174.235651003272     134.694999987590      50.000000000000
      6817    1      178.173179839627     124.464999980643      50.000000000000
      6818    1      181.126326472361     122.759999984952      50.000000000000
      6819    1      178.173179839627     127.874999982958      50.000000000000
      6820    1      181.126326472361     126.169999987268      50.000000000000
      6821    1      178.173179839627     131.284999985274      50.000000000000
      6822    1      181.126326472361     129.579999978649      50.000000000000
      6823    1      178.173179839627     134.694999987590      50.000000000000
      6824    1      181.126326472361     132.989999980965      50.000000000000
      6825    1      184.079473094161     124.464999980643      50.000000000000
      6826    1      187.032619726894     122.759999984952      50.000000000000
      6827    1      184.079473094161     127.874999982958      50.000000000000
      6828    1      187.032619726894     126.169999987268      50.000000000000
      6829    1      184.079473094161     131.284999985274      50.000000000000
      6830    1      187.032619726894     129.579999978649      50.000000000000
      6831    1      184.079473094161     134.694999987590      50.000000000000
      6832    1      187.032619726894     132.989999980965      50.000000000000
      6833    2      177.188797636005     122.759999984952      50.000000000000
      6834    2      180.141944257805     124.464999980643      50.000000000000
      6835    2      177.188797636005     126.169999987268      50.000000000000
      6836    2      180.141944257805     127.874999982958      50.000000000000
      6837    2      177.188797636005     129.579999978649      50.000000000000
      6838    2      180.141944257805     131.284999985274      50.000000000000
      6839    2      177.188797636005     132.989999980965      50.000000000000
      6840    2      180.141944257805     134.694999987590      50.000000000000
      6841    2      183.095090890539     122.759999984952      50.000000000000
      6842    2      186.048237512339     124.464999980643      50.000000000000
      6843    2      183.095090890539     126.169999987268      50.000000000000
      6844    2      186.048237512339     127.874999982958      50.000000000000
      6845    2      183.095090890539     129.579999978649      50.000000000000
      6846    2      186.048237512339     131.284999985274      50.000000000000
      6847    2      183.095090890539     132.989999980965      50.000000000000
      6848    2      186.048237512339     134.694999987590      50.000000000000
      6849    1      189.985766348694     124.464999980643      50.000000000000
      6850    1      192.938912981428     122.759999984952      50.000000000000
      6851    1      189.985766348694     127.874999982958      50.000000000000
      6852    1      192.938912981428     126.169999987268      50.000000000000
      6853    1      189.985766348694     131.284999985274      50.000000000000
      6854    1      192.938912981428     129.579999978649      50.000000000000
      6855    1      189.985766348694     134.694999987590      50.000000000000
      6856    1      192.938912981428     132.989999980965      50.000000000000
      6857    1      195.892059603228     124.464999980643      50.000000000000
      6858    1      198.845206235961     122.759999984952      50.000000000000
      6859    1      195.892059603228     127.874999982958      50.000000000000
      6860    1      198.845206235961     126.169999987268      50.000000000000
      6861    1      195.892059603228     131.284999985274      50.000000000000
      6862    1      198.845206235961     129.579999978649      50.000000000000
      6863    1      195.892059603228     134.694999987590      50.000000000000
      6864    1      198.845206235961     132.989999980965      50.000000000000
      6865    2      189.001384145072     122.759999984952      50.000000000000
      6866    2      191.954530766872     124.464999980643      50.000000000000
      6867    2      189.001384145072     126.169999987268      50.000000000000
      6868    2      191.954530766872     127.874999982958      50.000000000000
      6869    2      189.001384145072     129.579999978649      50.000000000000
      6870    2      191.954530766872     131.284999985274      50.000000000000
      6871    2      189.001384145072     132.989999980965      50.000000000000
      6872    2      191.954530766872     134.694999987590      50.000000000000
      6873    2      194.907677399606     122.759999984952      50.000000000000
      6874    2      197.860824021406     124.464999980643      50.000000000000
      6875    2      194.907677399606     126.169999987268      50.000000000000
      6876    2      197.860824021406     127.874999982958      50.000000000000
      6877    2      194.907677399606     129.579999978649      50.000000000000
      6878    2      197.860824021406     131.284999985274      50.000000000000
      6879    2      194.907677399606     132.989999980965      50.000000000000
      6880    2      197.860824021406     134.694999987590      50.000000000000
      6881    1      201.798352857761     124.464999980643      50.000000000000
      6882    1      204.751499490495     122.759999984952      50.000000000000
      6883    1      201.798352857761     127.874999982958      50.000000000000
      6884    1      204.751499490495     126.169999987268      50.000000000000
      6885    1      201.798352857761     131.284999985274      50.000000000000
      6886    1      204.751499490495     129.579999978649      50.000000000000
      6887    1      201.798352857761     134.694999987590      50.000000000000
      6888    1      204.751499490495     132.989999980965      50.000000000000
      6889    1      207.704646112295     124.464999980643      50.000000000000
      6890    1      210.657792745028     122.759999984952      50.000000000000
      6891    1      207.704646112295     127.874999982958      50.000000000000
      6892    1      210.657792745028     126.169999987268      50.000000000000
      6893    1      207.704646112295     131.284999985274      50.000000000000
      6894    1      210.657792745028     129.579999978649      50.000000000000
      6895    1      207.704646112295     134.694999987590      50.000000000000
      6896    1      210.657792745028     132.989999980965      50.000000000000
      6897    2      200.813970654139     122.759999984952      50.000000000000
      6898    2      203.767117275939     124.464999980643      50.000000000000
      6899    2      200.813970654139     126.169999987268      50.000000000000
      6900    2      203.767117275939     127.874999982958      50.000000000000
      6901    2      200.813970654139     129.579999978649      50.000000000000
      6902    2      203.767117275939     131.284999985274      50.000000000000
      6903    2      200.813970654139     132.989999980965      50.000000000000
      6904    2      203.767117275939     134.694999987590      50.000000000000
      6905    2      206.720263908673     122.759999984952      50.000000000000
      6906    2      209.673410530473     124.464999980643      50.000000000000
      6907    2      206.720263908673     126.169999987268      50.000000000000
      6908    2      209.673410530473     127.874999982958      50.000000000000
      6909    2      206.720263908673     129.579999978649      50.000000000000
      6910    2      209.673410530473     131.284999985274      50.000000000000
      6911    2      206.720263908673     132.989999980965      50.000000000000
      6912    2      209.673410530473     134.694999987590      50.000000000000
      6913    1      213.610939366828     124.464999980643      50.000000000000
      6914    1      216.564085999562     122.759999984952      50.000000000000
      6915    1      213.610939366828     127.874999982958      50.000000000000
      6916    1      216.564085999562     126.169999987268      50.000000000000
      6917    1      213.610939366828     131.284999985274      50.000000000000
      6918    1      216.564085999562     129.579999978649      50.000000000000
      6919    1      213.610939366828     134.694999987590      50.000000000000
      6920    1      216.564085999562     132.989999980965      50.000000000000
      6921    1      219.517232621362     124.464999980643      50.000000000000
      6922    1      222.470379254095     122.759999984952      50.000000000000
      6923    1      219.517232621362     127.874999982958      50.000000000000
      6924    1      222.470379254095     126.169999987268      50.000000000000
      6925    1      219.517232621362     131.284999985274      50.000000000000
      6926    1      222.470379254095     129.579999978649      50.000000000000
      6927    1      219.517232621362     134.694999987590      50.000000000000
      6928    1      222.470379254095     132.989999980965      50.000000000000
      6929    2      212.626557163206     122.759999984952      50.000000000000
      6930    2      215.579703785006     124.464999980643      50.000000000000
      6931    2      212.626557163206     126.169999987268      50.000000000000
      6932    2      215.579703785006     127.874999982958      50.000000000000
      6933    2      212.626557163206     129.579999978649      50.000000000000
      6934    2      215.579703785006     131.284999985274      50.000000000000
      6935    2      212.626557163206     132.989999980965      50.000000000000
      6936    2      215.579703785006     134.694999987590      50.000000000000
      6937    2      218.532850417740     122.759999984952      50.000000000000
      6938    2      221.485997039540     124.464999980643      50.000000000000
      6939    2      218.532850417740     126.169999987268      50.000000000000
      6940    2      221.485997039540     127.874999982958      50.000000000000
      6941    2      218.532850417740     129.579999978649      50.000000000000
      6942    2      221.485997039540     131.284999985274      50.000000000000
      6943    2      218.532850417740     132.989999980965      50.000000000000
      6944    2      221.485997039540     134.694999987590      50.000000000000
      6945    1      225.423525875895     124.464999980643      50.000000000000
      6946    1      228.376672508629     122.759999984952      50.000000000000
      6947    1      225.423525875895     127.874999982958      50.000000000000
      6948    1      228.376672508629     126.169999987268      50.000000000000
      6949    1      225.423525875895     131.284999985274      50.000000000000
      6950    1      228.376672508629     129.579999978649      50.000000000000
      6951    1      225.423525875895     134.694999987590      50.000000000000
      6952    1      228.376672508629     132.989999980965      50.000000000000
      6953    1      231.329819130429     124.464999980643      50.000000000000
      6954    1      234.282965763162     122.759999984952      50.000000000000
      6955    1      231.329819130429     127.874999982958      50.000000000000
      6956    1      234.282965763162     126.169999987268      50.000000000000
      6957    1      231.329819130429     131.284999985274      50.000000000000
      6958    1      234.282965763162     129.579999978649      50.000000000000
      6959    1      231.329819130429     134.694999987590      50.000000000000
      6960    1      234.282965763162     132.989999980965      50.000000000000
      6961    2      224.439143672273     122.759999984952      50.000000000000
      6962    2      227.392290294073     124.464999980643      50.000000000000
      6963    2      224.439143672273     126.169999987268      50.000000000000
      6964    2      227.392290294073     127.874999982958      50.000000000000
      6965    2      224.439143672273     129.579999978649      50.000000000000
      6966    2      227.392290294073     131.284999985274      50.000000000000
      6967    2      224.439143672273     132.989999980965      50.000000000000
      6968    2      227.392290294073     134.694999987590      50.000000000000
      6969    2      230.345436926807     122.759999984952      50.000000000000
      6970    2      233.298583548607     124.464999980643      50.000000000000
      6971    2      230.345436926807     126.169999987268      50.000000000000
      6972    2      233.298583548607     127.874999982958      50.000000000000
      6973    2      230.345436926807     129.579999978649      50.000000000000
      6974    2      233.298583548607     131.284999985274      50.000000000000
      6975    2      230.345436926807     132.989999980965      50.000000000000
      6976    2      233.298583548607     134.694999987590      50.000000000000
      6977    1      237.236112384962     124.464999980643      50.000000000000
      6978    1      240.189259017696     122.759999984952      50.000000000000
      6979    1      237.236112384962     127.874999982958      50.000000000000
      6980    1      240.189259017696     126.169999987268      50.000000000000
      6981    1      237.236112384962     131.284999985274      50.000000000000
      6982    1      240.189259017696     129.579999978649      50.000000000000
      6983    1      237.236112384962     134.694999987590      50.000000000000
      6984    1      240.189259017696     132.989999980965      50.000000000000
      6985    1      243.142405639496     124.464999980643      50.000000000000
      6986    1      246.095552272229     122.759999984952      50.000000000000
      6987    1      243.142405639496     127.874999982958      50.000000000000
      6988    1      246.095552272229     126.169999987268      50.000000000000
      6989    1      243.142405639496     131.284999985274      50.000000000000
      6990    1      246.095552272229     129.579999978649      50.000000000000
      6991    1      243.142405639496     134.694999987590      50.000000000000
      6992    1      246.095552272229     132.989999980965      50.000000000000
      6993    2      236.251730181340     122.759999984952      50.000000000000
      6994    2      239.204876803140     124.464999980643      50.000000000000
      6995    2      236.251730181340     126.169999987268      50.000000000000
      6996    2      239.204876803140     127.874999982958      50.000000000000
      6997    2      236.251730181340     129.579999978649      50.000000000000
      6998    2      239.204876803140     131.284999985274      50.000000000000
      6999    2      236.251730181340     132.989999980965      50.000000000000
      7000    2      239.204876803140     134.694999987590      50.000000000000
      7001    2      242.158023435874     122.759999984952      50.000000000000
      7002    2      245.111170057674     124.464999980643      50.000000000000
      7003    2      242.158023435874     126.169999987268      50.000000000000
      7004    2      245.111170057674     127.874999982958      50.000000000000
      7005    2      242.158023435874     129.579999978649      50.000000000000
      7006    2      245.111170057674     131.284999985274      50.000000000000
      7007    2      242.158023435874     132.989999980965      50.000000000000
      7008    2      245.111170057674     134.694999987590      50.000000000000
      7009    1      249.048698894029     124.464999980643      50.000000000000
      7010    1      252.001845526763     122.759999984952      50.000000000000
      7011    1      249.048698894029     127.874999982958      50.000000000000
      7012    1      252.001845526763     126.169999987268      50.000000000000
      7013    1      249.048698894029     131.284999985274      50.000000000000
      7014    1      252.001845526763     129.579999978649      50.000000000000
      7015    1      249.048698894029     134.694999987590      50.000000000000
      7016    1      252.001845526763     132.989999980965      50.000000000000
      7017    1      254.954992148563     124.464999980643      50.000000000000
      7018    1      257.908138781296     122.759999984952      50.000000000000
      7019    1      254.954992148563     127.874999982958      50.000000000000
      7020    1      257.908138781296     126.169999987268      50.000000000000
      7021    1      254.954992148563     131.284999985274      50.000000000000
      7022    1      257.908138781296     129.579999978649      50.000000000000
      7023    1      254.954992148563     134.694999987590      50.000000000000
      7024    1      257.908138781296     132.989999980965      50.000000000000
      7025    2      248.064316690407     122.759999984952      50.000000000000
      7026    2      251.017463312207     124.464999980643      50.000000000000
      7027    2      248.064316690407     126.169999987268      50.000000000000
      7028    2      251.017463312207     127.874999982958      50.000000000000
      7029    2      248.064316690407     129.579999978649      50.000000000000
      7030    2      251.017463312207     131.284999985274      50.000000000000
      7031    2      248.064316690407     132.989999980965      50.000000000000
      7032    2      251.017463312207     134.694999987590      50.000000000000
      7033    2      253.970609944941     122.759999984952      50.000000000000
      7034    2      256.923756566741     124.464999980643      50.000000000000
      7035    2      253.970609944941     126.169999987268      50.000000000000
      7036    2      256.923756566741     127.874999982958      50.000000000000
      7037    2      253.970609944941     129.579999978649      50.000000000000
      7038    2      256.923756566741     131.284999985274      50.000000000000
      7039    2      253.970609944941     132.989999980965      50.000000000000
      7040    2      256.923756566741     134.694999987590      50.000000000000
      7041    1        0.984382203622     138.104999978971      50.000000000000
      7042    1        3.937528836356     136.399999983280      50.000000000000
      7043    1        0.984382203622     141.514999981286      50.000000000000
      7044    1        3.937528836356     139.809999985596      50.000000000000
      7045    1        0.984382203622     144.924999983602      50.000000000000
      7046    1        3.937528836356     143.219999976977      50.000000000000
      7047    1        0.984382203622     148.334999985918      50.000000000000
      7048    1        3.937528836356     146.629999979293      50.000000000000
      7049    1        6.890675458156     138.104999978971      50.000000000000
      7050    1        9.843822090889     136.399999983280      50.000000000000
      7051    1        6.890675458156     141.514999981286      50.000000000000
      7052    1        9.843822090889     139.809999985596      50.000000000000
      7053    1        6.890675458156     144.924999983602      50.000000000000
      7054    1        9.843822090889     143.219999976977      50.000000000000
      7055    1        6.890675458156     148.334999985918      50.000000000000
      7056    1        9.843822090889     146.629999979293      50.000000000000
      7057    2        0.000000000000     136.399999983280      50.000000000000
      7058    2        2.953146621800     138.104999978971      50.000000000000
      7059    2        0.000000000000     139.809999985596      50.000000000000
      7060    2        2.953146621800     141.514999981286      50.000000000000
      7061    2        0.000000000000     143.219999976977      50.000000000000
      7062    2        2.953146621800     144.924999983602      50.000000000000
      7063    2        0.000000000000     146.629999979293      50.000000000000
      7064    2        2.953146621800     148.334999985918      50.000000000000
      7065    2        5.906293254534     136.399999983280      50.000000000000
      7066    2        8.859439876334     138.104999978971      50.000000000000
      7067    2        5.906293254534     139.809999985596      50.000000000000
      7068    2        8.859439876334     141.514999981286      50.000000000000
      7069    2        5.906293254534     143.219999976977      50.000000000000
      7070    2        8.859439876334     144.924999983602      50.000000000000
      7071    2        5.906293254534     146.629999979293      50.000000000000
      7072    2        8.859439876334     148.334999985918      50.000000000000
      7073    1       12.796968712689     138.104999978971      50.000000000000
      7074    1       15.750115345423     136.399999983280      50.000000000000
      7075    1       12.796968712689     141.514999981286      50.000000000000
      7076    1       15.750115345423     139.809999985596      50.000000000000
      7077    1       12.796968712689     144.924999983602      50.000000000000
      7078    1       15.750115345423     143.219999976977      50.000000000000
      7079    1       12.796968712689     148.334999985918      50.000000000000
      7080    1       15.750115345423     146.629999979293      50.000000000000
      7081    1       18.703261967223     138.104999978971      50.000000000000
      7082    1       21.656408599956     136.399999983280      50.000000000000
      7083    1       18.703261967223     141.514999981286      50.000000000000
      7084    1       21.656408599956     139.809999985596      50.000000000000
      7085    1       18.703261967223     144.924999983602      50.000000000000
      7086    1       21.656408599956     143.219999976977      50.000000000000
      7087    1       18.703261967223     148.334999985918      50.000000000000
      7088    1       21.656408599956     146.629999979293      50.000000000000
      7089    2       11.812586509067     136.399999983280      50.000000000000
      7090    2       14.765733130867     138.104999978971      50.000000000000
      7091    2       11.812586509067     139.809999985596      50.000000000000
      7092    2       14.765733130867     141.514999981286      50.000000000000
      7093    2       11.812586509067     143.219999976977      50.000000000000
      7094    2       14.765733130867     144.924999983602      50.000000000000
      7095    2       11.812586509067     146.629999979293      50.000000000000
      7096    2       14.765733130867     148.334999985918      50.000000000000
      7097    2       17.718879763601     136.399999983280      50.000000000000
      7098    2       20.672026385401     138.104999978971      50.000000000000
      7099    2       17.718879763601     139.809999985596      50.000000000000
      7100    2       20.672026385401     141.514999981286      50.000000000000
      7101    2       17.718879763601     143.219999976977      50.000000000000
      7102    2       20.672026385401     144.924999983602      50.000000000000
      7103    2       17.718879763601     146.629999979293      50.000000000000
      7104    2       20.672026385401     148.334999985918      50.000000000000
      7105    1       24.609555221756     138.104999978971      50.000000000000
      7106    1       27.562701854490     136.399999983280      50.000000000000
      7107    1       24.609555221756     141.514999981286      50.000000000000
      7108    1       27.562701854490     139.809999985596      50.000000000000
      7109    1       24.609555221756     144.924999983602      50.000000000000
      7110    1       27.562701854490     143.219999976977      50.000000000000
      7111    1       24.609555221756     148.334999985918      50.000000000000
      7112    1       27.562701854490     146.629999979293      50.000000000000
      7113    1       30.515848476290     138.104999978971      50.000000000000
      7114    1       33.468995109023     136.399999983280      50.000000000000
      7115    1       30.515848476290     141.514999981286      50.000000000000
      7116    1       33.468995109023     139.809999985596      50.000000000000
      7117    1       30.515848476290     144.924999983602      50.000000000000
      7118    1       33.468995109023     143.219999976977      50.000000000000
      7119    1       30.515848476290     148.334999985918      50.000000000000
      7120    1       33.468995109023     146.629999979293      50.000000000000
      7121    2       23.625173018134     136.399999983280      50.000000000000
      7122    2       26.578319639934     138.104999978971      50.000000000000
      7123    2       23.625173018134     139.809999985596      50.000000000000
      7124    2       26.578319639934     141.514999981286      50.000000000000
      7125    2       23.625173018134     143.219999976977      50.000000000000
      7126    2       26.578319639934     144.924999983602      50.000000000000
      7127    2       23.625173018134     146.629999979293      50.000000000000
      7128    2       26.578319639934     148.334999985918      50.000000000000
      7129    2       29.531466272668     136.399999983280      50.000000000000
      7130    2       32.484612894468     138.104999978971      50.000000000000
      7131    2       29.531466272668     139.809999985596      50.000000000000
      7132    2       32.484612894468     141.514999981286      50.000000000000
      7133    2       29.531466272668     143.219999976977      50.000000000000
      7134    2       32.484612894468     144.924999983602      50.000000000000
      7135    2       29.531466272668     146.629999979293      50.000000000000
      7136    2       32.484612894468     148.334999985918      50.000000000000
      7137    1       36.422141730823     138.104999978971      50.000000000000
      7138    1       39.375288363557     136.399999983280      50.000000000000
      7139    1       36.422141730823     141.514999981286      50.000000000000
      7140    1       39.375288363557     139.809999985596      50.000000000000
      7141    1       36.422141730823     144.924999983602      50.000000000000
      7142    1       39.375288363557     143.219999976977      50.000000000000
      7143    1       36.422141730823     148.334999985918      50.000000000000
      7144    1       39.375288363557     146.629999979293      50.000000000000
      7145    1       42.328434985357     138.104999978971      50.000000000000
      7146    1       45.281581618090     136.399999983280      50.000000000000
      7147    1       42.328434985357     141.514999981286      50.000000000000
      7148    1       45.281581618090     139.809999985596      50.000000000000
      7149    1       42.328434985357     144.924999983602      50.000000000000
      7150    1       45.281581618090     143.219999976977      50.000000000000
      7151    1       42.328434985357     148.334999985918      50.000000000000
      7152    1       45.281581618090     146.629999979293      50.000000000000
      7153    2       35.437759527201     136.399999983280      50.000000000000
      7154    2       38.390906149001     138.104999978971      50.000000000000
      7155    2       35.437759527201     139.809999985596      50.000000000000
      7156    2       38.390906149001     141.514999981286      50.000000000000
      7157    2       35.437759527201     143.219999976977      50.000000000000
      7158    2       38.390906149001     144.924999983602      50.000000000000
      7159    2       35.437759527201     146.629999979293      50.000000000000
      7160    2       38.390906149001     148.334999985918      50.000000000000
      7161    2       41.344052781735     136.399999983280      50.000000000000
      7162    2       44.297199403535     138.104999978971      50.000000000000
      7163    2       41.344052781735     139.809999985596      50.000000000000
      7164    2       44.297199403535     141.514999981286      50.000000000000
      7165    2       41.344052781735     143.219999976977      50.000000000000
      7166    2       44.297199403535     144.924999983602      50.000000000000
      7167    2       41.344052781735     146.629999979293      50.000000000000
      7168    2       44.297199403535     148.334999985918      50.000000000000
      7169    1       48.234728239890     138.104999978971      50.000000000000
      7170    1       51.187874872624     136.399999983280      50.000000000000
      7171    1       48.234728239890     141.514999981286      50.000000000000
      7172    1       51.187874872624     139.809999985596      50.000000000000
      7173    1       48.234728239890     144.924999983602      50.000000000000
      7174    1       51.187874872624     143.219999976977      50.000000000000
      7175    1       48.234728239890     148.334999985918      50.000000000000
      7176    1       51.187874872624     146.629999979293      50.000000000000
      7177    1       54.141021494424     138.104999978971      50.000000000000
      7178    1       57.094168127157     136.399999983280      50.000000000000
      7179    1       54.141021494424     141.514999981286      50.000000000000
      7180    1       57.094168127157     139.809999985596      50.000000000000
      7181    1       54.141021494424     144.924999983602      50.000000000000
      7182    1       57.094168127157     143.219999976977      50.000000000000
      7183    1       54.141021494424     148.334999985918      50.000000000000
      7184    1       57.094168127157     146.629999979293      50.000000000000
      7185    2       47.250346036268     136.399999983280      50.000000000000
      7186    2       50.203492658068     138.104999978971      50.000000000000
      7187    2       47.250346036268     139.809999985596      50.000000000000
      7188    2       50.203492658068     141.514999981286      50.000000000000
      7189    2       47.250346036268     143.219999976977      50.000000000000
      7190    2       50.203492658068     144.924999983602      50.000000000000
      7191    2       47.250346036268     146.629999979293      50.000000000000
      7192    2       50.203492658068     148.334999985918      50.000000000000
      7193    2       53.156639290802     136.399999983280      50.000000000000
      7194    2       56.109785912602     138.104999978971      50.000000000000
      7195    2       53.156639290802     139.809999985596      50.000000000000
      7196    2       56.109785912602     141.514999981286      50.000000000000
      7197    2       53.156639290802     143.219999976977      50.000000000000
      7198    2       56.109785912602     144.924999983602      50.000000000000
      7199    2       53.156639290802     146.629999979293      50.000000000000
      7200    2       56.109785912602     148.334999985918      50.000000000000
      7201    1       60.047314748957     138.104999978971      50.000000000000
      7202    1       63.000461381691     136.399999983280      50.000000000000
      7203    1       60.047314748957     141.514999981286      50.000000000000
      7204    1       63.000461381691     139.809999985596      50.000000000000
      7205    1       60.047314748957     144.924999983602      50.000000000000
      7206    1       63.000461381691     143.219999976977      50.000000000000
      7207    1       60.047314748957     148.334999985918      50.000000000000
      7208    1       63.000461381691     146.629999979293      50.000000000000
      7209    1       65.953608003491     138.104999978971      50.000000000000
      7210    1       68.906754636224     136.399999983280      50.000000000000
      7211    1       65.953608003491     141.514999981286      50.000000000000
      7212    1       68.906754636224     139.809999985596      50.000000000000
      7213    1       65.953608003491     144.924999983602      50.000000000000
      7214    1       68.906754636224     143.219999976977      50.000000000000
      7215    1       65.953608003491     148.334999985918      50.000000000000
      7216    1       68.906754636224     146.629999979293      50.000000000000
      7217    2       59.062932545335     136.399999983280      50.000000000000
      7218    2       62.016079167135     138.104999978971      50.000000000000
      7219    2       59.062932545335     139.809999985596      50.000000000000
      7220    2       62.016079167135     141.514999981286      50.000000000000
      7221    2       59.062932545335     143.219999976977      50.000000000000
      7222    2       62.016079167135     144.924999983602      50.000000000000
      7223    2       59.062932545335     146.629999979293      50.000000000000
      7224    2       62.016079167135     148.334999985918      50.000000000000
      7225    2       64.969225799869     136.399999983280      50.000000000000
      7226    2       67.922372421669     138.104999978971      50.000000000000
      7227    2       64.969225799869     139.809999985596      50.000000000000
      7228    2       67.922372421669     141.514999981286      50.000000000000
      7229    2       64.969225799869     143.219999976977      50.000000000000
      7230    2       67.922372421669     144.924999983602      50.000000000000
      7231    2       64.969225799869     146.629999979293      50.000000000000
      7232    2       67.922372421669     148.334999985918      50.000000000000
      7233    1       71.859901258024     138.104999978971      50.000000000000
      7234    1       74.813047890758     136.399999983280      50.000000000000
      7235    1       71.859901258024     141.514999981286      50.000000000000
      7236    1       74.813047890758     139.809999985596      50.000000000000
      7237    1       71.859901258024     144.924999983602      50.000000000000
      7238    1       74.813047890758     143.219999976977      50.000000000000
      7239    1       71.859901258024     148.334999985918      50.000000000000
      7240    1       74.813047890758     146.629999979293      50.000000000000
      7241    1       77.766194512558     138.104999978971      50.000000000000
      7242    1       80.719341145291     136.399999983280      50.000000000000
      7243    1       77.766194512558     141.514999981286      50.000000000000
      7244    1       80.719341145291     139.809999985596      50.000000000000
      7245    1       77.766194512558     144.924999983602      50.000000000000
      7246    1       80.719341145291     143.219999976977      50.000000000000
      7247    1       77.766194512558     148.334999985918      50.000000000000
      7248    1       80.719341145291     146.629999979293      50.000000000000
      7249    2       70.875519054402     136.399999983280      50.000000000000
      7250    2       73.828665676202     138.104999978971      50.000000000000
      7251    2       70.875519054402     139.809999985596      50.000000000000
      7252    2       73.828665676202     141.514999981286      50.000000000000
      7253    2       70.875519054402     143.219999976977      50.000000000000
      7254    2       73.828665676202     144.924999983602      50.000000000000
      7255    2       70.875519054402     146.629999979293      50.000000000000
      7256    2       73.828665676202     148.334999985918      50.000000000000
      7257    2       76.781812308936     136.399999983280      50.000000000000
      7258    2       79.734958930736     138.104999978971      50.000000000000
      7259    2       76.781812308936     139.809999985596      50.000000000000
      7260    2       79.734958930736     141.514999981286      50.000000000000
      7261    2       76.781812308936     143.219999976977      50.000000000000
      7262    2       79.734958930736     144.924999983602      50.000000000000
      7263    2       76.781812308936     146.629999979293      50.000000000000
      7264    2       79.734958930736     148.334999985918      50.000000000000
      7265    1       83.672487767091     138.104999978971      50.000000000000
      7266    1       86.625634399825     136.399999983280      50.000000000000
      7267    1       83.672487767091     141.514999981286      50.000000000000
      7268    1       86.625634399825     139.809999985596      50.000000000000
      7269    1       83.672487767091     144.924999983602      50.000000000000
      7270    1       86.625634399825     143.219999976977      50.000000000000
      7271    1       83.672487767091     148.334999985918      50.000000000000
      7272    1       86.625634399825     146.629999979293      50.000000000000
      7273    1       89.578781021625     138.104999978971      50.000000000000
      7274    1       92.531927654358     136.399999983280      50.000000000000
      7275    1       89.578781021625     141.514999981286      50.000000000000
      7276    1       92.531927654358     139.809999985596      50.000000000000
      7277    1       89.578781021625     144.924999983602      50.000000000000
      7278    1       92.531927654358     143.219999976977      50.000000000000
      7279    1       89.578781021625     148.334999985918      50.000000000000
      7280    1       92.531927654358     146.629999979293      50.000000000000
      7281    2       82.688105563469     136.399999983280      50.000000000000
      7282    2       85.641252185269     138.104999978971      50.000000000000
      7283    2       82.688105563469     139.809999985596      50.000000000000
      7284    2       85.641252185269     141.514999981286      50.000000000000
      7285    2       82.688105563469     143.219999976977      50.000000000000
      7286    2       85.641252185269     144.924999983602      50.000000000000
      7287    2       82.688105563469     146.629999979293      50.000000000000
      7288    2       85.641252185269     148.334999985918      50.000000000000
      7289    2       88.594398818003     136.399999983280      50.000000000000
      7290    2       91.547545439803     138.104999978971      50.000000000000
      7291    2       88.594398818003     139.809999985596      50.000000000000
      7292    2       91.547545439803     141.514999981286      50.000000000000
      7293    2       88.594398818003     143.219999976977      50.000000000000
      7294    2       91.547545439803     144.924999983602      50.000000000000
      7295    2       88.594398818003     146.629999979293      50.000000000000
      7296    2       91.547545439803     148.334999985918      50.000000000000
      7297    1       95.485074276158     138.104999978971      50.000000000000
      7298    1       98.438220908892     136.399999983280      50.000000000000
      7299    1       95.485074276158     141.514999981286      50.000000000000
      7300    1       98.438220908892     139.809999985596      50.000000000000
      7301    1       95.485074276158     144.924999983602      50.000000000000
      7302    1       98.438220908892     143.219999976977      50.000000000000
      7303    1       95.485074276158     148.334999985918      50.000000000000
      7304    1       98.438220908892     146.629999979293      50.000000000000
      7305    1      101.391367530692     138.104999978971      50.000000000000
      7306    1      104.344514163425     136.399999983280      50.000000000000
      7307    1      101.391367530692     141.514999981286      50.000000000000
      7308    1      104.344514163425     139.809999985596      50.000000000000
      7309    1      101.391367530692     144.924999983602      50.000000000000
      7310    1      104.344514163425     143.219999976977      50.000000000000
      7311    1      101.391367530692     148.334999985918      50.000000000000
      7312    1      104.344514163425     146.629999979293      50.000000000000
      7313    2       94.500692072536     136.399999983280      50.000000000000
      7314    2       97.453838694336     138.104999978971      50.000000000000
      7315    2       94.500692072536     139.809999985596      50.000000000000
      7316    2       97.453838694336     141.514999981286      50.000000000000
      7317    2       94.500692072536     143.219999976977      50.000000000000
      7318    2       97.453838694336     144.924999983602      50.000000000000
      7319    2       94.500692072536     146.629999979293      50.000000000000
      7320    2       97.453838694336     148.334999985918      50.000000000000
      7321    2      100.406985327070     136.399999983280      50.000000000000
      7322    2      103.360131948870     138.104999978971      50.000000000000
      7323    2      100.406985327070     139.809999985596      50.000000000000
      7324    2      103.360131948870     141.514999981286      50.000000000000
      7325    2      100.406985327070     143.219999976977      50.000000000000
      7326    2      103.360131948870     144.924999983602      50.000000000000
      7327    2      100.406985327070     146.629999979293      50.000000000000
      7328    2      103.360131948870     148.334999985918      50.000000000000
      7329    1      107.297660785225     138.104999978971      50.000000000000
      7330    1      110.250807417959     136.399999983280      50.000000000000
      7331    1      107.297660785225     141.514999981286      50.000000000000
      7332    1      110.250807417959     139.809999985596      50.000000000000
      7333    1      107.297660785225     144.924999983602      50.000000000000
      7334    1      110.250807417959     143.219999976977      50.000000000000
      7335    1      107.297660785225     148.334999985918      50.000000000000
      7336    1      110.250807417959     146.629999979293      50.000000000000
      7337    1      113.203954039759     138.104999978971      50.000000000000
      7338    1      116.157100672492     136.399999983280      50.000000000000
      7339    1      113.203954039759     141.514999981286      50.000000000000
      7340    1      116.157100672492     139.809999985596      50.000000000000
      7341    1      113.203954039759     144.924999983602      50.000000000000
      7342    1      116.157100672492     143.219999976977      50.000000000000
      7343    1      113.203954039759     148.334999985918      50.000000000000
      7344    1      116.157100672492     146.629999979293      50.000000000000
      7345    2      106.313278581603     136.399999983280      50.000000000000
      7346    2      109.266425203403     138.104999978971      50.000000000000
      7347    2      106.313278581603     139.809999985596      50.000000000000
      7348    2      109.266425203403     141.514999981286      50.000000000000
      7349    2      106.313278581603     143.219999976977      50.000000000000
      7350    2      109.266425203403     144.924999983602      50.000000000000
      7351    2      106.313278581603     146.629999979293      50.000000000000
      7352    2      109.266425203403     148.334999985918      50.000000000000
      7353    2      112.219571836137     136.399999983280      50.000000000000
      7354    2      115.172718457937     138.104999978971      50.000000000000
      7355    2      112.219571836137     139.809999985596      50.000000000000
      7356    2      115.172718457937     141.514999981286      50.000000000000
      7357    2      112.219571836137     143.219999976977      50.000000000000
      7358    2      115.172718457937     144.924999983602      50.000000000000
      7359    2      112.219571836137     146.629999979293      50.000000000000
      7360    2      115.172718457937     148.334999985918      50.000000000000
      7361    1      119.110247294292     138.104999978971      50.000000000000
      7362    1      122.063393927026     136.399999983280      50.000000000000
      7363    1      119.110247294292     141.514999981286      50.000000000000
      7364    1      122.063393927026     139.809999985596      50.000000000000
      7365    1      119.110247294292     144.924999983602      50.000000000000
      7366    1      122.063393927026     143.219999976977      50.000000000000
      7367    1      119.110247294292     148.334999985918      50.000000000000
      7368    1      122.063393927026     146.629999979293      50.000000000000
      7369    1      125.016540548826     138.104999978971      50.000000000000
      7370    1      127.969687181559     136.399999983280      50.000000000000
      7371    1      125.016540548826     141.514999981286      50.000000000000
      7372    1      127.969687181559     139.809999985596      50.000000000000
      7373    1      125.016540548826     144.924999983602      50.000000000000
      7374    1      127.969687181559     143.219999976977      50.000000000000
      7375    1      125.016540548826     148.334999985918      50.000000000000
      7376    1      127.969687181559     146.629999979293      50.000000000000
      7377    2      118.125865090670     136.399999983280      50.000000000000
      7378    2      121.079011712470     138.104999978971      50.000000000000
      7379    2      118.125865090670     139.809999985596      50.000000000000
      7380    2      121.079011712470     141.514999981286      50.000000000000
      7381    2      118.125865090670     143.219999976977      50.000000000000
      7382    2      121.079011712470     144.924999983602      50.000000000000
      7383    2      118.125865090670     146.629999979293      50.000000000000
      7384    2      121.079011712470     148.334999985918      50.000000000000
      7385    2      124.032158345204     136.399999983280      50.000000000000
      7386    2      126.985304967004     138.104999978971      50.000000000000
      7387    2      124.032158345204     139.809999985596      50.000000000000
      7388    2      126.985304967004     141.514999981286      50.000000000000
      7389    2      124.032158345204     143.219999976977      50.000000000000
      7390    2      126.985304967004     144.924999983602      50.000000000000
      7391    2      124.032158345204     146.629999979293      50.000000000000
      7392    2      126.985304967004     148.334999985918      50.000000000000
      7393    1      130.922833803359     138.104999978971      50.000000000000
      7394    1      133.875980436093     136.399999983280      50.000000000000
      7395    1      130.922833803359     141.514999981286      50.000000000000
      7396    1      133.875980436093     139.809999985596      50.000000000000
      7397    1      130.922833803359     144.924999983602      50.000000000000
      7398    1      133.875980436093     143.219999976977      50.000000000000
      7399    1      130.922833803359     148.334999985918      50.000000000000
      7400    1      133.875980436093     146.629999979293      50.000000000000
      7401    1      136.829127057893     138.104999978971      50.000000000000
      7402    1      139.782273690626     136.399999983280      50.000000000000
      7403    1      136.829127057893     141.514999981286      50.000000000000
      7404    1      139.782273690626     139.809999985596      50.000000000000
      7405    1      136.829127057893     144.924999983602      50.000000000000
      7406    1      139.782273690626     143.219999976977      50.000000000000
      7407    1      136.829127057893     148.334999985918      50.000000000000
      7408    1      139.782273690626     146.629999979293      50.000000000000
      7409    2      129.938451599737     136.399999983280      50.000000000000
      7410    2      132.891598221537     138.104999978971      50.000000000000
      7411    2      129.938451599737     139.809999985596      50.000000000000
      7412    2      132.891598221537     141.514999981286      50.000000000000
      7413    2      129.938451599737     143.219999976977      50.000000000000
      7414    2      132.891598221537     144.924999983602      50.000000000000
      7415    2      129.938451599737     146.629999979293      50.000000000000
      7416    2      132.891598221537     148.334999985918      50.000000000000
      7417    2      135.844744854271     136.399999983280      50.000000000000
      7418    2      138.797891476071     138.104999978971      50.000000000000
      7419    2      135.844744854271     139.809999985596      50.000000000000
      7420    2      138.797891476071     141.514999981286      50.000000000000
      7421    2      135.844744854271     143.219999976977      50.000000000000
      7422    2      138.797891476071     144.924999983602      50.000000000000
      7423    2      135.844744854271     146.629999979293      50.000000000000
      7424    2      138.797891476071     148.334999985918      50.000000000000
      7425    1      142.735420312426     138.104999978971      50.000000000000
      7426    1      145.688566945160     136.399999983280      50.000000000000
      7427    1      142.735420312426     141.514999981286      50.000000000000
      7428    1      145.688566945160     139.809999985596      50.000000000000
      7429    1      142.735420312426     144.924999983602      50.000000000000
      7430    1      145.688566945160     143.219999976977      50.000000000000
      7431    1      142.735420312426     148.334999985918      50.000000000000
      7432    1      145.688566945160     146.629999979293      50.000000000000
      7433    1      148.641713566960     138.104999978971      50.000000000000
      7434    1      151.594860199693     136.399999983280      50.000000000000
      7435    1      148.641713566960     141.514999981286      50.000000000000
      7436    1      151.594860199693     139.809999985596      50.000000000000
      7437    1      148.641713566960     144.924999983602      50.000000000000
      7438    1      151.594860199693     143.219999976977      50.000000000000
      7439    1      148.641713566960     148.334999985918      50.000000000000
      7440    1      151.594860199693     146.629999979293      50.000000000000
      7441    2      141.751038108804     136.399999983280      50.000000000000
      7442    2      144.704184730604     138.104999978971      50.000000000000
      7443    2      141.751038108804     139.809999985596      50.000000000000
      7444    2      144.704184730604     141.514999981286      50.000000000000
      7445    2      141.751038108804     143.219999976977      50.000000000000
      7446    2      144.704184730604     144.924999983602      50.000000000000
      7447    2      141.751038108804     146.629999979293      50.000000000000
      7448    2      144.704184730604     148.334999985918      50.000000000000
      7449    2      147.657331363338     136.399999983280      50.000000000000
      7450    2      150.610477985138     138.104999978971      50.000000000000
      7451    2      147.657331363338     139.809999985596      50.000000000000
      7452    2      150.610477985138     141.514999981286      50.000000000000
      7453    2      147.657331363338     143.219999976977      50.000000000000
      7454    2      150.610477985138     144.924999983602      50.000000000000
      7455    2      147.657331363338     146.629999979293      50.000000000000
      7456    2      150.610477985138     148.334999985918      50.000000000000
      7457    1      154.548006821493     138.104999978971      50.000000000000
      7458    1      157.501153454227     136.399999983280      50.000000000000
      7459    1      154.548006821493     141.514999981286      50.000000000000
      7460    1      157.501153454227     139.809999985596      50.000000000000
      7461    1      154.548006821493     144.924999983602      50.000000000000
      7462    1      157.501153454227     143.219999976977      50.000000000000
      7463    1      154.548006821493     148.334999985918      50.000000000000
      7464    1      157.501153454227     146.629999979293      50.000000000000
      7465    1      160.454300076027     138.104999978971      50.000000000000
      7466    1      163.407446708760     136.399999983280      50.000000000000
      7467    1      160.454300076027     141.514999981286      50.000000000000
      7468    1      163.407446708760     139.809999985596      50.000000000000
      7469    1      160.454300076027     144.924999983602      50.000000000000
      7470    1      163.407446708760     143.219999976977      50.000000000000
      7471    1      160.454300076027     148.334999985918      50.000000000000
      7472    1      163.407446708760     146.629999979293      50.000000000000
      7473    2      153.563624617871     136.399999983280      50.000000000000
      7474    2      156.516771239671     138.104999978971      50.000000000000
      7475    2      153.563624617871     139.809999985596      50.000000000000
      7476    2      156.516771239671     141.514999981286      50.000000000000
      7477    2      153.563624617871     143.219999976977      50.000000000000
      7478    2      156.516771239671     144.924999983602      50.000000000000
      7479    2      153.563624617871     146.629999979293      50.000000000000
      7480    2      156.516771239671     148.334999985918      50.000000000000
      7481    2      159.469917872405     136.399999983280      50.000000000000
      7482    2      162.423064494205     138.104999978971      50.000000000000
      7483    2      159.469917872405     139.809999985596      50.000000000000
      7484    2      162.423064494205     141.514999981286      50.000000000000
      7485    2      159.469917872405     143.219999976977      50.000000000000
      7486    2      162.423064494205     144.924999983602      50.000000000000
      7487    2      159.469917872405     146.629999979293      50.000000000000
      7488    2      162.423064494205     148.334999985918      50.000000000000
      7489    1      166.360593330560     138.104999978971      50.000000000000
      7490    1      169.313739963294     136.399999983280      50.000000000000
      7491    1      166.360593330560     141.514999981286      50.000000000000
      7492    1      169.313739963294     139.809999985596      50.000000000000
      7493    1      166.360593330560     144.924999983602      50.000000000000
      7494    1      169.313739963294     143.219999976977      50.000000000000
      7495    1      166.360593330560     148.334999985918      50.000000000000
      7496    1      169.313739963294     146.629999979293      50.000000000000
      7497    1      172.266886585094     138.104999978971      50.000000000000
      7498    1      175.220033217827     136.399999983280      50.000000000000
      7499    1      172.266886585094     141.514999981286      50.000000000000
      7500    1      175.220033217827     139.809999985596      50.000000000000
      7501    1      172.266886585094     144.924999983602      50.000000000000
      7502    1      175.220033217827     143.219999976977      50.000000000000
      7503    1      172.266886585094     148.334999985918      50.000000000000
      7504    1      175.220033217827     146.629999979293      50.000000000000
      7505    2      165.376211126938     136.399999983280      50.000000000000
      7506    2      168.329357748738     138.104999978971      50.000000000000
      7507    2      165.376211126938     139.809999985596      50.000000000000
      7508    2      168.329357748738     141.514999981286      50.000000000000
      7509    2      165.376211126938     143.219999976977      50.000000000000
      7510    2      168.329357748738     144.924999983602      50.000000000000
      7511    2      165.376211126938     146.629999979293      50.000000000000
      7512    2      168.329357748738     148.334999985918      50.000000000000
      7513    2      171.282504381472     136.399999983280      50.000000000000
      7514    2      174.235651003272     138.104999978971      50.000000000000
      7515    2      171.282504381472     139.809999985596      50.000000000000
      7516    2      174.235651003272     141.514999981286      50.000000000000
      7517    2      171.282504381472     143.219999976977      50.000000000000
      7518    2      174.235651003272     144.924999983602      50.000000000000
      7519    2      171.282504381472     146.629999979293      50.000000000000
      7520    2      174.235651003272     148.334999985918      50.000000000000
      7521    1      178.173179839627     138.104999978971      50.000000000000
      7522    1      181.126326472361     136.399999983280      50.000000000000
      7523    1      178.173179839627     141.514999981286      50.000000000000
      7524    1      181.126326472361     139.809999985596      50.000000000000
      7525    1      178.173179839627     144.924999983602      50.000000000000
      7526    1      181.126326472361     143.219999976977      50.000000000000
      7527    1      178.173179839627     148.334999985918      50.000000000000
      7528    1      181.126326472361     146.629999979293      50.000000000000
      7529    1      184.079473094161     138.104999978971      50.000000000000
      7530    1      187.032619726894     136.399999983280      50.000000000000
      7531    1      184.079473094161     141.514999981286      50.000000000000
      7532    1      187.032619726894     139.809999985596      50.000000000000
      7533    1      184.079473094161     144.924999983602      50.000000000000
      7534    1      187.032619726894     143.219999976977      50.000000000000
      7535    1      184.079473094161     148.334999985918      50.000000000000
      7536    1      187.032619726894     146.629999979293      50.000000000000
      7537    2      177.188797636005     136.399999983280      50.000000000000
      7538    2      180.141944257805     138.104999978971      50.000000000000
      7539    2      177.188797636005     139.809999985596      50.000000000000
      7540    2      180.141944257805     141.514999981286      50.000000000000
      7541    2      177.188797636005     143.219999976977      50.000000000000
      7542    2      180.141944257805     144.924999983602      50.000000000000
      7543    2      177.188797636005     146.629999979293      50.000000000000
      7544    2      180.141944257805     148.334999985918      50.000000000000
      7545    2      183.095090890539     136.399999983280      50.000000000000
      7546    2      186.048237512339     138.104999978971      50.000000000000
      7547    2      183.095090890539     139.809999985596      50.000000000000
      7548    2      186.048237512339     141.514999981286      50.000000000000
      7549    2      183.095090890539     143.219999976977      50.000000000000
      7550    2      186.048237512339     144.924999983602      50.000000000000
      7551    2      183.095090890539     146.629999979293      50.000000000000
      7552    2      186.048237512339     148.334999985918      50.000000000000
      7553    1      189.985766348694     138.104999978971      50.000000000000
      7554    1      192.938912981428     136.399999983280      50.000000000000
      7555    1      189.985766348694     141.514999981286      50.000000000000
      7556    1      192.938912981428     139.809999985596      50.000000000000
      7557    1      189.985766348694     144.924999983602      50.000000000000
      7558    1      192.938912981428     143.219999976977      50.000000000000
      7559    1      189.985766348694     148.334999985918      50.000000000000
      7560    1      192.938912981428     146.629999979293      50.000000000000
      7561    1      195.892059603228     138.104999978971      50.000000000000
      7562    1      198.845206235961     136.399999983280      50.000000000000
      7563    1      195.892059603228     141.514999981286      50.000000000000
      7564    1      198.845206235961     139.809999985596      50.000000000000
      7565    1      195.892059603228     144.924999983602      50.000000000000
      7566    1      198.845206235961     143.219999976977      50.000000000000
      7567    1      195.892059603228     148.334999985918      50.000000000000
      7568    1      198.845206235961     146.629999979293      50.000000000000
      7569    2      189.001384145072     136.399999983280      50.000000000000
      7570    2      191.954530766872     138.104999978971      50.000000000000
      7571    2      189.001384145072     139.809999985596      50.000000000000
      7572    2      191.954530766872     141.514999981286      50.000000000000
      7573    2      189.001384145072     143.219999976977      50.000000000000
      7574    2      191.954530766872     144.924999983602      50.000000000000
      7575    2      189.001384145072     146.629999979293      50.000000000000
      7576    2      191.954530766872     148.334999985918      50.000000000000
      7577    2      194.907677399606     136.399999983280      50.000000000000
      7578    2      197.860824021406     138.104999978971      50.000000000000
      7579    2      194.907677399606     139.809999985596      50.000000000000
      7580    2      197.860824021406     141.514999981286      50.000000000000
      7581    2      194.907677399606     143.219999976977      50.000000000000
      7582    2      197.860824021406     144.924999983602      50.000000000000
      7583    2      194.907677399606     146.629999979293      50.000000000000
      7584    2      197.860824021406     148.334999985918      50.000000000000
      7585    1      201.798352857761     138.104999978971      50.000000000000
      7586    1      204.751499490495     136.399999983280      50.000000000000
      7587    1      201.798352857761     141.514999981286      50.000000000000
      7588    1      204.751499490495     139.809999985596      50.000000000000
      7589    1      201.798352857761     144.924999983602      50.000000000000
      7590    1      204.751499490495     143.219999976977      50.000000000000
      7591    1      201.798352857761     148.334999985918      50.000000000000
      7592    1      204.751499490495     146.629999979293      50.000000000000
      7593    1      207.704646112295     138.104999978971      50.000000000000
      7594    1      210.657792745028     136.399999983280      50.000000000000
      7595    1      207.704646112295     141.514999981286      50.000000000000
      7596    1      210.657792745028     139.809999985596      50.000000000000
      7597    1      207.704646112295     144.924999983602      50.000000000000
      7598    1      210.657792745028     143.219999976977      50.000000000000
      7599    1      207.704646112295     148.334999985918      50.000000000000
      7600    1      210.657792745028     146.629999979293      50.000000000000
      7601    2      200.813970654139     136.399999983280      50.000000000000
      7602    2      203.767117275939     138.104999978971      50.000000000000
      7603    2      200.813970654139     139.809999985596      50.000000000000
      7604    2      203.767117275939     141.514999981286      50.000000000000
      7605    2      200.813970654139     143.219999976977      50.000000000000
      7606    2      203.767117275939     144.924999983602      50.000000000000
      7607    2      200.813970654139     146.629999979293      50.000000000000
      7608    2      203.767117275939     148.334999985918      50.000000000000
      7609    2      206.720263908673     136.399999983280      50.000000000000
      7610    2      209.673410530473     138.104999978971      50.000000000000
      7611    2      206.720263908673     139.809999985596      50.000000000000
      7612    2      209.673410530473     141.514999981286      50.000000000000
      7613    2      206.720263908673     143.219999976977      50.000000000000
      7614    2      209.673410530473     144.924999983602      50.000000000000
      7615    2      206.720263908673     146.629999979293      50.000000000000
      7616    2      209.673410530473     148.334999985918      50.000000000000
      7617    1      213.610939366828     138.104999978971      50.000000000000
      7618    1      216.564085999562     136.399999983280      50.000000000000
      7619    1      213.610939366828     141.514999981286      50.000000000000
      7620    1      216.564085999562     139.809999985596      50.000000000000
      7621    1      213.610939366828     144.924999983602      50.000000000000
      7622    1      216.564085999562     143.219999976977      50.000000000000
      7623    1      213.610939366828     148.334999985918      50.000000000000
      7624    1      216.564085999562     146.629999979293      50.000000000000
      7625    1      219.517232621362     138.104999978971      50.000000000000
      7626    1      222.470379254095     136.399999983280      50.000000000000
      7627    1      219.517232621362     141.514999981286      50.000000000000
      7628    1      222.470379254095     139.809999985596      50.000000000000
      7629    1      219.517232621362     144.924999983602      50.000000000000
      7630    1      222.470379254095     143.219999976977      50.000000000000
      7631    1      219.517232621362     148.334999985918      50.000000000000
      7632    1      222.470379254095     146.629999979293      50.000000000000
      7633    2      212.626557163206     136.399999983280      50.000000000000
      7634    2      215.579703785006     138.104999978971      50.000000000000
      7635    2      212.626557163206     139.809999985596      50.000000000000
      7636    2      215.579703785006     141.514999981286      50.000000000000
      7637    2      212.626557163206     143.219999976977      50.000000000000
      7638    2      215.579703785006     144.924999983602      50.000000000000
      7639    2      212.626557163206     146.629999979293      50.000000000000
      7640    2      215.579703785006     148.334999985918      50.000000000000
      7641    2      218.532850417740     136.399999983280      50.000000000000
      7642    2      221.485997039540     138.104999978971      50.000000000000
      7643    2      218.532850417740     139.809999985596      50.000000000000
      7644    2      221.485997039540     141.514999981286      50.000000000000
      7645    2      218.532850417740     143.219999976977      50.000000000000
      7646    2      221.485997039540     144.924999983602      50.000000000000
      7647    2      218.532850417740     146.629999979293      50.000000000000
      7648    2      221.485997039540     148.334999985918      50.000000000000
      7649    1      225.423525875895     138.104999978971      50.000000000000
      7650    1      228.376672508629     136.399999983280      50.000000000000
      7651    1      225.423525875895     141.514999981286      50.000000000000
      7652    1      228.376672508629     139.809999985596      50.000000000000
      7653    1      225.423525875895     144.924999983602      50.000000000000
      7654    1      228.376672508629     143.219999976977      50.000000000000
      7655    1      225.423525875895     148.334999985918      50.000000000000
      7656    1      228.376672508629     146.629999979293      50.000000000000
      7657    1      231.329819130429     138.104999978971      50.000000000000
      7658    1      234.282965763162     136.399999983280      50.000000000000
      7659    1      231.329819130429     141.514999981286      50.000000000000
      7660    1      234.282965763162     139.809999985596      50.000000000000
      7661    1      231.329819130429     144.924999983602      50.000000000000
      7662    1      234.282965763162     143.219999976977      50.000000000000
      7663    1      231.329819130429     148.334999985918      50.000000000000
      7664    1      234.282965763162     146.629999979293      50.000000000000
      7665    2      224.439143672273     136.399999983280      50.000000000000
      7666    2      227.392290294073     138.104999978971      50.000000000000
      7667    2      224.439143672273     139.809999985596      50.000000000000
      7668    2      227.392290294073     141.514999981286      50.000000000000
      7669    2      224.439143672273     143.219999976977      50.000000000000
      7670    2      227.392290294073     144.924999983602      50.000000000000
      7671    2      224.439143672273     146.629999979293      50.000000000000
      7672    2      227.392290294073     148.334999985918      50.000000000000
      7673    2      230.345436926807     136.399999983280      50.000000000000
      7674    2      233.298583548607     138.104999978971      50.000000000000
      7675    2      230.345436926807     139.809999985596      50.000000000000
      7676    2      233.298583548607     141.514999981286      50.000000000000
      7677    2      230.345436926807     143.219999976977      50.000000000000
      7678    2      233.298583548607     144.924999983602      50.000000000000
      7679    2      230.345436926807     146.629999979293      50.000000000000
      7680    2      233.298583548607     148.334999985918      50.000000000000
      7681    1      237.236112384962     138.104999978971      50.000000000000
      7682    1      240.189259017696     136.399999983280      50.000000000000
      7683    1      237.236112384962     141.514999981286      50.000000000000
      7684    1      240.189259017696     139.809999985596      50.000000000000
      7685    1      237.236112384962     144.924999983602      50.000000000000
      7686    1      240.189259017696     143.219999976977      50.000000000000
      7687    1      237.236112384962     148.334999985918      50.000000000000
      7688    1      240.189259017696     146.629999979293      50.000000000000
      7689    1      243.142405639496     138.104999978971      50.000000000000
      7690    1      246.095552272229     136.399999983280      50.000000000000
      7691    1      243.142405639496     141.514999981286      50.000000000000
      7692    1      246.095552272229     139.809999985596      50.000000000000
      7693    1      243.142405639496     144.924999983602      50.000000000000
      7694    1      246.095552272229     143.219999976977      50.000000000000
      7695    1      243.142405639496     148.334999985918      50.000000000000
      7696    1      246.095552272229     146.629999979293      50.000000000000
      7697    2      236.251730181340     136.399999983280      50.000000000000
      7698    2      239.204876803140     138.104999978971      50.000000000000
      7699    2      236.251730181340     139.809999985596      50.000000000000
      7700    2      239.204876803140     141.514999981286      50.000000000000
      7701    2      236.251730181340     143.219999976977      50.000000000000
      7702    2      239.204876803140     144.924999983602      50.000000000000
      7703    2      236.251730181340     146.629999979293      50.000000000000
      7704    2      239.204876803140     148.334999985918      50.000000000000
      7705    2      242.158023435874     136.399999983280      50.000000000000
      7706    2      245.111170057674     138.104999978971      50.000000000000
      7707    2      242.158023435874     139.809999985596      50.000000000000
      7708    2      245.111170057674     141.514999981286      50.000000000000
      7709    2      242.158023435874     143.219999976977      50.000000000000
      7710    2      245.111170057674     144.924999983602      50.000000000000
      7711    2      242.158023435874     146.629999979293      50.000000000000
      7712    2      245.111170057674     148.334999985918      50.000000000000
      7713    1      249.048698894029     138.104999978971      50.000000000000
      7714    1      252.001845526763     136.399999983280      50.000000000000
      7715    1      249.048698894029     141.514999981286      50.000000000000
      7716    1      252.001845526763     139.809999985596      50.000000000000
      7717    1      249.048698894029     144.924999983602      50.000000000000
      7718    1      252.001845526763     143.219999976977      50.000000000000
      7719    1      249.048698894029     148.334999985918      50.000000000000
      7720    1      252.001845526763     146.629999979293      50.000000000000
      7721    1      254.954992148563     138.104999978971      50.000000000000
      7722    1      257.908138781296     136.399999983280      50.000000000000
      7723    1      254.954992148563     141.514999981286      50.000000000000
      7724    1      257.908138781296     139.809999985596      50.000000000000
      7725    1      254.954992148563     144.924999983602      50.000000000000
      7726    1      257.908138781296     143.219999976977      50.000000000000
      7727    1      254.954992148563     148.334999985918      50.000000000000
      7728    1      257.908138781296     146.629999979293      50.000000000000
      7729    2      248.064316690407     136.399999983280      50.000000000000
      7730    2      251.017463312207     138.104999978971      50.000000000000
      7731    2      248.064316690407     139.809999985596      50.000000000000
      7732    2      251.017463312207     141.514999981286      50.000000000000
      7733    2      248.064316690407     143.219999976977      50.000000000000
      7734    2      251.017463312207     144.924999983602      50.000000000000
      7735    2      248.064316690407     146.629999979293      50.000000000000
      7736    2      251.017463312207     148.334999985918      50.000000000000
      7737    2      253.970609944941     136.399999983280      50.000000000000
      7738    2      256.923756566741     138.104999978971      50.000000000000
      7739    2      253.970609944941     139.809999985596      50.000000000000
      7740    2      256.923756566741     141.514999981286      50.000000000000
      7741    2      253.970609944941     143.219999976977      50.000000000000
      7742    2      256.923756566741     144.924999983602      50.000000000000
      7743    2      253.970609944941     146.629999979293      50.000000000000
      7744    2      256.923756566741     148.334999985918      50.000000000000
