 # Lammps sturcture data file
  
        7744  atoms
           2  atom types
 
      0.000000000000     129.938451599737  xlo xhi
      0.000000000000     300.079999963216  ylo yhi
      0.000000000000     100.000000000000  zlo zhi
 
Masses
 
            1   26.98153860             # Al
            2   14.00700000             # N
 
Atoms # atomic
 
         1    1        0.984382203622       1.704999995691      50.000000000000
         2    1        3.937528836356       0.000000000000      50.000000000000
         3    1        0.984382203622       5.114999998006      50.000000000000
         4    1        3.937528836356       3.410000002316      50.000000000000
         5    1        0.984382203622       8.525000000322      50.000000000000
         6    1        3.937528836356       6.819999993697      50.000000000000
         7    1        0.984382203622      11.935000002638      50.000000000000
         8    1        3.937528836356      10.229999996013      50.000000000000
         9    1        6.890675458156       1.704999995691      50.000000000000
        10    1        9.843822090889       0.000000000000      50.000000000000
        11    1        6.890675458156       5.114999998006      50.000000000000
        12    1        9.843822090889       3.410000002316      50.000000000000
        13    1        6.890675458156       8.525000000322      50.000000000000
        14    1        9.843822090889       6.819999993697      50.000000000000
        15    1        6.890675458156      11.935000002638      50.000000000000
        16    1        9.843822090889      10.229999996013      50.000000000000
        17    2        0.000000000000       0.000000000000      50.000000000000
        18    2        2.953146621800       1.704999995691      50.000000000000
        19    2        0.000000000000       3.410000002316      50.000000000000
        20    2        2.953146621800       5.114999998006      50.000000000000
        21    2        0.000000000000       6.819999993697      50.000000000000
        22    2        2.953146621800       8.525000000322      50.000000000000
        23    2        0.000000000000      10.229999996013      50.000000000000
        24    2        2.953146621800      11.935000002638      50.000000000000
        25    2        5.906293254534       0.000000000000      50.000000000000
        26    2        8.859439876334       1.704999995691      50.000000000000
        27    2        5.906293254534       3.410000002316      50.000000000000
        28    2        8.859439876334       5.114999998006      50.000000000000
        29    2        5.906293254534       6.819999993697      50.000000000000
        30    2        8.859439876334       8.525000000322      50.000000000000
        31    2        5.906293254534      10.229999996013      50.000000000000
        32    2        8.859439876334      11.935000002638      50.000000000000
        33    1       12.796968712689       1.704999995691      50.000000000000
        34    1       15.750115345423       0.000000000000      50.000000000000
        35    1       12.796968712689       5.114999998006      50.000000000000
        36    1       15.750115345423       3.410000002316      50.000000000000
        37    1       12.796968712689       8.525000000322      50.000000000000
        38    1       15.750115345423       6.819999993697      50.000000000000
        39    1       12.796968712689      11.935000002638      50.000000000000
        40    1       15.750115345423      10.229999996013      50.000000000000
        41    1       18.703261967223       1.704999995691      50.000000000000
        42    1       21.656408599956       0.000000000000      50.000000000000
        43    1       18.703261967223       5.114999998006      50.000000000000
        44    1       21.656408599956       3.410000002316      50.000000000000
        45    1       18.703261967223       8.525000000322      50.000000000000
        46    1       21.656408599956       6.819999993697      50.000000000000
        47    1       18.703261967223      11.935000002638      50.000000000000
        48    1       21.656408599956      10.229999996013      50.000000000000
        49    2       11.812586509067       0.000000000000      50.000000000000
        50    2       14.765733130867       1.704999995691      50.000000000000
        51    2       11.812586509067       3.410000002316      50.000000000000
        52    2       14.765733130867       5.114999998006      50.000000000000
        53    2       11.812586509067       6.819999993697      50.000000000000
        54    2       14.765733130867       8.525000000322      50.000000000000
        55    2       11.812586509067      10.229999996013      50.000000000000
        56    2       14.765733130867      11.935000002638      50.000000000000
        57    2       17.718879763601       0.000000000000      50.000000000000
        58    2       20.672026385401       1.704999995691      50.000000000000
        59    2       17.718879763601       3.410000002316      50.000000000000
        60    2       20.672026385401       5.114999998006      50.000000000000
        61    2       17.718879763601       6.819999993697      50.000000000000
        62    2       20.672026385401       8.525000000322      50.000000000000
        63    2       17.718879763601      10.229999996013      50.000000000000
        64    2       20.672026385401      11.935000002638      50.000000000000
        65    1       24.609555221756       1.704999995691      50.000000000000
        66    1       27.562701854490       0.000000000000      50.000000000000
        67    1       24.609555221756       5.114999998006      50.000000000000
        68    1       27.562701854490       3.410000002316      50.000000000000
        69    1       24.609555221756       8.525000000322      50.000000000000
        70    1       27.562701854490       6.819999993697      50.000000000000
        71    1       24.609555221756      11.935000002638      50.000000000000
        72    1       27.562701854490      10.229999996013      50.000000000000
        73    1       30.515848476290       1.704999995691      50.000000000000
        74    1       33.468995109023       0.000000000000      50.000000000000
        75    1       30.515848476290       5.114999998006      50.000000000000
        76    1       33.468995109023       3.410000002316      50.000000000000
        77    1       30.515848476290       8.525000000322      50.000000000000
        78    1       33.468995109023       6.819999993697      50.000000000000
        79    1       30.515848476290      11.935000002638      50.000000000000
        80    1       33.468995109023      10.229999996013      50.000000000000
        81    2       23.625173018134       0.000000000000      50.000000000000
        82    2       26.578319639934       1.704999995691      50.000000000000
        83    2       23.625173018134       3.410000002316      50.000000000000
        84    2       26.578319639934       5.114999998006      50.000000000000
        85    2       23.625173018134       6.819999993697      50.000000000000
        86    2       26.578319639934       8.525000000322      50.000000000000
        87    2       23.625173018134      10.229999996013      50.000000000000
        88    2       26.578319639934      11.935000002638      50.000000000000
        89    2       29.531466272668       0.000000000000      50.000000000000
        90    2       32.484612894468       1.704999995691      50.000000000000
        91    2       29.531466272668       3.410000002316      50.000000000000
        92    2       32.484612894468       5.114999998006      50.000000000000
        93    2       29.531466272668       6.819999993697      50.000000000000
        94    2       32.484612894468       8.525000000322      50.000000000000
        95    2       29.531466272668      10.229999996013      50.000000000000
        96    2       32.484612894468      11.935000002638      50.000000000000
        97    1       36.422141730823       1.704999995691      50.000000000000
        98    1       39.375288363557       0.000000000000      50.000000000000
        99    1       36.422141730823       5.114999998006      50.000000000000
       100    1       39.375288363557       3.410000002316      50.000000000000
       101    1       36.422141730823       8.525000000322      50.000000000000
       102    1       39.375288363557       6.819999993697      50.000000000000
       103    1       36.422141730823      11.935000002638      50.000000000000
       104    1       39.375288363557      10.229999996013      50.000000000000
       105    1       42.328434985357       1.704999995691      50.000000000000
       106    1       45.281581618090       0.000000000000      50.000000000000
       107    1       42.328434985357       5.114999998006      50.000000000000
       108    1       45.281581618090       3.410000002316      50.000000000000
       109    1       42.328434985357       8.525000000322      50.000000000000
       110    1       45.281581618090       6.819999993697      50.000000000000
       111    1       42.328434985357      11.935000002638      50.000000000000
       112    1       45.281581618090      10.229999996013      50.000000000000
       113    2       35.437759527201       0.000000000000      50.000000000000
       114    2       38.390906149001       1.704999995691      50.000000000000
       115    2       35.437759527201       3.410000002316      50.000000000000
       116    2       38.390906149001       5.114999998006      50.000000000000
       117    2       35.437759527201       6.819999993697      50.000000000000
       118    2       38.390906149001       8.525000000322      50.000000000000
       119    2       35.437759527201      10.229999996013      50.000000000000
       120    2       38.390906149001      11.935000002638      50.000000000000
       121    2       41.344052781735       0.000000000000      50.000000000000
       122    2       44.297199403535       1.704999995691      50.000000000000
       123    2       41.344052781735       3.410000002316      50.000000000000
       124    2       44.297199403535       5.114999998006      50.000000000000
       125    2       41.344052781735       6.819999993697      50.000000000000
       126    2       44.297199403535       8.525000000322      50.000000000000
       127    2       41.344052781735      10.229999996013      50.000000000000
       128    2       44.297199403535      11.935000002638      50.000000000000
       129    1       48.234728239890       1.704999995691      50.000000000000
       130    1       51.187874872624       0.000000000000      50.000000000000
       131    1       48.234728239890       5.114999998006      50.000000000000
       132    1       51.187874872624       3.410000002316      50.000000000000
       133    1       48.234728239890       8.525000000322      50.000000000000
       134    1       51.187874872624       6.819999993697      50.000000000000
       135    1       48.234728239890      11.935000002638      50.000000000000
       136    1       51.187874872624      10.229999996013      50.000000000000
       137    1       54.141021494424       1.704999995691      50.000000000000
       138    1       57.094168127157       0.000000000000      50.000000000000
       139    1       54.141021494424       5.114999998006      50.000000000000
       140    1       57.094168127157       3.410000002316      50.000000000000
       141    1       54.141021494424       8.525000000322      50.000000000000
       142    1       57.094168127157       6.819999993697      50.000000000000
       143    1       54.141021494424      11.935000002638      50.000000000000
       144    1       57.094168127157      10.229999996013      50.000000000000
       145    2       47.250346036268       0.000000000000      50.000000000000
       146    2       50.203492658068       1.704999995691      50.000000000000
       147    2       47.250346036268       3.410000002316      50.000000000000
       148    2       50.203492658068       5.114999998006      50.000000000000
       149    2       47.250346036268       6.819999993697      50.000000000000
       150    2       50.203492658068       8.525000000322      50.000000000000
       151    2       47.250346036268      10.229999996013      50.000000000000
       152    2       50.203492658068      11.935000002638      50.000000000000
       153    2       53.156639290802       0.000000000000      50.000000000000
       154    2       56.109785912602       1.704999995691      50.000000000000
       155    2       53.156639290802       3.410000002316      50.000000000000
       156    2       56.109785912602       5.114999998006      50.000000000000
       157    2       53.156639290802       6.819999993697      50.000000000000
       158    2       56.109785912602       8.525000000322      50.000000000000
       159    2       53.156639290802      10.229999996013      50.000000000000
       160    2       56.109785912602      11.935000002638      50.000000000000
       161    1       60.047314748957       1.704999995691      50.000000000000
       162    1       63.000461381691       0.000000000000      50.000000000000
       163    1       60.047314748957       5.114999998006      50.000000000000
       164    1       63.000461381691       3.410000002316      50.000000000000
       165    1       60.047314748957       8.525000000322      50.000000000000
       166    1       63.000461381691       6.819999993697      50.000000000000
       167    1       60.047314748957      11.935000002638      50.000000000000
       168    1       63.000461381691      10.229999996013      50.000000000000
       169    1       65.953608003491       1.704999995691      50.000000000000
       170    1       68.906754636224       0.000000000000      50.000000000000
       171    1       65.953608003491       5.114999998006      50.000000000000
       172    1       68.906754636224       3.410000002316      50.000000000000
       173    1       65.953608003491       8.525000000322      50.000000000000
       174    1       68.906754636224       6.819999993697      50.000000000000
       175    1       65.953608003491      11.935000002638      50.000000000000
       176    1       68.906754636224      10.229999996013      50.000000000000
       177    2       59.062932545335       0.000000000000      50.000000000000
       178    2       62.016079167135       1.704999995691      50.000000000000
       179    2       59.062932545335       3.410000002316      50.000000000000
       180    2       62.016079167135       5.114999998006      50.000000000000
       181    2       59.062932545335       6.819999993697      50.000000000000
       182    2       62.016079167135       8.525000000322      50.000000000000
       183    2       59.062932545335      10.229999996013      50.000000000000
       184    2       62.016079167135      11.935000002638      50.000000000000
       185    2       64.969225799869       0.000000000000      50.000000000000
       186    2       67.922372421669       1.704999995691      50.000000000000
       187    2       64.969225799869       3.410000002316      50.000000000000
       188    2       67.922372421669       5.114999998006      50.000000000000
       189    2       64.969225799869       6.819999993697      50.000000000000
       190    2       67.922372421669       8.525000000322      50.000000000000
       191    2       64.969225799869      10.229999996013      50.000000000000
       192    2       67.922372421669      11.935000002638      50.000000000000
       193    1       71.859901258024       1.704999995691      50.000000000000
       194    1       74.813047890758       0.000000000000      50.000000000000
       195    1       71.859901258024       5.114999998006      50.000000000000
       196    1       74.813047890758       3.410000002316      50.000000000000
       197    1       71.859901258024       8.525000000322      50.000000000000
       198    1       74.813047890758       6.819999993697      50.000000000000
       199    1       71.859901258024      11.935000002638      50.000000000000
       200    1       74.813047890758      10.229999996013      50.000000000000
       201    1       77.766194512558       1.704999995691      50.000000000000
       202    1       80.719341145291       0.000000000000      50.000000000000
       203    1       77.766194512558       5.114999998006      50.000000000000
       204    1       80.719341145291       3.410000002316      50.000000000000
       205    1       77.766194512558       8.525000000322      50.000000000000
       206    1       80.719341145291       6.819999993697      50.000000000000
       207    1       77.766194512558      11.935000002638      50.000000000000
       208    1       80.719341145291      10.229999996013      50.000000000000
       209    2       70.875519054402       0.000000000000      50.000000000000
       210    2       73.828665676202       1.704999995691      50.000000000000
       211    2       70.875519054402       3.410000002316      50.000000000000
       212    2       73.828665676202       5.114999998006      50.000000000000
       213    2       70.875519054402       6.819999993697      50.000000000000
       214    2       73.828665676202       8.525000000322      50.000000000000
       215    2       70.875519054402      10.229999996013      50.000000000000
       216    2       73.828665676202      11.935000002638      50.000000000000
       217    2       76.781812308936       0.000000000000      50.000000000000
       218    2       79.734958930736       1.704999995691      50.000000000000
       219    2       76.781812308936       3.410000002316      50.000000000000
       220    2       79.734958930736       5.114999998006      50.000000000000
       221    2       76.781812308936       6.819999993697      50.000000000000
       222    2       79.734958930736       8.525000000322      50.000000000000
       223    2       76.781812308936      10.229999996013      50.000000000000
       224    2       79.734958930736      11.935000002638      50.000000000000
       225    1       83.672487767091       1.704999995691      50.000000000000
       226    1       86.625634399825       0.000000000000      50.000000000000
       227    1       83.672487767091       5.114999998006      50.000000000000
       228    1       86.625634399825       3.410000002316      50.000000000000
       229    1       83.672487767091       8.525000000322      50.000000000000
       230    1       86.625634399825       6.819999993697      50.000000000000
       231    1       83.672487767091      11.935000002638      50.000000000000
       232    1       86.625634399825      10.229999996013      50.000000000000
       233    1       89.578781021625       1.704999995691      50.000000000000
       234    1       92.531927654358       0.000000000000      50.000000000000
       235    1       89.578781021625       5.114999998006      50.000000000000
       236    1       92.531927654358       3.410000002316      50.000000000000
       237    1       89.578781021625       8.525000000322      50.000000000000
       238    1       92.531927654358       6.819999993697      50.000000000000
       239    1       89.578781021625      11.935000002638      50.000000000000
       240    1       92.531927654358      10.229999996013      50.000000000000
       241    2       82.688105563469       0.000000000000      50.000000000000
       242    2       85.641252185269       1.704999995691      50.000000000000
       243    2       82.688105563469       3.410000002316      50.000000000000
       244    2       85.641252185269       5.114999998006      50.000000000000
       245    2       82.688105563469       6.819999993697      50.000000000000
       246    2       85.641252185269       8.525000000322      50.000000000000
       247    2       82.688105563469      10.229999996013      50.000000000000
       248    2       85.641252185269      11.935000002638      50.000000000000
       249    2       88.594398818003       0.000000000000      50.000000000000
       250    2       91.547545439803       1.704999995691      50.000000000000
       251    2       88.594398818003       3.410000002316      50.000000000000
       252    2       91.547545439803       5.114999998006      50.000000000000
       253    2       88.594398818003       6.819999993697      50.000000000000
       254    2       91.547545439803       8.525000000322      50.000000000000
       255    2       88.594398818003      10.229999996013      50.000000000000
       256    2       91.547545439803      11.935000002638      50.000000000000
       257    1       95.485074276158       1.704999995691      50.000000000000
       258    1       98.438220908892       0.000000000000      50.000000000000
       259    1       95.485074276158       5.114999998006      50.000000000000
       260    1       98.438220908892       3.410000002316      50.000000000000
       261    1       95.485074276158       8.525000000322      50.000000000000
       262    1       98.438220908892       6.819999993697      50.000000000000
       263    1       95.485074276158      11.935000002638      50.000000000000
       264    1       98.438220908892      10.229999996013      50.000000000000
       265    1      101.391367530692       1.704999995691      50.000000000000
       266    1      104.344514163425       0.000000000000      50.000000000000
       267    1      101.391367530692       5.114999998006      50.000000000000
       268    1      104.344514163425       3.410000002316      50.000000000000
       269    1      101.391367530692       8.525000000322      50.000000000000
       270    1      104.344514163425       6.819999993697      50.000000000000
       271    1      101.391367530692      11.935000002638      50.000000000000
       272    1      104.344514163425      10.229999996013      50.000000000000
       273    2       94.500692072536       0.000000000000      50.000000000000
       274    2       97.453838694336       1.704999995691      50.000000000000
       275    2       94.500692072536       3.410000002316      50.000000000000
       276    2       97.453838694336       5.114999998006      50.000000000000
       277    2       94.500692072536       6.819999993697      50.000000000000
       278    2       97.453838694336       8.525000000322      50.000000000000
       279    2       94.500692072536      10.229999996013      50.000000000000
       280    2       97.453838694336      11.935000002638      50.000000000000
       281    2      100.406985327070       0.000000000000      50.000000000000
       282    2      103.360131948870       1.704999995691      50.000000000000
       283    2      100.406985327070       3.410000002316      50.000000000000
       284    2      103.360131948870       5.114999998006      50.000000000000
       285    2      100.406985327070       6.819999993697      50.000000000000
       286    2      103.360131948870       8.525000000322      50.000000000000
       287    2      100.406985327070      10.229999996013      50.000000000000
       288    2      103.360131948870      11.935000002638      50.000000000000
       289    1      107.297660785225       1.704999995691      50.000000000000
       290    1      110.250807417959       0.000000000000      50.000000000000
       291    1      107.297660785225       5.114999998006      50.000000000000
       292    1      110.250807417959       3.410000002316      50.000000000000
       293    1      107.297660785225       8.525000000322      50.000000000000
       294    1      110.250807417959       6.819999993697      50.000000000000
       295    1      107.297660785225      11.935000002638      50.000000000000
       296    1      110.250807417959      10.229999996013      50.000000000000
       297    1      113.203954039759       1.704999995691      50.000000000000
       298    1      116.157100672492       0.000000000000      50.000000000000
       299    1      113.203954039759       5.114999998006      50.000000000000
       300    1      116.157100672492       3.410000002316      50.000000000000
       301    1      113.203954039759       8.525000000322      50.000000000000
       302    1      116.157100672492       6.819999993697      50.000000000000
       303    1      113.203954039759      11.935000002638      50.000000000000
       304    1      116.157100672492      10.229999996013      50.000000000000
       305    2      106.313278581603       0.000000000000      50.000000000000
       306    2      109.266425203403       1.704999995691      50.000000000000
       307    2      106.313278581603       3.410000002316      50.000000000000
       308    2      109.266425203403       5.114999998006      50.000000000000
       309    2      106.313278581603       6.819999993697      50.000000000000
       310    2      109.266425203403       8.525000000322      50.000000000000
       311    2      106.313278581603      10.229999996013      50.000000000000
       312    2      109.266425203403      11.935000002638      50.000000000000
       313    2      112.219571836137       0.000000000000      50.000000000000
       314    2      115.172718457937       1.704999995691      50.000000000000
       315    2      112.219571836137       3.410000002316      50.000000000000
       316    2      115.172718457937       5.114999998006      50.000000000000
       317    2      112.219571836137       6.819999993697      50.000000000000
       318    2      115.172718457937       8.525000000322      50.000000000000
       319    2      112.219571836137      10.229999996013      50.000000000000
       320    2      115.172718457937      11.935000002638      50.000000000000
       321    1      119.110247294292       1.704999995691      50.000000000000
       322    1      122.063393927026       0.000000000000      50.000000000000
       323    1      119.110247294292       5.114999998006      50.000000000000
       324    1      122.063393927026       3.410000002316      50.000000000000
       325    1      119.110247294292       8.525000000322      50.000000000000
       326    1      122.063393927026       6.819999993697      50.000000000000
       327    1      119.110247294292      11.935000002638      50.000000000000
       328    1      122.063393927026      10.229999996013      50.000000000000
       329    1      125.016540548826       1.704999995691      50.000000000000
       330    1      127.969687181559       0.000000000000      50.000000000000
       331    1      125.016540548826       5.114999998006      50.000000000000
       332    1      127.969687181559       3.410000002316      50.000000000000
       333    1      125.016540548826       8.525000000322      50.000000000000
       334    1      127.969687181559       6.819999993697      50.000000000000
       335    1      125.016540548826      11.935000002638      50.000000000000
       336    1      127.969687181559      10.229999996013      50.000000000000
       337    2      118.125865090670       0.000000000000      50.000000000000
       338    2      121.079011712470       1.704999995691      50.000000000000
       339    2      118.125865090670       3.410000002316      50.000000000000
       340    2      121.079011712470       5.114999998006      50.000000000000
       341    2      118.125865090670       6.819999993697      50.000000000000
       342    2      121.079011712470       8.525000000322      50.000000000000
       343    2      118.125865090670      10.229999996013      50.000000000000
       344    2      121.079011712470      11.935000002638      50.000000000000
       345    2      124.032158345204       0.000000000000      50.000000000000
       346    2      126.985304967004       1.704999995691      50.000000000000
       347    2      124.032158345204       3.410000002316      50.000000000000
       348    2      126.985304967004       5.114999998006      50.000000000000
       349    2      124.032158345204       6.819999993697      50.000000000000
       350    2      126.985304967004       8.525000000322      50.000000000000
       351    2      124.032158345204      10.229999996013      50.000000000000
       352    2      126.985304967004      11.935000002638      50.000000000000
       353    1        0.984382203622      15.344999994019      50.000000000000
       354    1        3.937528836356      13.639999998328      50.000000000000
       355    1        0.984382203622      18.754999996334      50.000000000000
       356    1        3.937528836356      17.050000000644      50.000000000000
       357    1        0.984382203622      22.164999998650      50.000000000000
       358    1        3.937528836356      20.459999992025      50.000000000000
       359    1        0.984382203622      25.575000000966      50.000000000000
       360    1        3.937528836356      23.869999994341      50.000000000000
       361    1        6.890675458156      15.344999994019      50.000000000000
       362    1        9.843822090889      13.639999998328      50.000000000000
       363    1        6.890675458156      18.754999996334      50.000000000000
       364    1        9.843822090889      17.050000000644      50.000000000000
       365    1        6.890675458156      22.164999998650      50.000000000000
       366    1        9.843822090889      20.459999992025      50.000000000000
       367    1        6.890675458156      25.575000000966      50.000000000000
       368    1        9.843822090889      23.869999994341      50.000000000000
       369    2        0.000000000000      13.639999998328      50.000000000000
       370    2        2.953146621800      15.344999994019      50.000000000000
       371    2        0.000000000000      17.050000000644      50.000000000000
       372    2        2.953146621800      18.754999996334      50.000000000000
       373    2        0.000000000000      20.459999992025      50.000000000000
       374    2        2.953146621800      22.164999998650      50.000000000000
       375    2        0.000000000000      23.869999994341      50.000000000000
       376    2        2.953146621800      25.575000000966      50.000000000000
       377    2        5.906293254534      13.639999998328      50.000000000000
       378    2        8.859439876334      15.344999994019      50.000000000000
       379    2        5.906293254534      17.050000000644      50.000000000000
       380    2        8.859439876334      18.754999996334      50.000000000000
       381    2        5.906293254534      20.459999992025      50.000000000000
       382    2        8.859439876334      22.164999998650      50.000000000000
       383    2        5.906293254534      23.869999994341      50.000000000000
       384    2        8.859439876334      25.575000000966      50.000000000000
       385    1       12.796968712689      15.344999994019      50.000000000000
       386    1       15.750115345423      13.639999998328      50.000000000000
       387    1       12.796968712689      18.754999996334      50.000000000000
       388    1       15.750115345423      17.050000000644      50.000000000000
       389    1       12.796968712689      22.164999998650      50.000000000000
       390    1       15.750115345423      20.459999992025      50.000000000000
       391    1       12.796968712689      25.575000000966      50.000000000000
       392    1       15.750115345423      23.869999994341      50.000000000000
       393    1       18.703261967223      15.344999994019      50.000000000000
       394    1       21.656408599956      13.639999998328      50.000000000000
       395    1       18.703261967223      18.754999996334      50.000000000000
       396    1       21.656408599956      17.050000000644      50.000000000000
       397    1       18.703261967223      22.164999998650      50.000000000000
       398    1       21.656408599956      20.459999992025      50.000000000000
       399    1       18.703261967223      25.575000000966      50.000000000000
       400    1       21.656408599956      23.869999994341      50.000000000000
       401    2       11.812586509067      13.639999998328      50.000000000000
       402    2       14.765733130867      15.344999994019      50.000000000000
       403    2       11.812586509067      17.050000000644      50.000000000000
       404    2       14.765733130867      18.754999996334      50.000000000000
       405    2       11.812586509067      20.459999992025      50.000000000000
       406    2       14.765733130867      22.164999998650      50.000000000000
       407    2       11.812586509067      23.869999994341      50.000000000000
       408    2       14.765733130867      25.575000000966      50.000000000000
       409    2       17.718879763601      13.639999998328      50.000000000000
       410    2       20.672026385401      15.344999994019      50.000000000000
       411    2       17.718879763601      17.050000000644      50.000000000000
       412    2       20.672026385401      18.754999996334      50.000000000000
       413    2       17.718879763601      20.459999992025      50.000000000000
       414    2       20.672026385401      22.164999998650      50.000000000000
       415    2       17.718879763601      23.869999994341      50.000000000000
       416    2       20.672026385401      25.575000000966      50.000000000000
       417    1       24.609555221756      15.344999994019      50.000000000000
       418    1       27.562701854490      13.639999998328      50.000000000000
       419    1       24.609555221756      18.754999996334      50.000000000000
       420    1       27.562701854490      17.050000000644      50.000000000000
       421    1       24.609555221756      22.164999998650      50.000000000000
       422    1       27.562701854490      20.459999992025      50.000000000000
       423    1       24.609555221756      25.575000000966      50.000000000000
       424    1       27.562701854490      23.869999994341      50.000000000000
       425    1       30.515848476290      15.344999994019      50.000000000000
       426    1       33.468995109023      13.639999998328      50.000000000000
       427    1       30.515848476290      18.754999996334      50.000000000000
       428    1       33.468995109023      17.050000000644      50.000000000000
       429    1       30.515848476290      22.164999998650      50.000000000000
       430    1       33.468995109023      20.459999992025      50.000000000000
       431    1       30.515848476290      25.575000000966      50.000000000000
       432    1       33.468995109023      23.869999994341      50.000000000000
       433    2       23.625173018134      13.639999998328      50.000000000000
       434    2       26.578319639934      15.344999994019      50.000000000000
       435    2       23.625173018134      17.050000000644      50.000000000000
       436    2       26.578319639934      18.754999996334      50.000000000000
       437    2       23.625173018134      20.459999992025      50.000000000000
       438    2       26.578319639934      22.164999998650      50.000000000000
       439    2       23.625173018134      23.869999994341      50.000000000000
       440    2       26.578319639934      25.575000000966      50.000000000000
       441    2       29.531466272668      13.639999998328      50.000000000000
       442    2       32.484612894468      15.344999994019      50.000000000000
       443    2       29.531466272668      17.050000000644      50.000000000000
       444    2       32.484612894468      18.754999996334      50.000000000000
       445    2       29.531466272668      20.459999992025      50.000000000000
       446    2       32.484612894468      22.164999998650      50.000000000000
       447    2       29.531466272668      23.869999994341      50.000000000000
       448    2       32.484612894468      25.575000000966      50.000000000000
       449    1       36.422141730823      15.344999994019      50.000000000000
       450    1       39.375288363557      13.639999998328      50.000000000000
       451    1       36.422141730823      18.754999996334      50.000000000000
       452    1       39.375288363557      17.050000000644      50.000000000000
       453    1       36.422141730823      22.164999998650      50.000000000000
       454    1       39.375288363557      20.459999992025      50.000000000000
       455    1       36.422141730823      25.575000000966      50.000000000000
       456    1       39.375288363557      23.869999994341      50.000000000000
       457    1       42.328434985357      15.344999994019      50.000000000000
       458    1       45.281581618090      13.639999998328      50.000000000000
       459    1       42.328434985357      18.754999996334      50.000000000000
       460    1       45.281581618090      17.050000000644      50.000000000000
       461    1       42.328434985357      22.164999998650      50.000000000000
       462    1       45.281581618090      20.459999992025      50.000000000000
       463    1       42.328434985357      25.575000000966      50.000000000000
       464    1       45.281581618090      23.869999994341      50.000000000000
       465    2       35.437759527201      13.639999998328      50.000000000000
       466    2       38.390906149001      15.344999994019      50.000000000000
       467    2       35.437759527201      17.050000000644      50.000000000000
       468    2       38.390906149001      18.754999996334      50.000000000000
       469    2       35.437759527201      20.459999992025      50.000000000000
       470    2       38.390906149001      22.164999998650      50.000000000000
       471    2       35.437759527201      23.869999994341      50.000000000000
       472    2       38.390906149001      25.575000000966      50.000000000000
       473    2       41.344052781735      13.639999998328      50.000000000000
       474    2       44.297199403535      15.344999994019      50.000000000000
       475    2       41.344052781735      17.050000000644      50.000000000000
       476    2       44.297199403535      18.754999996334      50.000000000000
       477    2       41.344052781735      20.459999992025      50.000000000000
       478    2       44.297199403535      22.164999998650      50.000000000000
       479    2       41.344052781735      23.869999994341      50.000000000000
       480    2       44.297199403535      25.575000000966      50.000000000000
       481    1       48.234728239890      15.344999994019      50.000000000000
       482    1       51.187874872624      13.639999998328      50.000000000000
       483    1       48.234728239890      18.754999996334      50.000000000000
       484    1       51.187874872624      17.050000000644      50.000000000000
       485    1       48.234728239890      22.164999998650      50.000000000000
       486    1       51.187874872624      20.459999992025      50.000000000000
       487    1       48.234728239890      25.575000000966      50.000000000000
       488    1       51.187874872624      23.869999994341      50.000000000000
       489    1       54.141021494424      15.344999994019      50.000000000000
       490    1       57.094168127157      13.639999998328      50.000000000000
       491    1       54.141021494424      18.754999996334      50.000000000000
       492    1       57.094168127157      17.050000000644      50.000000000000
       493    1       54.141021494424      22.164999998650      50.000000000000
       494    1       57.094168127157      20.459999992025      50.000000000000
       495    1       54.141021494424      25.575000000966      50.000000000000
       496    1       57.094168127157      23.869999994341      50.000000000000
       497    2       47.250346036268      13.639999998328      50.000000000000
       498    2       50.203492658068      15.344999994019      50.000000000000
       499    2       47.250346036268      17.050000000644      50.000000000000
       500    2       50.203492658068      18.754999996334      50.000000000000
       501    2       47.250346036268      20.459999992025      50.000000000000
       502    2       50.203492658068      22.164999998650      50.000000000000
       503    2       47.250346036268      23.869999994341      50.000000000000
       504    2       50.203492658068      25.575000000966      50.000000000000
       505    2       53.156639290802      13.639999998328      50.000000000000
       506    2       56.109785912602      15.344999994019      50.000000000000
       507    2       53.156639290802      17.050000000644      50.000000000000
       508    2       56.109785912602      18.754999996334      50.000000000000
       509    2       53.156639290802      20.459999992025      50.000000000000
       510    2       56.109785912602      22.164999998650      50.000000000000
       511    2       53.156639290802      23.869999994341      50.000000000000
       512    2       56.109785912602      25.575000000966      50.000000000000
       513    1       60.047314748957      15.344999994019      50.000000000000
       514    1       63.000461381691      13.639999998328      50.000000000000
       515    1       60.047314748957      18.754999996334      50.000000000000
       516    1       63.000461381691      17.050000000644      50.000000000000
       517    1       60.047314748957      22.164999998650      50.000000000000
       518    1       63.000461381691      20.459999992025      50.000000000000
       519    1       60.047314748957      25.575000000966      50.000000000000
       520    1       63.000461381691      23.869999994341      50.000000000000
       521    1       65.953608003491      15.344999994019      50.000000000000
       522    1       68.906754636224      13.639999998328      50.000000000000
       523    1       65.953608003491      18.754999996334      50.000000000000
       524    1       68.906754636224      17.050000000644      50.000000000000
       525    1       65.953608003491      22.164999998650      50.000000000000
       526    1       68.906754636224      20.459999992025      50.000000000000
       527    1       65.953608003491      25.575000000966      50.000000000000
       528    1       68.906754636224      23.869999994341      50.000000000000
       529    2       59.062932545335      13.639999998328      50.000000000000
       530    2       62.016079167135      15.344999994019      50.000000000000
       531    2       59.062932545335      17.050000000644      50.000000000000
       532    2       62.016079167135      18.754999996334      50.000000000000
       533    2       59.062932545335      20.459999992025      50.000000000000
       534    2       62.016079167135      22.164999998650      50.000000000000
       535    2       59.062932545335      23.869999994341      50.000000000000
       536    2       62.016079167135      25.575000000966      50.000000000000
       537    2       64.969225799869      13.639999998328      50.000000000000
       538    2       67.922372421669      15.344999994019      50.000000000000
       539    2       64.969225799869      17.050000000644      50.000000000000
       540    2       67.922372421669      18.754999996334      50.000000000000
       541    2       64.969225799869      20.459999992025      50.000000000000
       542    2       67.922372421669      22.164999998650      50.000000000000
       543    2       64.969225799869      23.869999994341      50.000000000000
       544    2       67.922372421669      25.575000000966      50.000000000000
       545    1       71.859901258024      15.344999994019      50.000000000000
       546    1       74.813047890758      13.639999998328      50.000000000000
       547    1       71.859901258024      18.754999996334      50.000000000000
       548    1       74.813047890758      17.050000000644      50.000000000000
       549    1       71.859901258024      22.164999998650      50.000000000000
       550    1       74.813047890758      20.459999992025      50.000000000000
       551    1       71.859901258024      25.575000000966      50.000000000000
       552    1       74.813047890758      23.869999994341      50.000000000000
       553    1       77.766194512558      15.344999994019      50.000000000000
       554    1       80.719341145291      13.639999998328      50.000000000000
       555    1       77.766194512558      18.754999996334      50.000000000000
       556    1       80.719341145291      17.050000000644      50.000000000000
       557    1       77.766194512558      22.164999998650      50.000000000000
       558    1       80.719341145291      20.459999992025      50.000000000000
       559    1       77.766194512558      25.575000000966      50.000000000000
       560    1       80.719341145291      23.869999994341      50.000000000000
       561    2       70.875519054402      13.639999998328      50.000000000000
       562    2       73.828665676202      15.344999994019      50.000000000000
       563    2       70.875519054402      17.050000000644      50.000000000000
       564    2       73.828665676202      18.754999996334      50.000000000000
       565    2       70.875519054402      20.459999992025      50.000000000000
       566    2       73.828665676202      22.164999998650      50.000000000000
       567    2       70.875519054402      23.869999994341      50.000000000000
       568    2       73.828665676202      25.575000000966      50.000000000000
       569    2       76.781812308936      13.639999998328      50.000000000000
       570    2       79.734958930736      15.344999994019      50.000000000000
       571    2       76.781812308936      17.050000000644      50.000000000000
       572    2       79.734958930736      18.754999996334      50.000000000000
       573    2       76.781812308936      20.459999992025      50.000000000000
       574    2       79.734958930736      22.164999998650      50.000000000000
       575    2       76.781812308936      23.869999994341      50.000000000000
       576    2       79.734958930736      25.575000000966      50.000000000000
       577    1       83.672487767091      15.344999994019      50.000000000000
       578    1       86.625634399825      13.639999998328      50.000000000000
       579    1       83.672487767091      18.754999996334      50.000000000000
       580    1       86.625634399825      17.050000000644      50.000000000000
       581    1       83.672487767091      22.164999998650      50.000000000000
       582    1       86.625634399825      20.459999992025      50.000000000000
       583    1       83.672487767091      25.575000000966      50.000000000000
       584    1       86.625634399825      23.869999994341      50.000000000000
       585    1       89.578781021625      15.344999994019      50.000000000000
       586    1       92.531927654358      13.639999998328      50.000000000000
       587    1       89.578781021625      18.754999996334      50.000000000000
       588    1       92.531927654358      17.050000000644      50.000000000000
       589    1       89.578781021625      22.164999998650      50.000000000000
       590    1       92.531927654358      20.459999992025      50.000000000000
       591    1       89.578781021625      25.575000000966      50.000000000000
       592    1       92.531927654358      23.869999994341      50.000000000000
       593    2       82.688105563469      13.639999998328      50.000000000000
       594    2       85.641252185269      15.344999994019      50.000000000000
       595    2       82.688105563469      17.050000000644      50.000000000000
       596    2       85.641252185269      18.754999996334      50.000000000000
       597    2       82.688105563469      20.459999992025      50.000000000000
       598    2       85.641252185269      22.164999998650      50.000000000000
       599    2       82.688105563469      23.869999994341      50.000000000000
       600    2       85.641252185269      25.575000000966      50.000000000000
       601    2       88.594398818003      13.639999998328      50.000000000000
       602    2       91.547545439803      15.344999994019      50.000000000000
       603    2       88.594398818003      17.050000000644      50.000000000000
       604    2       91.547545439803      18.754999996334      50.000000000000
       605    2       88.594398818003      20.459999992025      50.000000000000
       606    2       91.547545439803      22.164999998650      50.000000000000
       607    2       88.594398818003      23.869999994341      50.000000000000
       608    2       91.547545439803      25.575000000966      50.000000000000
       609    1       95.485074276158      15.344999994019      50.000000000000
       610    1       98.438220908892      13.639999998328      50.000000000000
       611    1       95.485074276158      18.754999996334      50.000000000000
       612    1       98.438220908892      17.050000000644      50.000000000000
       613    1       95.485074276158      22.164999998650      50.000000000000
       614    1       98.438220908892      20.459999992025      50.000000000000
       615    1       95.485074276158      25.575000000966      50.000000000000
       616    1       98.438220908892      23.869999994341      50.000000000000
       617    1      101.391367530692      15.344999994019      50.000000000000
       618    1      104.344514163425      13.639999998328      50.000000000000
       619    1      101.391367530692      18.754999996334      50.000000000000
       620    1      104.344514163425      17.050000000644      50.000000000000
       621    1      101.391367530692      22.164999998650      50.000000000000
       622    1      104.344514163425      20.459999992025      50.000000000000
       623    1      101.391367530692      25.575000000966      50.000000000000
       624    1      104.344514163425      23.869999994341      50.000000000000
       625    2       94.500692072536      13.639999998328      50.000000000000
       626    2       97.453838694336      15.344999994019      50.000000000000
       627    2       94.500692072536      17.050000000644      50.000000000000
       628    2       97.453838694336      18.754999996334      50.000000000000
       629    2       94.500692072536      20.459999992025      50.000000000000
       630    2       97.453838694336      22.164999998650      50.000000000000
       631    2       94.500692072536      23.869999994341      50.000000000000
       632    2       97.453838694336      25.575000000966      50.000000000000
       633    2      100.406985327070      13.639999998328      50.000000000000
       634    2      103.360131948870      15.344999994019      50.000000000000
       635    2      100.406985327070      17.050000000644      50.000000000000
       636    2      103.360131948870      18.754999996334      50.000000000000
       637    2      100.406985327070      20.459999992025      50.000000000000
       638    2      103.360131948870      22.164999998650      50.000000000000
       639    2      100.406985327070      23.869999994341      50.000000000000
       640    2      103.360131948870      25.575000000966      50.000000000000
       641    1      107.297660785225      15.344999994019      50.000000000000
       642    1      110.250807417959      13.639999998328      50.000000000000
       643    1      107.297660785225      18.754999996334      50.000000000000
       644    1      110.250807417959      17.050000000644      50.000000000000
       645    1      107.297660785225      22.164999998650      50.000000000000
       646    1      110.250807417959      20.459999992025      50.000000000000
       647    1      107.297660785225      25.575000000966      50.000000000000
       648    1      110.250807417959      23.869999994341      50.000000000000
       649    1      113.203954039759      15.344999994019      50.000000000000
       650    1      116.157100672492      13.639999998328      50.000000000000
       651    1      113.203954039759      18.754999996334      50.000000000000
       652    1      116.157100672492      17.050000000644      50.000000000000
       653    1      113.203954039759      22.164999998650      50.000000000000
       654    1      116.157100672492      20.459999992025      50.000000000000
       655    1      113.203954039759      25.575000000966      50.000000000000
       656    1      116.157100672492      23.869999994341      50.000000000000
       657    2      106.313278581603      13.639999998328      50.000000000000
       658    2      109.266425203403      15.344999994019      50.000000000000
       659    2      106.313278581603      17.050000000644      50.000000000000
       660    2      109.266425203403      18.754999996334      50.000000000000
       661    2      106.313278581603      20.459999992025      50.000000000000
       662    2      109.266425203403      22.164999998650      50.000000000000
       663    2      106.313278581603      23.869999994341      50.000000000000
       664    2      109.266425203403      25.575000000966      50.000000000000
       665    2      112.219571836137      13.639999998328      50.000000000000
       666    2      115.172718457937      15.344999994019      50.000000000000
       667    2      112.219571836137      17.050000000644      50.000000000000
       668    2      115.172718457937      18.754999996334      50.000000000000
       669    2      112.219571836137      20.459999992025      50.000000000000
       670    2      115.172718457937      22.164999998650      50.000000000000
       671    2      112.219571836137      23.869999994341      50.000000000000
       672    2      115.172718457937      25.575000000966      50.000000000000
       673    1      119.110247294292      15.344999994019      50.000000000000
       674    1      122.063393927026      13.639999998328      50.000000000000
       675    1      119.110247294292      18.754999996334      50.000000000000
       676    1      122.063393927026      17.050000000644      50.000000000000
       677    1      119.110247294292      22.164999998650      50.000000000000
       678    1      122.063393927026      20.459999992025      50.000000000000
       679    1      119.110247294292      25.575000000966      50.000000000000
       680    1      122.063393927026      23.869999994341      50.000000000000
       681    1      125.016540548826      15.344999994019      50.000000000000
       682    1      127.969687181559      13.639999998328      50.000000000000
       683    1      125.016540548826      18.754999996334      50.000000000000
       684    1      127.969687181559      17.050000000644      50.000000000000
       685    1      125.016540548826      22.164999998650      50.000000000000
       686    1      127.969687181559      20.459999992025      50.000000000000
       687    1      125.016540548826      25.575000000966      50.000000000000
       688    1      127.969687181559      23.869999994341      50.000000000000
       689    2      118.125865090670      13.639999998328      50.000000000000
       690    2      121.079011712470      15.344999994019      50.000000000000
       691    2      118.125865090670      17.050000000644      50.000000000000
       692    2      121.079011712470      18.754999996334      50.000000000000
       693    2      118.125865090670      20.459999992025      50.000000000000
       694    2      121.079011712470      22.164999998650      50.000000000000
       695    2      118.125865090670      23.869999994341      50.000000000000
       696    2      121.079011712470      25.575000000966      50.000000000000
       697    2      124.032158345204      13.639999998328      50.000000000000
       698    2      126.985304967004      15.344999994019      50.000000000000
       699    2      124.032158345204      17.050000000644      50.000000000000
       700    2      126.985304967004      18.754999996334      50.000000000000
       701    2      124.032158345204      20.459999992025      50.000000000000
       702    2      126.985304967004      22.164999998650      50.000000000000
       703    2      124.032158345204      23.869999994341      50.000000000000
       704    2      126.985304967004      25.575000000966      50.000000000000
       705    1        0.984382203622      28.984999992347      50.000000000000
       706    1        3.937528836356      27.279999996656      50.000000000000
       707    1        0.984382203622      32.394999994662      50.000000000000
       708    1        3.937528836356      30.689999998972      50.000000000000
       709    1        0.984382203622      35.804999996978      50.000000000000
       710    1        3.937528836356      34.099999990353      50.000000000000
       711    1        0.984382203622      39.214999999294      50.000000000000
       712    1        3.937528836356      37.509999992669      50.000000000000
       713    1        6.890675458156      28.984999992347      50.000000000000
       714    1        9.843822090889      27.279999996656      50.000000000000
       715    1        6.890675458156      32.394999994662      50.000000000000
       716    1        9.843822090889      30.689999998972      50.000000000000
       717    1        6.890675458156      35.804999996978      50.000000000000
       718    1        9.843822090889      34.099999990353      50.000000000000
       719    1        6.890675458156      39.214999999294      50.000000000000
       720    1        9.843822090889      37.509999992669      50.000000000000
       721    2        0.000000000000      27.279999996656      50.000000000000
       722    2        2.953146621800      28.984999992347      50.000000000000
       723    2        0.000000000000      30.689999998972      50.000000000000
       724    2        2.953146621800      32.394999994662      50.000000000000
       725    2        0.000000000000      34.099999990353      50.000000000000
       726    2        2.953146621800      35.804999996978      50.000000000000
       727    2        0.000000000000      37.509999992669      50.000000000000
       728    2        2.953146621800      39.214999999294      50.000000000000
       729    2        5.906293254534      27.279999996656      50.000000000000
       730    2        8.859439876334      28.984999992347      50.000000000000
       731    2        5.906293254534      30.689999998972      50.000000000000
       732    2        8.859439876334      32.394999994662      50.000000000000
       733    2        5.906293254534      34.099999990353      50.000000000000
       734    2        8.859439876334      35.804999996978      50.000000000000
       735    2        5.906293254534      37.509999992669      50.000000000000
       736    2        8.859439876334      39.214999999294      50.000000000000
       737    1       12.796968712689      28.984999992347      50.000000000000
       738    1       15.750115345423      27.279999996656      50.000000000000
       739    1       12.796968712689      32.394999994662      50.000000000000
       740    1       15.750115345423      30.689999998972      50.000000000000
       741    1       12.796968712689      35.804999996978      50.000000000000
       742    1       15.750115345423      34.099999990353      50.000000000000
       743    1       12.796968712689      39.214999999294      50.000000000000
       744    1       15.750115345423      37.509999992669      50.000000000000
       745    1       18.703261967223      28.984999992347      50.000000000000
       746    1       21.656408599956      27.279999996656      50.000000000000
       747    1       18.703261967223      32.394999994662      50.000000000000
       748    1       21.656408599956      30.689999998972      50.000000000000
       749    1       18.703261967223      35.804999996978      50.000000000000
       750    1       21.656408599956      34.099999990353      50.000000000000
       751    1       18.703261967223      39.214999999294      50.000000000000
       752    1       21.656408599956      37.509999992669      50.000000000000
       753    2       11.812586509067      27.279999996656      50.000000000000
       754    2       14.765733130867      28.984999992347      50.000000000000
       755    2       11.812586509067      30.689999998972      50.000000000000
       756    2       14.765733130867      32.394999994662      50.000000000000
       757    2       11.812586509067      34.099999990353      50.000000000000
       758    2       14.765733130867      35.804999996978      50.000000000000
       759    2       11.812586509067      37.509999992669      50.000000000000
       760    2       14.765733130867      39.214999999294      50.000000000000
       761    2       17.718879763601      27.279999996656      50.000000000000
       762    2       20.672026385401      28.984999992347      50.000000000000
       763    2       17.718879763601      30.689999998972      50.000000000000
       764    2       20.672026385401      32.394999994662      50.000000000000
       765    2       17.718879763601      34.099999990353      50.000000000000
       766    2       20.672026385401      35.804999996978      50.000000000000
       767    2       17.718879763601      37.509999992669      50.000000000000
       768    2       20.672026385401      39.214999999294      50.000000000000
       769    1       24.609555221756      28.984999992347      50.000000000000
       770    1       27.562701854490      27.279999996656      50.000000000000
       771    1       24.609555221756      32.394999994662      50.000000000000
       772    1       27.562701854490      30.689999998972      50.000000000000
       773    1       24.609555221756      35.804999996978      50.000000000000
       774    1       27.562701854490      34.099999990353      50.000000000000
       775    1       24.609555221756      39.214999999294      50.000000000000
       776    1       27.562701854490      37.509999992669      50.000000000000
       777    1       30.515848476290      28.984999992347      50.000000000000
       778    1       33.468995109023      27.279999996656      50.000000000000
       779    1       30.515848476290      32.394999994662      50.000000000000
       780    1       33.468995109023      30.689999998972      50.000000000000
       781    1       30.515848476290      35.804999996978      50.000000000000
       782    1       33.468995109023      34.099999990353      50.000000000000
       783    1       30.515848476290      39.214999999294      50.000000000000
       784    1       33.468995109023      37.509999992669      50.000000000000
       785    2       23.625173018134      27.279999996656      50.000000000000
       786    2       26.578319639934      28.984999992347      50.000000000000
       787    2       23.625173018134      30.689999998972      50.000000000000
       788    2       26.578319639934      32.394999994662      50.000000000000
       789    2       23.625173018134      34.099999990353      50.000000000000
       790    2       26.578319639934      35.804999996978      50.000000000000
       791    2       23.625173018134      37.509999992669      50.000000000000
       792    2       26.578319639934      39.214999999294      50.000000000000
       793    2       29.531466272668      27.279999996656      50.000000000000
       794    2       32.484612894468      28.984999992347      50.000000000000
       795    2       29.531466272668      30.689999998972      50.000000000000
       796    2       32.484612894468      32.394999994662      50.000000000000
       797    2       29.531466272668      34.099999990353      50.000000000000
       798    2       32.484612894468      35.804999996978      50.000000000000
       799    2       29.531466272668      37.509999992669      50.000000000000
       800    2       32.484612894468      39.214999999294      50.000000000000
       801    1       36.422141730823      28.984999992347      50.000000000000
       802    1       39.375288363557      27.279999996656      50.000000000000
       803    1       36.422141730823      32.394999994662      50.000000000000
       804    1       39.375288363557      30.689999998972      50.000000000000
       805    1       36.422141730823      35.804999996978      50.000000000000
       806    1       39.375288363557      34.099999990353      50.000000000000
       807    1       36.422141730823      39.214999999294      50.000000000000
       808    1       39.375288363557      37.509999992669      50.000000000000
       809    1       42.328434985357      28.984999992347      50.000000000000
       810    1       45.281581618090      27.279999996656      50.000000000000
       811    1       42.328434985357      32.394999994662      50.000000000000
       812    1       45.281581618090      30.689999998972      50.000000000000
       813    1       42.328434985357      35.804999996978      50.000000000000
       814    1       45.281581618090      34.099999990353      50.000000000000
       815    1       42.328434985357      39.214999999294      50.000000000000
       816    1       45.281581618090      37.509999992669      50.000000000000
       817    2       35.437759527201      27.279999996656      50.000000000000
       818    2       38.390906149001      28.984999992347      50.000000000000
       819    2       35.437759527201      30.689999998972      50.000000000000
       820    2       38.390906149001      32.394999994662      50.000000000000
       821    2       35.437759527201      34.099999990353      50.000000000000
       822    2       38.390906149001      35.804999996978      50.000000000000
       823    2       35.437759527201      37.509999992669      50.000000000000
       824    2       38.390906149001      39.214999999294      50.000000000000
       825    2       41.344052781735      27.279999996656      50.000000000000
       826    2       44.297199403535      28.984999992347      50.000000000000
       827    2       41.344052781735      30.689999998972      50.000000000000
       828    2       44.297199403535      32.394999994662      50.000000000000
       829    2       41.344052781735      34.099999990353      50.000000000000
       830    2       44.297199403535      35.804999996978      50.000000000000
       831    2       41.344052781735      37.509999992669      50.000000000000
       832    2       44.297199403535      39.214999999294      50.000000000000
       833    1       48.234728239890      28.984999992347      50.000000000000
       834    1       51.187874872624      27.279999996656      50.000000000000
       835    1       48.234728239890      32.394999994662      50.000000000000
       836    1       51.187874872624      30.689999998972      50.000000000000
       837    1       48.234728239890      35.804999996978      50.000000000000
       838    1       51.187874872624      34.099999990353      50.000000000000
       839    1       48.234728239890      39.214999999294      50.000000000000
       840    1       51.187874872624      37.509999992669      50.000000000000
       841    1       54.141021494424      28.984999992347      50.000000000000
       842    1       57.094168127157      27.279999996656      50.000000000000
       843    1       54.141021494424      32.394999994662      50.000000000000
       844    1       57.094168127157      30.689999998972      50.000000000000
       845    1       54.141021494424      35.804999996978      50.000000000000
       846    1       57.094168127157      34.099999990353      50.000000000000
       847    1       54.141021494424      39.214999999294      50.000000000000
       848    1       57.094168127157      37.509999992669      50.000000000000
       849    2       47.250346036268      27.279999996656      50.000000000000
       850    2       50.203492658068      28.984999992347      50.000000000000
       851    2       47.250346036268      30.689999998972      50.000000000000
       852    2       50.203492658068      32.394999994662      50.000000000000
       853    2       47.250346036268      34.099999990353      50.000000000000
       854    2       50.203492658068      35.804999996978      50.000000000000
       855    2       47.250346036268      37.509999992669      50.000000000000
       856    2       50.203492658068      39.214999999294      50.000000000000
       857    2       53.156639290802      27.279999996656      50.000000000000
       858    2       56.109785912602      28.984999992347      50.000000000000
       859    2       53.156639290802      30.689999998972      50.000000000000
       860    2       56.109785912602      32.394999994662      50.000000000000
       861    2       53.156639290802      34.099999990353      50.000000000000
       862    2       56.109785912602      35.804999996978      50.000000000000
       863    2       53.156639290802      37.509999992669      50.000000000000
       864    2       56.109785912602      39.214999999294      50.000000000000
       865    1       60.047314748957      28.984999992347      50.000000000000
       866    1       63.000461381691      27.279999996656      50.000000000000
       867    1       60.047314748957      32.394999994662      50.000000000000
       868    1       63.000461381691      30.689999998972      50.000000000000
       869    1       60.047314748957      35.804999996978      50.000000000000
       870    1       63.000461381691      34.099999990353      50.000000000000
       871    1       60.047314748957      39.214999999294      50.000000000000
       872    1       63.000461381691      37.509999992669      50.000000000000
       873    1       65.953608003491      28.984999992347      50.000000000000
       874    1       68.906754636224      27.279999996656      50.000000000000
       875    1       65.953608003491      32.394999994662      50.000000000000
       876    1       68.906754636224      30.689999998972      50.000000000000
       877    1       65.953608003491      35.804999996978      50.000000000000
       878    1       68.906754636224      34.099999990353      50.000000000000
       879    1       65.953608003491      39.214999999294      50.000000000000
       880    1       68.906754636224      37.509999992669      50.000000000000
       881    2       59.062932545335      27.279999996656      50.000000000000
       882    2       62.016079167135      28.984999992347      50.000000000000
       883    2       59.062932545335      30.689999998972      50.000000000000
       884    2       62.016079167135      32.394999994662      50.000000000000
       885    2       59.062932545335      34.099999990353      50.000000000000
       886    2       62.016079167135      35.804999996978      50.000000000000
       887    2       59.062932545335      37.509999992669      50.000000000000
       888    2       62.016079167135      39.214999999294      50.000000000000
       889    2       64.969225799869      27.279999996656      50.000000000000
       890    2       67.922372421669      28.984999992347      50.000000000000
       891    2       64.969225799869      30.689999998972      50.000000000000
       892    2       67.922372421669      32.394999994662      50.000000000000
       893    2       64.969225799869      34.099999990353      50.000000000000
       894    2       67.922372421669      35.804999996978      50.000000000000
       895    2       64.969225799869      37.509999992669      50.000000000000
       896    2       67.922372421669      39.214999999294      50.000000000000
       897    1       71.859901258024      28.984999992347      50.000000000000
       898    1       74.813047890758      27.279999996656      50.000000000000
       899    1       71.859901258024      32.394999994662      50.000000000000
       900    1       74.813047890758      30.689999998972      50.000000000000
       901    1       71.859901258024      35.804999996978      50.000000000000
       902    1       74.813047890758      34.099999990353      50.000000000000
       903    1       71.859901258024      39.214999999294      50.000000000000
       904    1       74.813047890758      37.509999992669      50.000000000000
       905    1       77.766194512558      28.984999992347      50.000000000000
       906    1       80.719341145291      27.279999996656      50.000000000000
       907    1       77.766194512558      32.394999994662      50.000000000000
       908    1       80.719341145291      30.689999998972      50.000000000000
       909    1       77.766194512558      35.804999996978      50.000000000000
       910    1       80.719341145291      34.099999990353      50.000000000000
       911    1       77.766194512558      39.214999999294      50.000000000000
       912    1       80.719341145291      37.509999992669      50.000000000000
       913    2       70.875519054402      27.279999996656      50.000000000000
       914    2       73.828665676202      28.984999992347      50.000000000000
       915    2       70.875519054402      30.689999998972      50.000000000000
       916    2       73.828665676202      32.394999994662      50.000000000000
       917    2       70.875519054402      34.099999990353      50.000000000000
       918    2       73.828665676202      35.804999996978      50.000000000000
       919    2       70.875519054402      37.509999992669      50.000000000000
       920    2       73.828665676202      39.214999999294      50.000000000000
       921    2       76.781812308936      27.279999996656      50.000000000000
       922    2       79.734958930736      28.984999992347      50.000000000000
       923    2       76.781812308936      30.689999998972      50.000000000000
       924    2       79.734958930736      32.394999994662      50.000000000000
       925    2       76.781812308936      34.099999990353      50.000000000000
       926    2       79.734958930736      35.804999996978      50.000000000000
       927    2       76.781812308936      37.509999992669      50.000000000000
       928    2       79.734958930736      39.214999999294      50.000000000000
       929    1       83.672487767091      28.984999992347      50.000000000000
       930    1       86.625634399825      27.279999996656      50.000000000000
       931    1       83.672487767091      32.394999994662      50.000000000000
       932    1       86.625634399825      30.689999998972      50.000000000000
       933    1       83.672487767091      35.804999996978      50.000000000000
       934    1       86.625634399825      34.099999990353      50.000000000000
       935    1       83.672487767091      39.214999999294      50.000000000000
       936    1       86.625634399825      37.509999992669      50.000000000000
       937    1       89.578781021625      28.984999992347      50.000000000000
       938    1       92.531927654358      27.279999996656      50.000000000000
       939    1       89.578781021625      32.394999994662      50.000000000000
       940    1       92.531927654358      30.689999998972      50.000000000000
       941    1       89.578781021625      35.804999996978      50.000000000000
       942    1       92.531927654358      34.099999990353      50.000000000000
       943    1       89.578781021625      39.214999999294      50.000000000000
       944    1       92.531927654358      37.509999992669      50.000000000000
       945    2       82.688105563469      27.279999996656      50.000000000000
       946    2       85.641252185269      28.984999992347      50.000000000000
       947    2       82.688105563469      30.689999998972      50.000000000000
       948    2       85.641252185269      32.394999994662      50.000000000000
       949    2       82.688105563469      34.099999990353      50.000000000000
       950    2       85.641252185269      35.804999996978      50.000000000000
       951    2       82.688105563469      37.509999992669      50.000000000000
       952    2       85.641252185269      39.214999999294      50.000000000000
       953    2       88.594398818003      27.279999996656      50.000000000000
       954    2       91.547545439803      28.984999992347      50.000000000000
       955    2       88.594398818003      30.689999998972      50.000000000000
       956    2       91.547545439803      32.394999994662      50.000000000000
       957    2       88.594398818003      34.099999990353      50.000000000000
       958    2       91.547545439803      35.804999996978      50.000000000000
       959    2       88.594398818003      37.509999992669      50.000000000000
       960    2       91.547545439803      39.214999999294      50.000000000000
       961    1       95.485074276158      28.984999992347      50.000000000000
       962    1       98.438220908892      27.279999996656      50.000000000000
       963    1       95.485074276158      32.394999994662      50.000000000000
       964    1       98.438220908892      30.689999998972      50.000000000000
       965    1       95.485074276158      35.804999996978      50.000000000000
       966    1       98.438220908892      34.099999990353      50.000000000000
       967    1       95.485074276158      39.214999999294      50.000000000000
       968    1       98.438220908892      37.509999992669      50.000000000000
       969    1      101.391367530692      28.984999992347      50.000000000000
       970    1      104.344514163425      27.279999996656      50.000000000000
       971    1      101.391367530692      32.394999994662      50.000000000000
       972    1      104.344514163425      30.689999998972      50.000000000000
       973    1      101.391367530692      35.804999996978      50.000000000000
       974    1      104.344514163425      34.099999990353      50.000000000000
       975    1      101.391367530692      39.214999999294      50.000000000000
       976    1      104.344514163425      37.509999992669      50.000000000000
       977    2       94.500692072536      27.279999996656      50.000000000000
       978    2       97.453838694336      28.984999992347      50.000000000000
       979    2       94.500692072536      30.689999998972      50.000000000000
       980    2       97.453838694336      32.394999994662      50.000000000000
       981    2       94.500692072536      34.099999990353      50.000000000000
       982    2       97.453838694336      35.804999996978      50.000000000000
       983    2       94.500692072536      37.509999992669      50.000000000000
       984    2       97.453838694336      39.214999999294      50.000000000000
       985    2      100.406985327070      27.279999996656      50.000000000000
       986    2      103.360131948870      28.984999992347      50.000000000000
       987    2      100.406985327070      30.689999998972      50.000000000000
       988    2      103.360131948870      32.394999994662      50.000000000000
       989    2      100.406985327070      34.099999990353      50.000000000000
       990    2      103.360131948870      35.804999996978      50.000000000000
       991    2      100.406985327070      37.509999992669      50.000000000000
       992    2      103.360131948870      39.214999999294      50.000000000000
       993    1      107.297660785225      28.984999992347      50.000000000000
       994    1      110.250807417959      27.279999996656      50.000000000000
       995    1      107.297660785225      32.394999994662      50.000000000000
       996    1      110.250807417959      30.689999998972      50.000000000000
       997    1      107.297660785225      35.804999996978      50.000000000000
       998    1      110.250807417959      34.099999990353      50.000000000000
       999    1      107.297660785225      39.214999999294      50.000000000000
      1000    1      110.250807417959      37.509999992669      50.000000000000
      1001    1      113.203954039759      28.984999992347      50.000000000000
      1002    1      116.157100672492      27.279999996656      50.000000000000
      1003    1      113.203954039759      32.394999994662      50.000000000000
      1004    1      116.157100672492      30.689999998972      50.000000000000
      1005    1      113.203954039759      35.804999996978      50.000000000000
      1006    1      116.157100672492      34.099999990353      50.000000000000
      1007    1      113.203954039759      39.214999999294      50.000000000000
      1008    1      116.157100672492      37.509999992669      50.000000000000
      1009    2      106.313278581603      27.279999996656      50.000000000000
      1010    2      109.266425203403      28.984999992347      50.000000000000
      1011    2      106.313278581603      30.689999998972      50.000000000000
      1012    2      109.266425203403      32.394999994662      50.000000000000
      1013    2      106.313278581603      34.099999990353      50.000000000000
      1014    2      109.266425203403      35.804999996978      50.000000000000
      1015    2      106.313278581603      37.509999992669      50.000000000000
      1016    2      109.266425203403      39.214999999294      50.000000000000
      1017    2      112.219571836137      27.279999996656      50.000000000000
      1018    2      115.172718457937      28.984999992347      50.000000000000
      1019    2      112.219571836137      30.689999998972      50.000000000000
      1020    2      115.172718457937      32.394999994662      50.000000000000
      1021    2      112.219571836137      34.099999990353      50.000000000000
      1022    2      115.172718457937      35.804999996978      50.000000000000
      1023    2      112.219571836137      37.509999992669      50.000000000000
      1024    2      115.172718457937      39.214999999294      50.000000000000
      1025    1      119.110247294292      28.984999992347      50.000000000000
      1026    1      122.063393927026      27.279999996656      50.000000000000
      1027    1      119.110247294292      32.394999994662      50.000000000000
      1028    1      122.063393927026      30.689999998972      50.000000000000
      1029    1      119.110247294292      35.804999996978      50.000000000000
      1030    1      122.063393927026      34.099999990353      50.000000000000
      1031    1      119.110247294292      39.214999999294      50.000000000000
      1032    1      122.063393927026      37.509999992669      50.000000000000
      1033    1      125.016540548826      28.984999992347      50.000000000000
      1034    1      127.969687181559      27.279999996656      50.000000000000
      1035    1      125.016540548826      32.394999994662      50.000000000000
      1036    1      127.969687181559      30.689999998972      50.000000000000
      1037    1      125.016540548826      35.804999996978      50.000000000000
      1038    1      127.969687181559      34.099999990353      50.000000000000
      1039    1      125.016540548826      39.214999999294      50.000000000000
      1040    1      127.969687181559      37.509999992669      50.000000000000
      1041    2      118.125865090670      27.279999996656      50.000000000000
      1042    2      121.079011712470      28.984999992347      50.000000000000
      1043    2      118.125865090670      30.689999998972      50.000000000000
      1044    2      121.079011712470      32.394999994662      50.000000000000
      1045    2      118.125865090670      34.099999990353      50.000000000000
      1046    2      121.079011712470      35.804999996978      50.000000000000
      1047    2      118.125865090670      37.509999992669      50.000000000000
      1048    2      121.079011712470      39.214999999294      50.000000000000
      1049    2      124.032158345204      27.279999996656      50.000000000000
      1050    2      126.985304967004      28.984999992347      50.000000000000
      1051    2      124.032158345204      30.689999998972      50.000000000000
      1052    2      126.985304967004      32.394999994662      50.000000000000
      1053    2      124.032158345204      34.099999990353      50.000000000000
      1054    2      126.985304967004      35.804999996978      50.000000000000
      1055    2      124.032158345204      37.509999992669      50.000000000000
      1056    2      126.985304967004      39.214999999294      50.000000000000
      1057    1        0.984382203622      42.624999990675      50.000000000000
      1058    1        3.937528836356      40.919999994984      50.000000000000
      1059    1        0.984382203622      46.034999992990      50.000000000000
      1060    1        3.937528836356      44.329999997300      50.000000000000
      1061    1        0.984382203622      49.444999995306      50.000000000000
      1062    1        3.937528836356      47.739999988681      50.000000000000
      1063    1        0.984382203622      52.854999997622      50.000000000000
      1064    1        3.937528836356      51.149999990997      50.000000000000
      1065    1        6.890675458156      42.624999990675      50.000000000000
      1066    1        9.843822090889      40.919999994984      50.000000000000
      1067    1        6.890675458156      46.034999992990      50.000000000000
      1068    1        9.843822090889      44.329999997300      50.000000000000
      1069    1        6.890675458156      49.444999995306      50.000000000000
      1070    1        9.843822090889      47.739999988681      50.000000000000
      1071    1        6.890675458156      52.854999997622      50.000000000000
      1072    1        9.843822090889      51.149999990997      50.000000000000
      1073    2        0.000000000000      40.919999994984      50.000000000000
      1074    2        2.953146621800      42.624999990675      50.000000000000
      1075    2        0.000000000000      44.329999997300      50.000000000000
      1076    2        2.953146621800      46.034999992990      50.000000000000
      1077    2        0.000000000000      47.739999988681      50.000000000000
      1078    2        2.953146621800      49.444999995306      50.000000000000
      1079    2        0.000000000000      51.149999990997      50.000000000000
      1080    2        2.953146621800      52.854999997622      50.000000000000
      1081    2        5.906293254534      40.919999994984      50.000000000000
      1082    2        8.859439876334      42.624999990675      50.000000000000
      1083    2        5.906293254534      44.329999997300      50.000000000000
      1084    2        8.859439876334      46.034999992990      50.000000000000
      1085    2        5.906293254534      47.739999988681      50.000000000000
      1086    2        8.859439876334      49.444999995306      50.000000000000
      1087    2        5.906293254534      51.149999990997      50.000000000000
      1088    2        8.859439876334      52.854999997622      50.000000000000
      1089    1       12.796968712689      42.624999990675      50.000000000000
      1090    1       15.750115345423      40.919999994984      50.000000000000
      1091    1       12.796968712689      46.034999992990      50.000000000000
      1092    1       15.750115345423      44.329999997300      50.000000000000
      1093    1       12.796968712689      49.444999995306      50.000000000000
      1094    1       15.750115345423      47.739999988681      50.000000000000
      1095    1       12.796968712689      52.854999997622      50.000000000000
      1096    1       15.750115345423      51.149999990997      50.000000000000
      1097    1       18.703261967223      42.624999990675      50.000000000000
      1098    1       21.656408599956      40.919999994984      50.000000000000
      1099    1       18.703261967223      46.034999992990      50.000000000000
      1100    1       21.656408599956      44.329999997300      50.000000000000
      1101    1       18.703261967223      49.444999995306      50.000000000000
      1102    1       21.656408599956      47.739999988681      50.000000000000
      1103    1       18.703261967223      52.854999997622      50.000000000000
      1104    1       21.656408599956      51.149999990997      50.000000000000
      1105    2       11.812586509067      40.919999994984      50.000000000000
      1106    2       14.765733130867      42.624999990675      50.000000000000
      1107    2       11.812586509067      44.329999997300      50.000000000000
      1108    2       14.765733130867      46.034999992990      50.000000000000
      1109    2       11.812586509067      47.739999988681      50.000000000000
      1110    2       14.765733130867      49.444999995306      50.000000000000
      1111    2       11.812586509067      51.149999990997      50.000000000000
      1112    2       14.765733130867      52.854999997622      50.000000000000
      1113    2       17.718879763601      40.919999994984      50.000000000000
      1114    2       20.672026385401      42.624999990675      50.000000000000
      1115    2       17.718879763601      44.329999997300      50.000000000000
      1116    2       20.672026385401      46.034999992990      50.000000000000
      1117    2       17.718879763601      47.739999988681      50.000000000000
      1118    2       20.672026385401      49.444999995306      50.000000000000
      1119    2       17.718879763601      51.149999990997      50.000000000000
      1120    2       20.672026385401      52.854999997622      50.000000000000
      1121    1       24.609555221756      42.624999990675      50.000000000000
      1122    1       27.562701854490      40.919999994984      50.000000000000
      1123    1       24.609555221756      46.034999992990      50.000000000000
      1124    1       27.562701854490      44.329999997300      50.000000000000
      1125    1       24.609555221756      49.444999995306      50.000000000000
      1126    1       27.562701854490      47.739999988681      50.000000000000
      1127    1       24.609555221756      52.854999997622      50.000000000000
      1128    1       27.562701854490      51.149999990997      50.000000000000
      1129    1       30.515848476290      42.624999990675      50.000000000000
      1130    1       33.468995109023      40.919999994984      50.000000000000
      1131    1       30.515848476290      46.034999992990      50.000000000000
      1132    1       33.468995109023      44.329999997300      50.000000000000
      1133    1       30.515848476290      49.444999995306      50.000000000000
      1134    1       33.468995109023      47.739999988681      50.000000000000
      1135    1       30.515848476290      52.854999997622      50.000000000000
      1136    1       33.468995109023      51.149999990997      50.000000000000
      1137    2       23.625173018134      40.919999994984      50.000000000000
      1138    2       26.578319639934      42.624999990675      50.000000000000
      1139    2       23.625173018134      44.329999997300      50.000000000000
      1140    2       26.578319639934      46.034999992990      50.000000000000
      1141    2       23.625173018134      47.739999988681      50.000000000000
      1142    2       26.578319639934      49.444999995306      50.000000000000
      1143    2       23.625173018134      51.149999990997      50.000000000000
      1144    2       26.578319639934      52.854999997622      50.000000000000
      1145    2       29.531466272668      40.919999994984      50.000000000000
      1146    2       32.484612894468      42.624999990675      50.000000000000
      1147    2       29.531466272668      44.329999997300      50.000000000000
      1148    2       32.484612894468      46.034999992990      50.000000000000
      1149    2       29.531466272668      47.739999988681      50.000000000000
      1150    2       32.484612894468      49.444999995306      50.000000000000
      1151    2       29.531466272668      51.149999990997      50.000000000000
      1152    2       32.484612894468      52.854999997622      50.000000000000
      1153    1       36.422141730823      42.624999990675      50.000000000000
      1154    1       39.375288363557      40.919999994984      50.000000000000
      1155    1       36.422141730823      46.034999992990      50.000000000000
      1156    1       39.375288363557      44.329999997300      50.000000000000
      1157    1       36.422141730823      49.444999995306      50.000000000000
      1158    1       39.375288363557      47.739999988681      50.000000000000
      1159    1       36.422141730823      52.854999997622      50.000000000000
      1160    1       39.375288363557      51.149999990997      50.000000000000
      1161    1       42.328434985357      42.624999990675      50.000000000000
      1162    1       45.281581618090      40.919999994984      50.000000000000
      1163    1       42.328434985357      46.034999992990      50.000000000000
      1164    1       45.281581618090      44.329999997300      50.000000000000
      1165    1       42.328434985357      49.444999995306      50.000000000000
      1166    1       45.281581618090      47.739999988681      50.000000000000
      1167    1       42.328434985357      52.854999997622      50.000000000000
      1168    1       45.281581618090      51.149999990997      50.000000000000
      1169    2       35.437759527201      40.919999994984      50.000000000000
      1170    2       38.390906149001      42.624999990675      50.000000000000
      1171    2       35.437759527201      44.329999997300      50.000000000000
      1172    2       38.390906149001      46.034999992990      50.000000000000
      1173    2       35.437759527201      47.739999988681      50.000000000000
      1174    2       38.390906149001      49.444999995306      50.000000000000
      1175    2       35.437759527201      51.149999990997      50.000000000000
      1176    2       38.390906149001      52.854999997622      50.000000000000
      1177    2       41.344052781735      40.919999994984      50.000000000000
      1178    2       44.297199403535      42.624999990675      50.000000000000
      1179    2       41.344052781735      44.329999997300      50.000000000000
      1180    2       44.297199403535      46.034999992990      50.000000000000
      1181    2       41.344052781735      47.739999988681      50.000000000000
      1182    2       44.297199403535      49.444999995306      50.000000000000
      1183    2       41.344052781735      51.149999990997      50.000000000000
      1184    2       44.297199403535      52.854999997622      50.000000000000
      1185    1       48.234728239890      42.624999990675      50.000000000000
      1186    1       51.187874872624      40.919999994984      50.000000000000
      1187    1       48.234728239890      46.034999992990      50.000000000000
      1188    1       51.187874872624      44.329999997300      50.000000000000
      1189    1       48.234728239890      49.444999995306      50.000000000000
      1190    1       51.187874872624      47.739999988681      50.000000000000
      1191    1       48.234728239890      52.854999997622      50.000000000000
      1192    1       51.187874872624      51.149999990997      50.000000000000
      1193    1       54.141021494424      42.624999990675      50.000000000000
      1194    1       57.094168127157      40.919999994984      50.000000000000
      1195    1       54.141021494424      46.034999992990      50.000000000000
      1196    1       57.094168127157      44.329999997300      50.000000000000
      1197    1       54.141021494424      49.444999995306      50.000000000000
      1198    1       57.094168127157      47.739999988681      50.000000000000
      1199    1       54.141021494424      52.854999997622      50.000000000000
      1200    1       57.094168127157      51.149999990997      50.000000000000
      1201    2       47.250346036268      40.919999994984      50.000000000000
      1202    2       50.203492658068      42.624999990675      50.000000000000
      1203    2       47.250346036268      44.329999997300      50.000000000000
      1204    2       50.203492658068      46.034999992990      50.000000000000
      1205    2       47.250346036268      47.739999988681      50.000000000000
      1206    2       50.203492658068      49.444999995306      50.000000000000
      1207    2       47.250346036268      51.149999990997      50.000000000000
      1208    2       50.203492658068      52.854999997622      50.000000000000
      1209    2       53.156639290802      40.919999994984      50.000000000000
      1210    2       56.109785912602      42.624999990675      50.000000000000
      1211    2       53.156639290802      44.329999997300      50.000000000000
      1212    2       56.109785912602      46.034999992990      50.000000000000
      1213    2       53.156639290802      47.739999988681      50.000000000000
      1214    2       56.109785912602      49.444999995306      50.000000000000
      1215    2       53.156639290802      51.149999990997      50.000000000000
      1216    2       56.109785912602      52.854999997622      50.000000000000
      1217    1       60.047314748957      42.624999990675      50.000000000000
      1218    1       63.000461381691      40.919999994984      50.000000000000
      1219    1       60.047314748957      46.034999992990      50.000000000000
      1220    1       63.000461381691      44.329999997300      50.000000000000
      1221    1       60.047314748957      49.444999995306      50.000000000000
      1222    1       63.000461381691      47.739999988681      50.000000000000
      1223    1       60.047314748957      52.854999997622      50.000000000000
      1224    1       63.000461381691      51.149999990997      50.000000000000
      1225    1       65.953608003491      42.624999990675      50.000000000000
      1226    1       68.906754636224      40.919999994984      50.000000000000
      1227    1       65.953608003491      46.034999992990      50.000000000000
      1228    1       68.906754636224      44.329999997300      50.000000000000
      1229    1       65.953608003491      49.444999995306      50.000000000000
      1230    1       68.906754636224      47.739999988681      50.000000000000
      1231    1       65.953608003491      52.854999997622      50.000000000000
      1232    1       68.906754636224      51.149999990997      50.000000000000
      1233    2       59.062932545335      40.919999994984      50.000000000000
      1234    2       62.016079167135      42.624999990675      50.000000000000
      1235    2       59.062932545335      44.329999997300      50.000000000000
      1236    2       62.016079167135      46.034999992990      50.000000000000
      1237    2       59.062932545335      47.739999988681      50.000000000000
      1238    2       62.016079167135      49.444999995306      50.000000000000
      1239    2       59.062932545335      51.149999990997      50.000000000000
      1240    2       62.016079167135      52.854999997622      50.000000000000
      1241    2       64.969225799869      40.919999994984      50.000000000000
      1242    2       67.922372421669      42.624999990675      50.000000000000
      1243    2       64.969225799869      44.329999997300      50.000000000000
      1244    2       67.922372421669      46.034999992990      50.000000000000
      1245    2       64.969225799869      47.739999988681      50.000000000000
      1246    2       67.922372421669      49.444999995306      50.000000000000
      1247    2       64.969225799869      51.149999990997      50.000000000000
      1248    2       67.922372421669      52.854999997622      50.000000000000
      1249    1       71.859901258024      42.624999990675      50.000000000000
      1250    1       74.813047890758      40.919999994984      50.000000000000
      1251    1       71.859901258024      46.034999992990      50.000000000000
      1252    1       74.813047890758      44.329999997300      50.000000000000
      1253    1       71.859901258024      49.444999995306      50.000000000000
      1254    1       74.813047890758      47.739999988681      50.000000000000
      1255    1       71.859901258024      52.854999997622      50.000000000000
      1256    1       74.813047890758      51.149999990997      50.000000000000
      1257    1       77.766194512558      42.624999990675      50.000000000000
      1258    1       80.719341145291      40.919999994984      50.000000000000
      1259    1       77.766194512558      46.034999992990      50.000000000000
      1260    1       80.719341145291      44.329999997300      50.000000000000
      1261    1       77.766194512558      49.444999995306      50.000000000000
      1262    1       80.719341145291      47.739999988681      50.000000000000
      1263    1       77.766194512558      52.854999997622      50.000000000000
      1264    1       80.719341145291      51.149999990997      50.000000000000
      1265    2       70.875519054402      40.919999994984      50.000000000000
      1266    2       73.828665676202      42.624999990675      50.000000000000
      1267    2       70.875519054402      44.329999997300      50.000000000000
      1268    2       73.828665676202      46.034999992990      50.000000000000
      1269    2       70.875519054402      47.739999988681      50.000000000000
      1270    2       73.828665676202      49.444999995306      50.000000000000
      1271    2       70.875519054402      51.149999990997      50.000000000000
      1272    2       73.828665676202      52.854999997622      50.000000000000
      1273    2       76.781812308936      40.919999994984      50.000000000000
      1274    2       79.734958930736      42.624999990675      50.000000000000
      1275    2       76.781812308936      44.329999997300      50.000000000000
      1276    2       79.734958930736      46.034999992990      50.000000000000
      1277    2       76.781812308936      47.739999988681      50.000000000000
      1278    2       79.734958930736      49.444999995306      50.000000000000
      1279    2       76.781812308936      51.149999990997      50.000000000000
      1280    2       79.734958930736      52.854999997622      50.000000000000
      1281    1       83.672487767091      42.624999990675      50.000000000000
      1282    1       86.625634399825      40.919999994984      50.000000000000
      1283    1       83.672487767091      46.034999992990      50.000000000000
      1284    1       86.625634399825      44.329999997300      50.000000000000
      1285    1       83.672487767091      49.444999995306      50.000000000000
      1286    1       86.625634399825      47.739999988681      50.000000000000
      1287    1       83.672487767091      52.854999997622      50.000000000000
      1288    1       86.625634399825      51.149999990997      50.000000000000
      1289    1       89.578781021625      42.624999990675      50.000000000000
      1290    1       92.531927654358      40.919999994984      50.000000000000
      1291    1       89.578781021625      46.034999992990      50.000000000000
      1292    1       92.531927654358      44.329999997300      50.000000000000
      1293    1       89.578781021625      49.444999995306      50.000000000000
      1294    1       92.531927654358      47.739999988681      50.000000000000
      1295    1       89.578781021625      52.854999997622      50.000000000000
      1296    1       92.531927654358      51.149999990997      50.000000000000
      1297    2       82.688105563469      40.919999994984      50.000000000000
      1298    2       85.641252185269      42.624999990675      50.000000000000
      1299    2       82.688105563469      44.329999997300      50.000000000000
      1300    2       85.641252185269      46.034999992990      50.000000000000
      1301    2       82.688105563469      47.739999988681      50.000000000000
      1302    2       85.641252185269      49.444999995306      50.000000000000
      1303    2       82.688105563469      51.149999990997      50.000000000000
      1304    2       85.641252185269      52.854999997622      50.000000000000
      1305    2       88.594398818003      40.919999994984      50.000000000000
      1306    2       91.547545439803      42.624999990675      50.000000000000
      1307    2       88.594398818003      44.329999997300      50.000000000000
      1308    2       91.547545439803      46.034999992990      50.000000000000
      1309    2       88.594398818003      47.739999988681      50.000000000000
      1310    2       91.547545439803      49.444999995306      50.000000000000
      1311    2       88.594398818003      51.149999990997      50.000000000000
      1312    2       91.547545439803      52.854999997622      50.000000000000
      1313    1       95.485074276158      42.624999990675      50.000000000000
      1314    1       98.438220908892      40.919999994984      50.000000000000
      1315    1       95.485074276158      46.034999992990      50.000000000000
      1316    1       98.438220908892      44.329999997300      50.000000000000
      1317    1       95.485074276158      49.444999995306      50.000000000000
      1318    1       98.438220908892      47.739999988681      50.000000000000
      1319    1       95.485074276158      52.854999997622      50.000000000000
      1320    1       98.438220908892      51.149999990997      50.000000000000
      1321    1      101.391367530692      42.624999990675      50.000000000000
      1322    1      104.344514163425      40.919999994984      50.000000000000
      1323    1      101.391367530692      46.034999992990      50.000000000000
      1324    1      104.344514163425      44.329999997300      50.000000000000
      1325    1      101.391367530692      49.444999995306      50.000000000000
      1326    1      104.344514163425      47.739999988681      50.000000000000
      1327    1      101.391367530692      52.854999997622      50.000000000000
      1328    1      104.344514163425      51.149999990997      50.000000000000
      1329    2       94.500692072536      40.919999994984      50.000000000000
      1330    2       97.453838694336      42.624999990675      50.000000000000
      1331    2       94.500692072536      44.329999997300      50.000000000000
      1332    2       97.453838694336      46.034999992990      50.000000000000
      1333    2       94.500692072536      47.739999988681      50.000000000000
      1334    2       97.453838694336      49.444999995306      50.000000000000
      1335    2       94.500692072536      51.149999990997      50.000000000000
      1336    2       97.453838694336      52.854999997622      50.000000000000
      1337    2      100.406985327070      40.919999994984      50.000000000000
      1338    2      103.360131948870      42.624999990675      50.000000000000
      1339    2      100.406985327070      44.329999997300      50.000000000000
      1340    2      103.360131948870      46.034999992990      50.000000000000
      1341    2      100.406985327070      47.739999988681      50.000000000000
      1342    2      103.360131948870      49.444999995306      50.000000000000
      1343    2      100.406985327070      51.149999990997      50.000000000000
      1344    2      103.360131948870      52.854999997622      50.000000000000
      1345    1      107.297660785225      42.624999990675      50.000000000000
      1346    1      110.250807417959      40.919999994984      50.000000000000
      1347    1      107.297660785225      46.034999992990      50.000000000000
      1348    1      110.250807417959      44.329999997300      50.000000000000
      1349    1      107.297660785225      49.444999995306      50.000000000000
      1350    1      110.250807417959      47.739999988681      50.000000000000
      1351    1      107.297660785225      52.854999997622      50.000000000000
      1352    1      110.250807417959      51.149999990997      50.000000000000
      1353    1      113.203954039759      42.624999990675      50.000000000000
      1354    1      116.157100672492      40.919999994984      50.000000000000
      1355    1      113.203954039759      46.034999992990      50.000000000000
      1356    1      116.157100672492      44.329999997300      50.000000000000
      1357    1      113.203954039759      49.444999995306      50.000000000000
      1358    1      116.157100672492      47.739999988681      50.000000000000
      1359    1      113.203954039759      52.854999997622      50.000000000000
      1360    1      116.157100672492      51.149999990997      50.000000000000
      1361    2      106.313278581603      40.919999994984      50.000000000000
      1362    2      109.266425203403      42.624999990675      50.000000000000
      1363    2      106.313278581603      44.329999997300      50.000000000000
      1364    2      109.266425203403      46.034999992990      50.000000000000
      1365    2      106.313278581603      47.739999988681      50.000000000000
      1366    2      109.266425203403      49.444999995306      50.000000000000
      1367    2      106.313278581603      51.149999990997      50.000000000000
      1368    2      109.266425203403      52.854999997622      50.000000000000
      1369    2      112.219571836137      40.919999994984      50.000000000000
      1370    2      115.172718457937      42.624999990675      50.000000000000
      1371    2      112.219571836137      44.329999997300      50.000000000000
      1372    2      115.172718457937      46.034999992990      50.000000000000
      1373    2      112.219571836137      47.739999988681      50.000000000000
      1374    2      115.172718457937      49.444999995306      50.000000000000
      1375    2      112.219571836137      51.149999990997      50.000000000000
      1376    2      115.172718457937      52.854999997622      50.000000000000
      1377    1      119.110247294292      42.624999990675      50.000000000000
      1378    1      122.063393927026      40.919999994984      50.000000000000
      1379    1      119.110247294292      46.034999992990      50.000000000000
      1380    1      122.063393927026      44.329999997300      50.000000000000
      1381    1      119.110247294292      49.444999995306      50.000000000000
      1382    1      122.063393927026      47.739999988681      50.000000000000
      1383    1      119.110247294292      52.854999997622      50.000000000000
      1384    1      122.063393927026      51.149999990997      50.000000000000
      1385    1      125.016540548826      42.624999990675      50.000000000000
      1386    1      127.969687181559      40.919999994984      50.000000000000
      1387    1      125.016540548826      46.034999992990      50.000000000000
      1388    1      127.969687181559      44.329999997300      50.000000000000
      1389    1      125.016540548826      49.444999995306      50.000000000000
      1390    1      127.969687181559      47.739999988681      50.000000000000
      1391    1      125.016540548826      52.854999997622      50.000000000000
      1392    1      127.969687181559      51.149999990997      50.000000000000
      1393    2      118.125865090670      40.919999994984      50.000000000000
      1394    2      121.079011712470      42.624999990675      50.000000000000
      1395    2      118.125865090670      44.329999997300      50.000000000000
      1396    2      121.079011712470      46.034999992990      50.000000000000
      1397    2      118.125865090670      47.739999988681      50.000000000000
      1398    2      121.079011712470      49.444999995306      50.000000000000
      1399    2      118.125865090670      51.149999990997      50.000000000000
      1400    2      121.079011712470      52.854999997622      50.000000000000
      1401    2      124.032158345204      40.919999994984      50.000000000000
      1402    2      126.985304967004      42.624999990675      50.000000000000
      1403    2      124.032158345204      44.329999997300      50.000000000000
      1404    2      126.985304967004      46.034999992990      50.000000000000
      1405    2      124.032158345204      47.739999988681      50.000000000000
      1406    2      126.985304967004      49.444999995306      50.000000000000
      1407    2      124.032158345204      51.149999990997      50.000000000000
      1408    2      126.985304967004      52.854999997622      50.000000000000
      1409    1        0.984382203622      56.264999989003      50.000000000000
      1410    1        3.937528836356      54.559999993312      50.000000000000
      1411    1        0.984382203622      59.674999991318      50.000000000000
      1412    1        3.937528836356      57.969999995628      50.000000000000
      1413    1        0.984382203622      63.084999993634      50.000000000000
      1414    1        3.937528836356      61.379999987009      50.000000000000
      1415    1        0.984382203622      66.494999995950      50.000000000000
      1416    1        3.937528836356      64.789999989325      50.000000000000
      1417    1        6.890675458156      56.264999989003      50.000000000000
      1418    1        9.843822090889      54.559999993312      50.000000000000
      1419    1        6.890675458156      59.674999991318      50.000000000000
      1420    1        9.843822090889      57.969999995628      50.000000000000
      1421    1        6.890675458156      63.084999993634      50.000000000000
      1422    1        9.843822090889      61.379999987009      50.000000000000
      1423    1        6.890675458156      66.494999995950      50.000000000000
      1424    1        9.843822090889      64.789999989325      50.000000000000
      1425    2        0.000000000000      54.559999993312      50.000000000000
      1426    2        2.953146621800      56.264999989003      50.000000000000
      1427    2        0.000000000000      57.969999995628      50.000000000000
      1428    2        2.953146621800      59.674999991318      50.000000000000
      1429    2        0.000000000000      61.379999987009      50.000000000000
      1430    2        2.953146621800      63.084999993634      50.000000000000
      1431    2        0.000000000000      64.789999989325      50.000000000000
      1432    2        2.953146621800      66.494999995950      50.000000000000
      1433    2        5.906293254534      54.559999993312      50.000000000000
      1434    2        8.859439876334      56.264999989003      50.000000000000
      1435    2        5.906293254534      57.969999995628      50.000000000000
      1436    2        8.859439876334      59.674999991318      50.000000000000
      1437    2        5.906293254534      61.379999987009      50.000000000000
      1438    2        8.859439876334      63.084999993634      50.000000000000
      1439    2        5.906293254534      64.789999989325      50.000000000000
      1440    2        8.859439876334      66.494999995950      50.000000000000
      1441    1       12.796968712689      56.264999989003      50.000000000000
      1442    1       15.750115345423      54.559999993312      50.000000000000
      1443    1       12.796968712689      59.674999991318      50.000000000000
      1444    1       15.750115345423      57.969999995628      50.000000000000
      1445    1       12.796968712689      63.084999993634      50.000000000000
      1446    1       15.750115345423      61.379999987009      50.000000000000
      1447    1       12.796968712689      66.494999995950      50.000000000000
      1448    1       15.750115345423      64.789999989325      50.000000000000
      1449    1       18.703261967223      56.264999989003      50.000000000000
      1450    1       21.656408599956      54.559999993312      50.000000000000
      1451    1       18.703261967223      59.674999991318      50.000000000000
      1452    1       21.656408599956      57.969999995628      50.000000000000
      1453    1       18.703261967223      63.084999993634      50.000000000000
      1454    1       21.656408599956      61.379999987009      50.000000000000
      1455    1       18.703261967223      66.494999995950      50.000000000000
      1456    1       21.656408599956      64.789999989325      50.000000000000
      1457    2       11.812586509067      54.559999993312      50.000000000000
      1458    2       14.765733130867      56.264999989003      50.000000000000
      1459    2       11.812586509067      57.969999995628      50.000000000000
      1460    2       14.765733130867      59.674999991318      50.000000000000
      1461    2       11.812586509067      61.379999987009      50.000000000000
      1462    2       14.765733130867      63.084999993634      50.000000000000
      1463    2       11.812586509067      64.789999989325      50.000000000000
      1464    2       14.765733130867      66.494999995950      50.000000000000
      1465    2       17.718879763601      54.559999993312      50.000000000000
      1466    2       20.672026385401      56.264999989003      50.000000000000
      1467    2       17.718879763601      57.969999995628      50.000000000000
      1468    2       20.672026385401      59.674999991318      50.000000000000
      1469    2       17.718879763601      61.379999987009      50.000000000000
      1470    2       20.672026385401      63.084999993634      50.000000000000
      1471    2       17.718879763601      64.789999989325      50.000000000000
      1472    2       20.672026385401      66.494999995950      50.000000000000
      1473    1       24.609555221756      56.264999989003      50.000000000000
      1474    1       27.562701854490      54.559999993312      50.000000000000
      1475    1       24.609555221756      59.674999991318      50.000000000000
      1476    1       27.562701854490      57.969999995628      50.000000000000
      1477    1       24.609555221756      63.084999993634      50.000000000000
      1478    1       27.562701854490      61.379999987009      50.000000000000
      1479    1       24.609555221756      66.494999995950      50.000000000000
      1480    1       27.562701854490      64.789999989325      50.000000000000
      1481    1       30.515848476290      56.264999989003      50.000000000000
      1482    1       33.468995109023      54.559999993312      50.000000000000
      1483    1       30.515848476290      59.674999991318      50.000000000000
      1484    1       33.468995109023      57.969999995628      50.000000000000
      1485    1       30.515848476290      63.084999993634      50.000000000000
      1486    1       33.468995109023      61.379999987009      50.000000000000
      1487    1       30.515848476290      66.494999995950      50.000000000000
      1488    1       33.468995109023      64.789999989325      50.000000000000
      1489    2       23.625173018134      54.559999993312      50.000000000000
      1490    2       26.578319639934      56.264999989003      50.000000000000
      1491    2       23.625173018134      57.969999995628      50.000000000000
      1492    2       26.578319639934      59.674999991318      50.000000000000
      1493    2       23.625173018134      61.379999987009      50.000000000000
      1494    2       26.578319639934      63.084999993634      50.000000000000
      1495    2       23.625173018134      64.789999989325      50.000000000000
      1496    2       26.578319639934      66.494999995950      50.000000000000
      1497    2       29.531466272668      54.559999993312      50.000000000000
      1498    2       32.484612894468      56.264999989003      50.000000000000
      1499    2       29.531466272668      57.969999995628      50.000000000000
      1500    2       32.484612894468      59.674999991318      50.000000000000
      1501    2       29.531466272668      61.379999987009      50.000000000000
      1502    2       32.484612894468      63.084999993634      50.000000000000
      1503    2       29.531466272668      64.789999989325      50.000000000000
      1504    2       32.484612894468      66.494999995950      50.000000000000
      1505    1       36.422141730823      56.264999989003      50.000000000000
      1506    1       39.375288363557      54.559999993312      50.000000000000
      1507    1       36.422141730823      59.674999991318      50.000000000000
      1508    1       39.375288363557      57.969999995628      50.000000000000
      1509    1       36.422141730823      63.084999993634      50.000000000000
      1510    1       39.375288363557      61.379999987009      50.000000000000
      1511    1       36.422141730823      66.494999995950      50.000000000000
      1512    1       39.375288363557      64.789999989325      50.000000000000
      1513    1       42.328434985357      56.264999989003      50.000000000000
      1514    1       45.281581618090      54.559999993312      50.000000000000
      1515    1       42.328434985357      59.674999991318      50.000000000000
      1516    1       45.281581618090      57.969999995628      50.000000000000
      1517    1       42.328434985357      63.084999993634      50.000000000000
      1518    1       45.281581618090      61.379999987009      50.000000000000
      1519    1       42.328434985357      66.494999995950      50.000000000000
      1520    1       45.281581618090      64.789999989325      50.000000000000
      1521    2       35.437759527201      54.559999993312      50.000000000000
      1522    2       38.390906149001      56.264999989003      50.000000000000
      1523    2       35.437759527201      57.969999995628      50.000000000000
      1524    2       38.390906149001      59.674999991318      50.000000000000
      1525    2       35.437759527201      61.379999987009      50.000000000000
      1526    2       38.390906149001      63.084999993634      50.000000000000
      1527    2       35.437759527201      64.789999989325      50.000000000000
      1528    2       38.390906149001      66.494999995950      50.000000000000
      1529    2       41.344052781735      54.559999993312      50.000000000000
      1530    2       44.297199403535      56.264999989003      50.000000000000
      1531    2       41.344052781735      57.969999995628      50.000000000000
      1532    2       44.297199403535      59.674999991318      50.000000000000
      1533    2       41.344052781735      61.379999987009      50.000000000000
      1534    2       44.297199403535      63.084999993634      50.000000000000
      1535    2       41.344052781735      64.789999989325      50.000000000000
      1536    2       44.297199403535      66.494999995950      50.000000000000
      1537    1       48.234728239890      56.264999989003      50.000000000000
      1538    1       51.187874872624      54.559999993312      50.000000000000
      1539    1       48.234728239890      59.674999991318      50.000000000000
      1540    1       51.187874872624      57.969999995628      50.000000000000
      1541    1       48.234728239890      63.084999993634      50.000000000000
      1542    1       51.187874872624      61.379999987009      50.000000000000
      1543    1       48.234728239890      66.494999995950      50.000000000000
      1544    1       51.187874872624      64.789999989325      50.000000000000
      1545    1       54.141021494424      56.264999989003      50.000000000000
      1546    1       57.094168127157      54.559999993312      50.000000000000
      1547    1       54.141021494424      59.674999991318      50.000000000000
      1548    1       57.094168127157      57.969999995628      50.000000000000
      1549    1       54.141021494424      63.084999993634      50.000000000000
      1550    1       57.094168127157      61.379999987009      50.000000000000
      1551    1       54.141021494424      66.494999995950      50.000000000000
      1552    1       57.094168127157      64.789999989325      50.000000000000
      1553    2       47.250346036268      54.559999993312      50.000000000000
      1554    2       50.203492658068      56.264999989003      50.000000000000
      1555    2       47.250346036268      57.969999995628      50.000000000000
      1556    2       50.203492658068      59.674999991318      50.000000000000
      1557    2       47.250346036268      61.379999987009      50.000000000000
      1558    2       50.203492658068      63.084999993634      50.000000000000
      1559    2       47.250346036268      64.789999989325      50.000000000000
      1560    2       50.203492658068      66.494999995950      50.000000000000
      1561    2       53.156639290802      54.559999993312      50.000000000000
      1562    2       56.109785912602      56.264999989003      50.000000000000
      1563    2       53.156639290802      57.969999995628      50.000000000000
      1564    2       56.109785912602      59.674999991318      50.000000000000
      1565    2       53.156639290802      61.379999987009      50.000000000000
      1566    2       56.109785912602      63.084999993634      50.000000000000
      1567    2       53.156639290802      64.789999989325      50.000000000000
      1568    2       56.109785912602      66.494999995950      50.000000000000
      1569    1       60.047314748957      56.264999989003      50.000000000000
      1570    1       63.000461381691      54.559999993312      50.000000000000
      1571    1       60.047314748957      59.674999991318      50.000000000000
      1572    1       63.000461381691      57.969999995628      50.000000000000
      1573    1       60.047314748957      63.084999993634      50.000000000000
      1574    1       63.000461381691      61.379999987009      50.000000000000
      1575    1       60.047314748957      66.494999995950      50.000000000000
      1576    1       63.000461381691      64.789999989325      50.000000000000
      1577    1       65.953608003491      56.264999989003      50.000000000000
      1578    1       68.906754636224      54.559999993312      50.000000000000
      1579    1       65.953608003491      59.674999991318      50.000000000000
      1580    1       68.906754636224      57.969999995628      50.000000000000
      1581    1       65.953608003491      63.084999993634      50.000000000000
      1582    1       68.906754636224      61.379999987009      50.000000000000
      1583    1       65.953608003491      66.494999995950      50.000000000000
      1584    1       68.906754636224      64.789999989325      50.000000000000
      1585    2       59.062932545335      54.559999993312      50.000000000000
      1586    2       62.016079167135      56.264999989003      50.000000000000
      1587    2       59.062932545335      57.969999995628      50.000000000000
      1588    2       62.016079167135      59.674999991318      50.000000000000
      1589    2       59.062932545335      61.379999987009      50.000000000000
      1590    2       62.016079167135      63.084999993634      50.000000000000
      1591    2       59.062932545335      64.789999989325      50.000000000000
      1592    2       62.016079167135      66.494999995950      50.000000000000
      1593    2       64.969225799869      54.559999993312      50.000000000000
      1594    2       67.922372421669      56.264999989003      50.000000000000
      1595    2       64.969225799869      57.969999995628      50.000000000000
      1596    2       67.922372421669      59.674999991318      50.000000000000
      1597    2       64.969225799869      61.379999987009      50.000000000000
      1598    2       67.922372421669      63.084999993634      50.000000000000
      1599    2       64.969225799869      64.789999989325      50.000000000000
      1600    2       67.922372421669      66.494999995950      50.000000000000
      1601    1       71.859901258024      56.264999989003      50.000000000000
      1602    1       74.813047890758      54.559999993312      50.000000000000
      1603    1       71.859901258024      59.674999991318      50.000000000000
      1604    1       74.813047890758      57.969999995628      50.000000000000
      1605    1       71.859901258024      63.084999993634      50.000000000000
      1606    1       74.813047890758      61.379999987009      50.000000000000
      1607    1       71.859901258024      66.494999995950      50.000000000000
      1608    1       74.813047890758      64.789999989325      50.000000000000
      1609    1       77.766194512558      56.264999989003      50.000000000000
      1610    1       80.719341145291      54.559999993312      50.000000000000
      1611    1       77.766194512558      59.674999991318      50.000000000000
      1612    1       80.719341145291      57.969999995628      50.000000000000
      1613    1       77.766194512558      63.084999993634      50.000000000000
      1614    1       80.719341145291      61.379999987009      50.000000000000
      1615    1       77.766194512558      66.494999995950      50.000000000000
      1616    1       80.719341145291      64.789999989325      50.000000000000
      1617    2       70.875519054402      54.559999993312      50.000000000000
      1618    2       73.828665676202      56.264999989003      50.000000000000
      1619    2       70.875519054402      57.969999995628      50.000000000000
      1620    2       73.828665676202      59.674999991318      50.000000000000
      1621    2       70.875519054402      61.379999987009      50.000000000000
      1622    2       73.828665676202      63.084999993634      50.000000000000
      1623    2       70.875519054402      64.789999989325      50.000000000000
      1624    2       73.828665676202      66.494999995950      50.000000000000
      1625    2       76.781812308936      54.559999993312      50.000000000000
      1626    2       79.734958930736      56.264999989003      50.000000000000
      1627    2       76.781812308936      57.969999995628      50.000000000000
      1628    2       79.734958930736      59.674999991318      50.000000000000
      1629    2       76.781812308936      61.379999987009      50.000000000000
      1630    2       79.734958930736      63.084999993634      50.000000000000
      1631    2       76.781812308936      64.789999989325      50.000000000000
      1632    2       79.734958930736      66.494999995950      50.000000000000
      1633    1       83.672487767091      56.264999989003      50.000000000000
      1634    1       86.625634399825      54.559999993312      50.000000000000
      1635    1       83.672487767091      59.674999991318      50.000000000000
      1636    1       86.625634399825      57.969999995628      50.000000000000
      1637    1       83.672487767091      63.084999993634      50.000000000000
      1638    1       86.625634399825      61.379999987009      50.000000000000
      1639    1       83.672487767091      66.494999995950      50.000000000000
      1640    1       86.625634399825      64.789999989325      50.000000000000
      1641    1       89.578781021625      56.264999989003      50.000000000000
      1642    1       92.531927654358      54.559999993312      50.000000000000
      1643    1       89.578781021625      59.674999991318      50.000000000000
      1644    1       92.531927654358      57.969999995628      50.000000000000
      1645    1       89.578781021625      63.084999993634      50.000000000000
      1646    1       92.531927654358      61.379999987009      50.000000000000
      1647    1       89.578781021625      66.494999995950      50.000000000000
      1648    1       92.531927654358      64.789999989325      50.000000000000
      1649    2       82.688105563469      54.559999993312      50.000000000000
      1650    2       85.641252185269      56.264999989003      50.000000000000
      1651    2       82.688105563469      57.969999995628      50.000000000000
      1652    2       85.641252185269      59.674999991318      50.000000000000
      1653    2       82.688105563469      61.379999987009      50.000000000000
      1654    2       85.641252185269      63.084999993634      50.000000000000
      1655    2       82.688105563469      64.789999989325      50.000000000000
      1656    2       85.641252185269      66.494999995950      50.000000000000
      1657    2       88.594398818003      54.559999993312      50.000000000000
      1658    2       91.547545439803      56.264999989003      50.000000000000
      1659    2       88.594398818003      57.969999995628      50.000000000000
      1660    2       91.547545439803      59.674999991318      50.000000000000
      1661    2       88.594398818003      61.379999987009      50.000000000000
      1662    2       91.547545439803      63.084999993634      50.000000000000
      1663    2       88.594398818003      64.789999989325      50.000000000000
      1664    2       91.547545439803      66.494999995950      50.000000000000
      1665    1       95.485074276158      56.264999989003      50.000000000000
      1666    1       98.438220908892      54.559999993312      50.000000000000
      1667    1       95.485074276158      59.674999991318      50.000000000000
      1668    1       98.438220908892      57.969999995628      50.000000000000
      1669    1       95.485074276158      63.084999993634      50.000000000000
      1670    1       98.438220908892      61.379999987009      50.000000000000
      1671    1       95.485074276158      66.494999995950      50.000000000000
      1672    1       98.438220908892      64.789999989325      50.000000000000
      1673    1      101.391367530692      56.264999989003      50.000000000000
      1674    1      104.344514163425      54.559999993312      50.000000000000
      1675    1      101.391367530692      59.674999991318      50.000000000000
      1676    1      104.344514163425      57.969999995628      50.000000000000
      1677    1      101.391367530692      63.084999993634      50.000000000000
      1678    1      104.344514163425      61.379999987009      50.000000000000
      1679    1      101.391367530692      66.494999995950      50.000000000000
      1680    1      104.344514163425      64.789999989325      50.000000000000
      1681    2       94.500692072536      54.559999993312      50.000000000000
      1682    2       97.453838694336      56.264999989003      50.000000000000
      1683    2       94.500692072536      57.969999995628      50.000000000000
      1684    2       97.453838694336      59.674999991318      50.000000000000
      1685    2       94.500692072536      61.379999987009      50.000000000000
      1686    2       97.453838694336      63.084999993634      50.000000000000
      1687    2       94.500692072536      64.789999989325      50.000000000000
      1688    2       97.453838694336      66.494999995950      50.000000000000
      1689    2      100.406985327070      54.559999993312      50.000000000000
      1690    2      103.360131948870      56.264999989003      50.000000000000
      1691    2      100.406985327070      57.969999995628      50.000000000000
      1692    2      103.360131948870      59.674999991318      50.000000000000
      1693    2      100.406985327070      61.379999987009      50.000000000000
      1694    2      103.360131948870      63.084999993634      50.000000000000
      1695    2      100.406985327070      64.789999989325      50.000000000000
      1696    2      103.360131948870      66.494999995950      50.000000000000
      1697    1      107.297660785225      56.264999989003      50.000000000000
      1698    1      110.250807417959      54.559999993312      50.000000000000
      1699    1      107.297660785225      59.674999991318      50.000000000000
      1700    1      110.250807417959      57.969999995628      50.000000000000
      1701    1      107.297660785225      63.084999993634      50.000000000000
      1702    1      110.250807417959      61.379999987009      50.000000000000
      1703    1      107.297660785225      66.494999995950      50.000000000000
      1704    1      110.250807417959      64.789999989325      50.000000000000
      1705    1      113.203954039759      56.264999989003      50.000000000000
      1706    1      116.157100672492      54.559999993312      50.000000000000
      1707    1      113.203954039759      59.674999991318      50.000000000000
      1708    1      116.157100672492      57.969999995628      50.000000000000
      1709    1      113.203954039759      63.084999993634      50.000000000000
      1710    1      116.157100672492      61.379999987009      50.000000000000
      1711    1      113.203954039759      66.494999995950      50.000000000000
      1712    1      116.157100672492      64.789999989325      50.000000000000
      1713    2      106.313278581603      54.559999993312      50.000000000000
      1714    2      109.266425203403      56.264999989003      50.000000000000
      1715    2      106.313278581603      57.969999995628      50.000000000000
      1716    2      109.266425203403      59.674999991318      50.000000000000
      1717    2      106.313278581603      61.379999987009      50.000000000000
      1718    2      109.266425203403      63.084999993634      50.000000000000
      1719    2      106.313278581603      64.789999989325      50.000000000000
      1720    2      109.266425203403      66.494999995950      50.000000000000
      1721    2      112.219571836137      54.559999993312      50.000000000000
      1722    2      115.172718457937      56.264999989003      50.000000000000
      1723    2      112.219571836137      57.969999995628      50.000000000000
      1724    2      115.172718457937      59.674999991318      50.000000000000
      1725    2      112.219571836137      61.379999987009      50.000000000000
      1726    2      115.172718457937      63.084999993634      50.000000000000
      1727    2      112.219571836137      64.789999989325      50.000000000000
      1728    2      115.172718457937      66.494999995950      50.000000000000
      1729    1      119.110247294292      56.264999989003      50.000000000000
      1730    1      122.063393927026      54.559999993312      50.000000000000
      1731    1      119.110247294292      59.674999991318      50.000000000000
      1732    1      122.063393927026      57.969999995628      50.000000000000
      1733    1      119.110247294292      63.084999993634      50.000000000000
      1734    1      122.063393927026      61.379999987009      50.000000000000
      1735    1      119.110247294292      66.494999995950      50.000000000000
      1736    1      122.063393927026      64.789999989325      50.000000000000
      1737    1      125.016540548826      56.264999989003      50.000000000000
      1738    1      127.969687181559      54.559999993312      50.000000000000
      1739    1      125.016540548826      59.674999991318      50.000000000000
      1740    1      127.969687181559      57.969999995628      50.000000000000
      1741    1      125.016540548826      63.084999993634      50.000000000000
      1742    1      127.969687181559      61.379999987009      50.000000000000
      1743    1      125.016540548826      66.494999995950      50.000000000000
      1744    1      127.969687181559      64.789999989325      50.000000000000
      1745    2      118.125865090670      54.559999993312      50.000000000000
      1746    2      121.079011712470      56.264999989003      50.000000000000
      1747    2      118.125865090670      57.969999995628      50.000000000000
      1748    2      121.079011712470      59.674999991318      50.000000000000
      1749    2      118.125865090670      61.379999987009      50.000000000000
      1750    2      121.079011712470      63.084999993634      50.000000000000
      1751    2      118.125865090670      64.789999989325      50.000000000000
      1752    2      121.079011712470      66.494999995950      50.000000000000
      1753    2      124.032158345204      54.559999993312      50.000000000000
      1754    2      126.985304967004      56.264999989003      50.000000000000
      1755    2      124.032158345204      57.969999995628      50.000000000000
      1756    2      126.985304967004      59.674999991318      50.000000000000
      1757    2      124.032158345204      61.379999987009      50.000000000000
      1758    2      126.985304967004      63.084999993634      50.000000000000
      1759    2      124.032158345204      64.789999989325      50.000000000000
      1760    2      126.985304967004      66.494999995950      50.000000000000
      1761    1        0.984382203622      69.904999987331      50.000000000000
      1762    1        3.937528836356      68.199999991640      50.000000000000
      1763    1        0.984382203622      73.314999989646      50.000000000000
      1764    1        3.937528836356      71.609999993956      50.000000000000
      1765    1        0.984382203622      76.724999991962      50.000000000000
      1766    1        3.937528836356      75.019999985337      50.000000000000
      1767    1        0.984382203622      80.134999994278      50.000000000000
      1768    1        3.937528836356      78.429999987653      50.000000000000
      1769    1        6.890675458156      69.904999987331      50.000000000000
      1770    1        9.843822090889      68.199999991640      50.000000000000
      1771    1        6.890675458156      73.314999989646      50.000000000000
      1772    1        9.843822090889      71.609999993956      50.000000000000
      1773    1        6.890675458156      76.724999991962      50.000000000000
      1774    1        9.843822090889      75.019999985337      50.000000000000
      1775    1        6.890675458156      80.134999994278      50.000000000000
      1776    1        9.843822090889      78.429999987653      50.000000000000
      1777    2        0.000000000000      68.199999991640      50.000000000000
      1778    2        2.953146621800      69.904999987331      50.000000000000
      1779    2        0.000000000000      71.609999993956      50.000000000000
      1780    2        2.953146621800      73.314999989646      50.000000000000
      1781    2        0.000000000000      75.019999985337      50.000000000000
      1782    2        2.953146621800      76.724999991962      50.000000000000
      1783    2        0.000000000000      78.429999987653      50.000000000000
      1784    2        2.953146621800      80.134999994278      50.000000000000
      1785    2        5.906293254534      68.199999991640      50.000000000000
      1786    2        8.859439876334      69.904999987331      50.000000000000
      1787    2        5.906293254534      71.609999993956      50.000000000000
      1788    2        8.859439876334      73.314999989646      50.000000000000
      1789    2        5.906293254534      75.019999985337      50.000000000000
      1790    2        8.859439876334      76.724999991962      50.000000000000
      1791    2        5.906293254534      78.429999987653      50.000000000000
      1792    2        8.859439876334      80.134999994278      50.000000000000
      1793    1       12.796968712689      69.904999987331      50.000000000000
      1794    1       15.750115345423      68.199999991640      50.000000000000
      1795    1       12.796968712689      73.314999989646      50.000000000000
      1796    1       15.750115345423      71.609999993956      50.000000000000
      1797    1       12.796968712689      76.724999991962      50.000000000000
      1798    1       15.750115345423      75.019999985337      50.000000000000
      1799    1       12.796968712689      80.134999994278      50.000000000000
      1800    1       15.750115345423      78.429999987653      50.000000000000
      1801    1       18.703261967223      69.904999987331      50.000000000000
      1802    1       21.656408599956      68.199999991640      50.000000000000
      1803    1       18.703261967223      73.314999989646      50.000000000000
      1804    1       21.656408599956      71.609999993956      50.000000000000
      1805    1       18.703261967223      76.724999991962      50.000000000000
      1806    1       21.656408599956      75.019999985337      50.000000000000
      1807    1       18.703261967223      80.134999994278      50.000000000000
      1808    1       21.656408599956      78.429999987653      50.000000000000
      1809    2       11.812586509067      68.199999991640      50.000000000000
      1810    2       14.765733130867      69.904999987331      50.000000000000
      1811    2       11.812586509067      71.609999993956      50.000000000000
      1812    2       14.765733130867      73.314999989646      50.000000000000
      1813    2       11.812586509067      75.019999985337      50.000000000000
      1814    2       14.765733130867      76.724999991962      50.000000000000
      1815    2       11.812586509067      78.429999987653      50.000000000000
      1816    2       14.765733130867      80.134999994278      50.000000000000
      1817    2       17.718879763601      68.199999991640      50.000000000000
      1818    2       20.672026385401      69.904999987331      50.000000000000
      1819    2       17.718879763601      71.609999993956      50.000000000000
      1820    2       20.672026385401      73.314999989646      50.000000000000
      1821    2       17.718879763601      75.019999985337      50.000000000000
      1822    2       20.672026385401      76.724999991962      50.000000000000
      1823    2       17.718879763601      78.429999987653      50.000000000000
      1824    2       20.672026385401      80.134999994278      50.000000000000
      1825    1       24.609555221756      69.904999987331      50.000000000000
      1826    1       27.562701854490      68.199999991640      50.000000000000
      1827    1       24.609555221756      73.314999989646      50.000000000000
      1828    1       27.562701854490      71.609999993956      50.000000000000
      1829    1       24.609555221756      76.724999991962      50.000000000000
      1830    1       27.562701854490      75.019999985337      50.000000000000
      1831    1       24.609555221756      80.134999994278      50.000000000000
      1832    1       27.562701854490      78.429999987653      50.000000000000
      1833    1       30.515848476290      69.904999987331      50.000000000000
      1834    1       33.468995109023      68.199999991640      50.000000000000
      1835    1       30.515848476290      73.314999989646      50.000000000000
      1836    1       33.468995109023      71.609999993956      50.000000000000
      1837    1       30.515848476290      76.724999991962      50.000000000000
      1838    1       33.468995109023      75.019999985337      50.000000000000
      1839    1       30.515848476290      80.134999994278      50.000000000000
      1840    1       33.468995109023      78.429999987653      50.000000000000
      1841    2       23.625173018134      68.199999991640      50.000000000000
      1842    2       26.578319639934      69.904999987331      50.000000000000
      1843    2       23.625173018134      71.609999993956      50.000000000000
      1844    2       26.578319639934      73.314999989646      50.000000000000
      1845    2       23.625173018134      75.019999985337      50.000000000000
      1846    2       26.578319639934      76.724999991962      50.000000000000
      1847    2       23.625173018134      78.429999987653      50.000000000000
      1848    2       26.578319639934      80.134999994278      50.000000000000
      1849    2       29.531466272668      68.199999991640      50.000000000000
      1850    2       32.484612894468      69.904999987331      50.000000000000
      1851    2       29.531466272668      71.609999993956      50.000000000000
      1852    2       32.484612894468      73.314999989646      50.000000000000
      1853    2       29.531466272668      75.019999985337      50.000000000000
      1854    2       32.484612894468      76.724999991962      50.000000000000
      1855    2       29.531466272668      78.429999987653      50.000000000000
      1856    2       32.484612894468      80.134999994278      50.000000000000
      1857    1       36.422141730823      69.904999987331      50.000000000000
      1858    1       39.375288363557      68.199999991640      50.000000000000
      1859    1       36.422141730823      73.314999989646      50.000000000000
      1860    1       39.375288363557      71.609999993956      50.000000000000
      1861    1       36.422141730823      76.724999991962      50.000000000000
      1862    1       39.375288363557      75.019999985337      50.000000000000
      1863    1       36.422141730823      80.134999994278      50.000000000000
      1864    1       39.375288363557      78.429999987653      50.000000000000
      1865    1       42.328434985357      69.904999987331      50.000000000000
      1866    1       45.281581618090      68.199999991640      50.000000000000
      1867    1       42.328434985357      73.314999989646      50.000000000000
      1868    1       45.281581618090      71.609999993956      50.000000000000
      1869    1       42.328434985357      76.724999991962      50.000000000000
      1870    1       45.281581618090      75.019999985337      50.000000000000
      1871    1       42.328434985357      80.134999994278      50.000000000000
      1872    1       45.281581618090      78.429999987653      50.000000000000
      1873    2       35.437759527201      68.199999991640      50.000000000000
      1874    2       38.390906149001      69.904999987331      50.000000000000
      1875    2       35.437759527201      71.609999993956      50.000000000000
      1876    2       38.390906149001      73.314999989646      50.000000000000
      1877    2       35.437759527201      75.019999985337      50.000000000000
      1878    2       38.390906149001      76.724999991962      50.000000000000
      1879    2       35.437759527201      78.429999987653      50.000000000000
      1880    2       38.390906149001      80.134999994278      50.000000000000
      1881    2       41.344052781735      68.199999991640      50.000000000000
      1882    2       44.297199403535      69.904999987331      50.000000000000
      1883    2       41.344052781735      71.609999993956      50.000000000000
      1884    2       44.297199403535      73.314999989646      50.000000000000
      1885    2       41.344052781735      75.019999985337      50.000000000000
      1886    2       44.297199403535      76.724999991962      50.000000000000
      1887    2       41.344052781735      78.429999987653      50.000000000000
      1888    2       44.297199403535      80.134999994278      50.000000000000
      1889    1       48.234728239890      69.904999987331      50.000000000000
      1890    1       51.187874872624      68.199999991640      50.000000000000
      1891    1       48.234728239890      73.314999989646      50.000000000000
      1892    1       51.187874872624      71.609999993956      50.000000000000
      1893    1       48.234728239890      76.724999991962      50.000000000000
      1894    1       51.187874872624      75.019999985337      50.000000000000
      1895    1       48.234728239890      80.134999994278      50.000000000000
      1896    1       51.187874872624      78.429999987653      50.000000000000
      1897    1       54.141021494424      69.904999987331      50.000000000000
      1898    1       57.094168127157      68.199999991640      50.000000000000
      1899    1       54.141021494424      73.314999989646      50.000000000000
      1900    1       57.094168127157      71.609999993956      50.000000000000
      1901    1       54.141021494424      76.724999991962      50.000000000000
      1902    1       57.094168127157      75.019999985337      50.000000000000
      1903    1       54.141021494424      80.134999994278      50.000000000000
      1904    1       57.094168127157      78.429999987653      50.000000000000
      1905    2       47.250346036268      68.199999991640      50.000000000000
      1906    2       50.203492658068      69.904999987331      50.000000000000
      1907    2       47.250346036268      71.609999993956      50.000000000000
      1908    2       50.203492658068      73.314999989646      50.000000000000
      1909    2       47.250346036268      75.019999985337      50.000000000000
      1910    2       50.203492658068      76.724999991962      50.000000000000
      1911    2       47.250346036268      78.429999987653      50.000000000000
      1912    2       50.203492658068      80.134999994278      50.000000000000
      1913    2       53.156639290802      68.199999991640      50.000000000000
      1914    2       56.109785912602      69.904999987331      50.000000000000
      1915    2       53.156639290802      71.609999993956      50.000000000000
      1916    2       56.109785912602      73.314999989646      50.000000000000
      1917    2       53.156639290802      75.019999985337      50.000000000000
      1918    2       56.109785912602      76.724999991962      50.000000000000
      1919    2       53.156639290802      78.429999987653      50.000000000000
      1920    2       56.109785912602      80.134999994278      50.000000000000
      1921    1       60.047314748957      69.904999987331      50.000000000000
      1922    1       63.000461381691      68.199999991640      50.000000000000
      1923    1       60.047314748957      73.314999989646      50.000000000000
      1924    1       63.000461381691      71.609999993956      50.000000000000
      1925    1       60.047314748957      76.724999991962      50.000000000000
      1926    1       63.000461381691      75.019999985337      50.000000000000
      1927    1       60.047314748957      80.134999994278      50.000000000000
      1928    1       63.000461381691      78.429999987653      50.000000000000
      1929    1       65.953608003491      69.904999987331      50.000000000000
      1930    1       68.906754636224      68.199999991640      50.000000000000
      1931    1       65.953608003491      73.314999989646      50.000000000000
      1932    1       68.906754636224      71.609999993956      50.000000000000
      1933    1       65.953608003491      76.724999991962      50.000000000000
      1934    1       68.906754636224      75.019999985337      50.000000000000
      1935    1       65.953608003491      80.134999994278      50.000000000000
      1936    1       68.906754636224      78.429999987653      50.000000000000
      1937    2       59.062932545335      68.199999991640      50.000000000000
      1938    2       62.016079167135      69.904999987331      50.000000000000
      1939    2       59.062932545335      71.609999993956      50.000000000000
      1940    2       62.016079167135      73.314999989646      50.000000000000
      1941    2       59.062932545335      75.019999985337      50.000000000000
      1942    2       62.016079167135      76.724999991962      50.000000000000
      1943    2       59.062932545335      78.429999987653      50.000000000000
      1944    2       62.016079167135      80.134999994278      50.000000000000
      1945    2       64.969225799869      68.199999991640      50.000000000000
      1946    2       67.922372421669      69.904999987331      50.000000000000
      1947    2       64.969225799869      71.609999993956      50.000000000000
      1948    2       67.922372421669      73.314999989646      50.000000000000
      1949    2       64.969225799869      75.019999985337      50.000000000000
      1950    2       67.922372421669      76.724999991962      50.000000000000
      1951    2       64.969225799869      78.429999987653      50.000000000000
      1952    2       67.922372421669      80.134999994278      50.000000000000
      1953    1       71.859901258024      69.904999987331      50.000000000000
      1954    1       74.813047890758      68.199999991640      50.000000000000
      1955    1       71.859901258024      73.314999989646      50.000000000000
      1956    1       74.813047890758      71.609999993956      50.000000000000
      1957    1       71.859901258024      76.724999991962      50.000000000000
      1958    1       74.813047890758      75.019999985337      50.000000000000
      1959    1       71.859901258024      80.134999994278      50.000000000000
      1960    1       74.813047890758      78.429999987653      50.000000000000
      1961    1       77.766194512558      69.904999987331      50.000000000000
      1962    1       80.719341145291      68.199999991640      50.000000000000
      1963    1       77.766194512558      73.314999989646      50.000000000000
      1964    1       80.719341145291      71.609999993956      50.000000000000
      1965    1       77.766194512558      76.724999991962      50.000000000000
      1966    1       80.719341145291      75.019999985337      50.000000000000
      1967    1       77.766194512558      80.134999994278      50.000000000000
      1968    1       80.719341145291      78.429999987653      50.000000000000
      1969    2       70.875519054402      68.199999991640      50.000000000000
      1970    2       73.828665676202      69.904999987331      50.000000000000
      1971    2       70.875519054402      71.609999993956      50.000000000000
      1972    2       73.828665676202      73.314999989646      50.000000000000
      1973    2       70.875519054402      75.019999985337      50.000000000000
      1974    2       73.828665676202      76.724999991962      50.000000000000
      1975    2       70.875519054402      78.429999987653      50.000000000000
      1976    2       73.828665676202      80.134999994278      50.000000000000
      1977    2       76.781812308936      68.199999991640      50.000000000000
      1978    2       79.734958930736      69.904999987331      50.000000000000
      1979    2       76.781812308936      71.609999993956      50.000000000000
      1980    2       79.734958930736      73.314999989646      50.000000000000
      1981    2       76.781812308936      75.019999985337      50.000000000000
      1982    2       79.734958930736      76.724999991962      50.000000000000
      1983    2       76.781812308936      78.429999987653      50.000000000000
      1984    2       79.734958930736      80.134999994278      50.000000000000
      1985    1       83.672487767091      69.904999987331      50.000000000000
      1986    1       86.625634399825      68.199999991640      50.000000000000
      1987    1       83.672487767091      73.314999989646      50.000000000000
      1988    1       86.625634399825      71.609999993956      50.000000000000
      1989    1       83.672487767091      76.724999991962      50.000000000000
      1990    1       86.625634399825      75.019999985337      50.000000000000
      1991    1       83.672487767091      80.134999994278      50.000000000000
      1992    1       86.625634399825      78.429999987653      50.000000000000
      1993    1       89.578781021625      69.904999987331      50.000000000000
      1994    1       92.531927654358      68.199999991640      50.000000000000
      1995    1       89.578781021625      73.314999989646      50.000000000000
      1996    1       92.531927654358      71.609999993956      50.000000000000
      1997    1       89.578781021625      76.724999991962      50.000000000000
      1998    1       92.531927654358      75.019999985337      50.000000000000
      1999    1       89.578781021625      80.134999994278      50.000000000000
      2000    1       92.531927654358      78.429999987653      50.000000000000
      2001    2       82.688105563469      68.199999991640      50.000000000000
      2002    2       85.641252185269      69.904999987331      50.000000000000
      2003    2       82.688105563469      71.609999993956      50.000000000000
      2004    2       85.641252185269      73.314999989646      50.000000000000
      2005    2       82.688105563469      75.019999985337      50.000000000000
      2006    2       85.641252185269      76.724999991962      50.000000000000
      2007    2       82.688105563469      78.429999987653      50.000000000000
      2008    2       85.641252185269      80.134999994278      50.000000000000
      2009    2       88.594398818003      68.199999991640      50.000000000000
      2010    2       91.547545439803      69.904999987331      50.000000000000
      2011    2       88.594398818003      71.609999993956      50.000000000000
      2012    2       91.547545439803      73.314999989646      50.000000000000
      2013    2       88.594398818003      75.019999985337      50.000000000000
      2014    2       91.547545439803      76.724999991962      50.000000000000
      2015    2       88.594398818003      78.429999987653      50.000000000000
      2016    2       91.547545439803      80.134999994278      50.000000000000
      2017    1       95.485074276158      69.904999987331      50.000000000000
      2018    1       98.438220908892      68.199999991640      50.000000000000
      2019    1       95.485074276158      73.314999989646      50.000000000000
      2020    1       98.438220908892      71.609999993956      50.000000000000
      2021    1       95.485074276158      76.724999991962      50.000000000000
      2022    1       98.438220908892      75.019999985337      50.000000000000
      2023    1       95.485074276158      80.134999994278      50.000000000000
      2024    1       98.438220908892      78.429999987653      50.000000000000
      2025    1      101.391367530692      69.904999987331      50.000000000000
      2026    1      104.344514163425      68.199999991640      50.000000000000
      2027    1      101.391367530692      73.314999989646      50.000000000000
      2028    1      104.344514163425      71.609999993956      50.000000000000
      2029    1      101.391367530692      76.724999991962      50.000000000000
      2030    1      104.344514163425      75.019999985337      50.000000000000
      2031    1      101.391367530692      80.134999994278      50.000000000000
      2032    1      104.344514163425      78.429999987653      50.000000000000
      2033    2       94.500692072536      68.199999991640      50.000000000000
      2034    2       97.453838694336      69.904999987331      50.000000000000
      2035    2       94.500692072536      71.609999993956      50.000000000000
      2036    2       97.453838694336      73.314999989646      50.000000000000
      2037    2       94.500692072536      75.019999985337      50.000000000000
      2038    2       97.453838694336      76.724999991962      50.000000000000
      2039    2       94.500692072536      78.429999987653      50.000000000000
      2040    2       97.453838694336      80.134999994278      50.000000000000
      2041    2      100.406985327070      68.199999991640      50.000000000000
      2042    2      103.360131948870      69.904999987331      50.000000000000
      2043    2      100.406985327070      71.609999993956      50.000000000000
      2044    2      103.360131948870      73.314999989646      50.000000000000
      2045    2      100.406985327070      75.019999985337      50.000000000000
      2046    2      103.360131948870      76.724999991962      50.000000000000
      2047    2      100.406985327070      78.429999987653      50.000000000000
      2048    2      103.360131948870      80.134999994278      50.000000000000
      2049    1      107.297660785225      69.904999987331      50.000000000000
      2050    1      110.250807417959      68.199999991640      50.000000000000
      2051    1      107.297660785225      73.314999989646      50.000000000000
      2052    1      110.250807417959      71.609999993956      50.000000000000
      2053    1      107.297660785225      76.724999991962      50.000000000000
      2054    1      110.250807417959      75.019999985337      50.000000000000
      2055    1      107.297660785225      80.134999994278      50.000000000000
      2056    1      110.250807417959      78.429999987653      50.000000000000
      2057    1      113.203954039759      69.904999987331      50.000000000000
      2058    1      116.157100672492      68.199999991640      50.000000000000
      2059    1      113.203954039759      73.314999989646      50.000000000000
      2060    1      116.157100672492      71.609999993956      50.000000000000
      2061    1      113.203954039759      76.724999991962      50.000000000000
      2062    1      116.157100672492      75.019999985337      50.000000000000
      2063    1      113.203954039759      80.134999994278      50.000000000000
      2064    1      116.157100672492      78.429999987653      50.000000000000
      2065    2      106.313278581603      68.199999991640      50.000000000000
      2066    2      109.266425203403      69.904999987331      50.000000000000
      2067    2      106.313278581603      71.609999993956      50.000000000000
      2068    2      109.266425203403      73.314999989646      50.000000000000
      2069    2      106.313278581603      75.019999985337      50.000000000000
      2070    2      109.266425203403      76.724999991962      50.000000000000
      2071    2      106.313278581603      78.429999987653      50.000000000000
      2072    2      109.266425203403      80.134999994278      50.000000000000
      2073    2      112.219571836137      68.199999991640      50.000000000000
      2074    2      115.172718457937      69.904999987331      50.000000000000
      2075    2      112.219571836137      71.609999993956      50.000000000000
      2076    2      115.172718457937      73.314999989646      50.000000000000
      2077    2      112.219571836137      75.019999985337      50.000000000000
      2078    2      115.172718457937      76.724999991962      50.000000000000
      2079    2      112.219571836137      78.429999987653      50.000000000000
      2080    2      115.172718457937      80.134999994278      50.000000000000
      2081    1      119.110247294292      69.904999987331      50.000000000000
      2082    1      122.063393927026      68.199999991640      50.000000000000
      2083    1      119.110247294292      73.314999989646      50.000000000000
      2084    1      122.063393927026      71.609999993956      50.000000000000
      2085    1      119.110247294292      76.724999991962      50.000000000000
      2086    1      122.063393927026      75.019999985337      50.000000000000
      2087    1      119.110247294292      80.134999994278      50.000000000000
      2088    1      122.063393927026      78.429999987653      50.000000000000
      2089    1      125.016540548826      69.904999987331      50.000000000000
      2090    1      127.969687181559      68.199999991640      50.000000000000
      2091    1      125.016540548826      73.314999989646      50.000000000000
      2092    1      127.969687181559      71.609999993956      50.000000000000
      2093    1      125.016540548826      76.724999991962      50.000000000000
      2094    1      127.969687181559      75.019999985337      50.000000000000
      2095    1      125.016540548826      80.134999994278      50.000000000000
      2096    1      127.969687181559      78.429999987653      50.000000000000
      2097    2      118.125865090670      68.199999991640      50.000000000000
      2098    2      121.079011712470      69.904999987331      50.000000000000
      2099    2      118.125865090670      71.609999993956      50.000000000000
      2100    2      121.079011712470      73.314999989646      50.000000000000
      2101    2      118.125865090670      75.019999985337      50.000000000000
      2102    2      121.079011712470      76.724999991962      50.000000000000
      2103    2      118.125865090670      78.429999987653      50.000000000000
      2104    2      121.079011712470      80.134999994278      50.000000000000
      2105    2      124.032158345204      68.199999991640      50.000000000000
      2106    2      126.985304967004      69.904999987331      50.000000000000
      2107    2      124.032158345204      71.609999993956      50.000000000000
      2108    2      126.985304967004      73.314999989646      50.000000000000
      2109    2      124.032158345204      75.019999985337      50.000000000000
      2110    2      126.985304967004      76.724999991962      50.000000000000
      2111    2      124.032158345204      78.429999987653      50.000000000000
      2112    2      126.985304967004      80.134999994278      50.000000000000
      2113    1        0.984382203622      83.544999985659      50.000000000000
      2114    1        3.937528836356      81.839999989968      50.000000000000
      2115    1        0.984382203622      86.954999987974      50.000000000000
      2116    1        3.937528836356      85.249999992284      50.000000000000
      2117    1        0.984382203622      90.364999990290      50.000000000000
      2118    1        3.937528836356      88.659999983665      50.000000000000
      2119    1        0.984382203622      93.774999992606      50.000000000000
      2120    1        3.937528836356      92.069999985981      50.000000000000
      2121    1        6.890675458156      83.544999985659      50.000000000000
      2122    1        9.843822090889      81.839999989968      50.000000000000
      2123    1        6.890675458156      86.954999987974      50.000000000000
      2124    1        9.843822090889      85.249999992284      50.000000000000
      2125    1        6.890675458156      90.364999990290      50.000000000000
      2126    1        9.843822090889      88.659999983665      50.000000000000
      2127    1        6.890675458156      93.774999992606      50.000000000000
      2128    1        9.843822090889      92.069999985981      50.000000000000
      2129    2        0.000000000000      81.839999989968      50.000000000000
      2130    2        2.953146621800      83.544999985659      50.000000000000
      2131    2        0.000000000000      85.249999992284      50.000000000000
      2132    2        2.953146621800      86.954999987974      50.000000000000
      2133    2        0.000000000000      88.659999983665      50.000000000000
      2134    2        2.953146621800      90.364999990290      50.000000000000
      2135    2        0.000000000000      92.069999985981      50.000000000000
      2136    2        2.953146621800      93.774999992606      50.000000000000
      2137    2        5.906293254534      81.839999989968      50.000000000000
      2138    2        8.859439876334      83.544999985659      50.000000000000
      2139    2        5.906293254534      85.249999992284      50.000000000000
      2140    2        8.859439876334      86.954999987974      50.000000000000
      2141    2        5.906293254534      88.659999983665      50.000000000000
      2142    2        8.859439876334      90.364999990290      50.000000000000
      2143    2        5.906293254534      92.069999985981      50.000000000000
      2144    2        8.859439876334      93.774999992606      50.000000000000
      2145    1       12.796968712689      83.544999985659      50.000000000000
      2146    1       15.750115345423      81.839999989968      50.000000000000
      2147    1       12.796968712689      86.954999987974      50.000000000000
      2148    1       15.750115345423      85.249999992284      50.000000000000
      2149    1       12.796968712689      90.364999990290      50.000000000000
      2150    1       15.750115345423      88.659999983665      50.000000000000
      2151    1       12.796968712689      93.774999992606      50.000000000000
      2152    1       15.750115345423      92.069999985981      50.000000000000
      2153    1       18.703261967223      83.544999985659      50.000000000000
      2154    1       21.656408599956      81.839999989968      50.000000000000
      2155    1       18.703261967223      86.954999987974      50.000000000000
      2156    1       21.656408599956      85.249999992284      50.000000000000
      2157    1       18.703261967223      90.364999990290      50.000000000000
      2158    1       21.656408599956      88.659999983665      50.000000000000
      2159    1       18.703261967223      93.774999992606      50.000000000000
      2160    1       21.656408599956      92.069999985981      50.000000000000
      2161    2       11.812586509067      81.839999989968      50.000000000000
      2162    2       14.765733130867      83.544999985659      50.000000000000
      2163    2       11.812586509067      85.249999992284      50.000000000000
      2164    2       14.765733130867      86.954999987974      50.000000000000
      2165    2       11.812586509067      88.659999983665      50.000000000000
      2166    2       14.765733130867      90.364999990290      50.000000000000
      2167    2       11.812586509067      92.069999985981      50.000000000000
      2168    2       14.765733130867      93.774999992606      50.000000000000
      2169    2       17.718879763601      81.839999989968      50.000000000000
      2170    2       20.672026385401      83.544999985659      50.000000000000
      2171    2       17.718879763601      85.249999992284      50.000000000000
      2172    2       20.672026385401      86.954999987974      50.000000000000
      2173    2       17.718879763601      88.659999983665      50.000000000000
      2174    2       20.672026385401      90.364999990290      50.000000000000
      2175    2       17.718879763601      92.069999985981      50.000000000000
      2176    2       20.672026385401      93.774999992606      50.000000000000
      2177    1       24.609555221756      83.544999985659      50.000000000000
      2178    1       27.562701854490      81.839999989968      50.000000000000
      2179    1       24.609555221756      86.954999987974      50.000000000000
      2180    1       27.562701854490      85.249999992284      50.000000000000
      2181    1       24.609555221756      90.364999990290      50.000000000000
      2182    1       27.562701854490      88.659999983665      50.000000000000
      2183    1       24.609555221756      93.774999992606      50.000000000000
      2184    1       27.562701854490      92.069999985981      50.000000000000
      2185    1       30.515848476290      83.544999985659      50.000000000000
      2186    1       33.468995109023      81.839999989968      50.000000000000
      2187    1       30.515848476290      86.954999987974      50.000000000000
      2188    1       33.468995109023      85.249999992284      50.000000000000
      2189    1       30.515848476290      90.364999990290      50.000000000000
      2190    1       33.468995109023      88.659999983665      50.000000000000
      2191    1       30.515848476290      93.774999992606      50.000000000000
      2192    1       33.468995109023      92.069999985981      50.000000000000
      2193    2       23.625173018134      81.839999989968      50.000000000000
      2194    2       26.578319639934      83.544999985659      50.000000000000
      2195    2       23.625173018134      85.249999992284      50.000000000000
      2196    2       26.578319639934      86.954999987974      50.000000000000
      2197    2       23.625173018134      88.659999983665      50.000000000000
      2198    2       26.578319639934      90.364999990290      50.000000000000
      2199    2       23.625173018134      92.069999985981      50.000000000000
      2200    2       26.578319639934      93.774999992606      50.000000000000
      2201    2       29.531466272668      81.839999989968      50.000000000000
      2202    2       32.484612894468      83.544999985659      50.000000000000
      2203    2       29.531466272668      85.249999992284      50.000000000000
      2204    2       32.484612894468      86.954999987974      50.000000000000
      2205    2       29.531466272668      88.659999983665      50.000000000000
      2206    2       32.484612894468      90.364999990290      50.000000000000
      2207    2       29.531466272668      92.069999985981      50.000000000000
      2208    2       32.484612894468      93.774999992606      50.000000000000
      2209    1       36.422141730823      83.544999985659      50.000000000000
      2210    1       39.375288363557      81.839999989968      50.000000000000
      2211    1       36.422141730823      86.954999987974      50.000000000000
      2212    1       39.375288363557      85.249999992284      50.000000000000
      2213    1       36.422141730823      90.364999990290      50.000000000000
      2214    1       39.375288363557      88.659999983665      50.000000000000
      2215    1       36.422141730823      93.774999992606      50.000000000000
      2216    1       39.375288363557      92.069999985981      50.000000000000
      2217    1       42.328434985357      83.544999985659      50.000000000000
      2218    1       45.281581618090      81.839999989968      50.000000000000
      2219    1       42.328434985357      86.954999987974      50.000000000000
      2220    1       45.281581618090      85.249999992284      50.000000000000
      2221    1       42.328434985357      90.364999990290      50.000000000000
      2222    1       45.281581618090      88.659999983665      50.000000000000
      2223    1       42.328434985357      93.774999992606      50.000000000000
      2224    1       45.281581618090      92.069999985981      50.000000000000
      2225    2       35.437759527201      81.839999989968      50.000000000000
      2226    2       38.390906149001      83.544999985659      50.000000000000
      2227    2       35.437759527201      85.249999992284      50.000000000000
      2228    2       38.390906149001      86.954999987974      50.000000000000
      2229    2       35.437759527201      88.659999983665      50.000000000000
      2230    2       38.390906149001      90.364999990290      50.000000000000
      2231    2       35.437759527201      92.069999985981      50.000000000000
      2232    2       38.390906149001      93.774999992606      50.000000000000
      2233    2       41.344052781735      81.839999989968      50.000000000000
      2234    2       44.297199403535      83.544999985659      50.000000000000
      2235    2       41.344052781735      85.249999992284      50.000000000000
      2236    2       44.297199403535      86.954999987974      50.000000000000
      2237    2       41.344052781735      88.659999983665      50.000000000000
      2238    2       44.297199403535      90.364999990290      50.000000000000
      2239    2       41.344052781735      92.069999985981      50.000000000000
      2240    2       44.297199403535      93.774999992606      50.000000000000
      2241    1       48.234728239890      83.544999985659      50.000000000000
      2242    1       51.187874872624      81.839999989968      50.000000000000
      2243    1       48.234728239890      86.954999987974      50.000000000000
      2244    1       51.187874872624      85.249999992284      50.000000000000
      2245    1       48.234728239890      90.364999990290      50.000000000000
      2246    1       51.187874872624      88.659999983665      50.000000000000
      2247    1       48.234728239890      93.774999992606      50.000000000000
      2248    1       51.187874872624      92.069999985981      50.000000000000
      2249    1       54.141021494424      83.544999985659      50.000000000000
      2250    1       57.094168127157      81.839999989968      50.000000000000
      2251    1       54.141021494424      86.954999987974      50.000000000000
      2252    1       57.094168127157      85.249999992284      50.000000000000
      2253    1       54.141021494424      90.364999990290      50.000000000000
      2254    1       57.094168127157      88.659999983665      50.000000000000
      2255    1       54.141021494424      93.774999992606      50.000000000000
      2256    1       57.094168127157      92.069999985981      50.000000000000
      2257    2       47.250346036268      81.839999989968      50.000000000000
      2258    2       50.203492658068      83.544999985659      50.000000000000
      2259    2       47.250346036268      85.249999992284      50.000000000000
      2260    2       50.203492658068      86.954999987974      50.000000000000
      2261    2       47.250346036268      88.659999983665      50.000000000000
      2262    2       50.203492658068      90.364999990290      50.000000000000
      2263    2       47.250346036268      92.069999985981      50.000000000000
      2264    2       50.203492658068      93.774999992606      50.000000000000
      2265    2       53.156639290802      81.839999989968      50.000000000000
      2266    2       56.109785912602      83.544999985659      50.000000000000
      2267    2       53.156639290802      85.249999992284      50.000000000000
      2268    2       56.109785912602      86.954999987974      50.000000000000
      2269    2       53.156639290802      88.659999983665      50.000000000000
      2270    2       56.109785912602      90.364999990290      50.000000000000
      2271    2       53.156639290802      92.069999985981      50.000000000000
      2272    2       56.109785912602      93.774999992606      50.000000000000
      2273    1       60.047314748957      83.544999985659      50.000000000000
      2274    1       63.000461381691      81.839999989968      50.000000000000
      2275    1       60.047314748957      86.954999987974      50.000000000000
      2276    1       63.000461381691      85.249999992284      50.000000000000
      2277    1       60.047314748957      90.364999990290      50.000000000000
      2278    1       63.000461381691      88.659999983665      50.000000000000
      2279    1       60.047314748957      93.774999992606      50.000000000000
      2280    1       63.000461381691      92.069999985981      50.000000000000
      2281    1       65.953608003491      83.544999985659      50.000000000000
      2282    1       68.906754636224      81.839999989968      50.000000000000
      2283    1       65.953608003491      86.954999987974      50.000000000000
      2284    1       68.906754636224      85.249999992284      50.000000000000
      2285    1       65.953608003491      90.364999990290      50.000000000000
      2286    1       68.906754636224      88.659999983665      50.000000000000
      2287    1       65.953608003491      93.774999992606      50.000000000000
      2288    1       68.906754636224      92.069999985981      50.000000000000
      2289    2       59.062932545335      81.839999989968      50.000000000000
      2290    2       62.016079167135      83.544999985659      50.000000000000
      2291    2       59.062932545335      85.249999992284      50.000000000000
      2292    2       62.016079167135      86.954999987974      50.000000000000
      2293    2       59.062932545335      88.659999983665      50.000000000000
      2294    2       62.016079167135      90.364999990290      50.000000000000
      2295    2       59.062932545335      92.069999985981      50.000000000000
      2296    2       62.016079167135      93.774999992606      50.000000000000
      2297    2       64.969225799869      81.839999989968      50.000000000000
      2298    2       67.922372421669      83.544999985659      50.000000000000
      2299    2       64.969225799869      85.249999992284      50.000000000000
      2300    2       67.922372421669      86.954999987974      50.000000000000
      2301    2       64.969225799869      88.659999983665      50.000000000000
      2302    2       67.922372421669      90.364999990290      50.000000000000
      2303    2       64.969225799869      92.069999985981      50.000000000000
      2304    2       67.922372421669      93.774999992606      50.000000000000
      2305    1       71.859901258024      83.544999985659      50.000000000000
      2306    1       74.813047890758      81.839999989968      50.000000000000
      2307    1       71.859901258024      86.954999987974      50.000000000000
      2308    1       74.813047890758      85.249999992284      50.000000000000
      2309    1       71.859901258024      90.364999990290      50.000000000000
      2310    1       74.813047890758      88.659999983665      50.000000000000
      2311    1       71.859901258024      93.774999992606      50.000000000000
      2312    1       74.813047890758      92.069999985981      50.000000000000
      2313    1       77.766194512558      83.544999985659      50.000000000000
      2314    1       80.719341145291      81.839999989968      50.000000000000
      2315    1       77.766194512558      86.954999987974      50.000000000000
      2316    1       80.719341145291      85.249999992284      50.000000000000
      2317    1       77.766194512558      90.364999990290      50.000000000000
      2318    1       80.719341145291      88.659999983665      50.000000000000
      2319    1       77.766194512558      93.774999992606      50.000000000000
      2320    1       80.719341145291      92.069999985981      50.000000000000
      2321    2       70.875519054402      81.839999989968      50.000000000000
      2322    2       73.828665676202      83.544999985659      50.000000000000
      2323    2       70.875519054402      85.249999992284      50.000000000000
      2324    2       73.828665676202      86.954999987974      50.000000000000
      2325    2       70.875519054402      88.659999983665      50.000000000000
      2326    2       73.828665676202      90.364999990290      50.000000000000
      2327    2       70.875519054402      92.069999985981      50.000000000000
      2328    2       73.828665676202      93.774999992606      50.000000000000
      2329    2       76.781812308936      81.839999989968      50.000000000000
      2330    2       79.734958930736      83.544999985659      50.000000000000
      2331    2       76.781812308936      85.249999992284      50.000000000000
      2332    2       79.734958930736      86.954999987974      50.000000000000
      2333    2       76.781812308936      88.659999983665      50.000000000000
      2334    2       79.734958930736      90.364999990290      50.000000000000
      2335    2       76.781812308936      92.069999985981      50.000000000000
      2336    2       79.734958930736      93.774999992606      50.000000000000
      2337    1       83.672487767091      83.544999985659      50.000000000000
      2338    1       86.625634399825      81.839999989968      50.000000000000
      2339    1       83.672487767091      86.954999987974      50.000000000000
      2340    1       86.625634399825      85.249999992284      50.000000000000
      2341    1       83.672487767091      90.364999990290      50.000000000000
      2342    1       86.625634399825      88.659999983665      50.000000000000
      2343    1       83.672487767091      93.774999992606      50.000000000000
      2344    1       86.625634399825      92.069999985981      50.000000000000
      2345    1       89.578781021625      83.544999985659      50.000000000000
      2346    1       92.531927654358      81.839999989968      50.000000000000
      2347    1       89.578781021625      86.954999987974      50.000000000000
      2348    1       92.531927654358      85.249999992284      50.000000000000
      2349    1       89.578781021625      90.364999990290      50.000000000000
      2350    1       92.531927654358      88.659999983665      50.000000000000
      2351    1       89.578781021625      93.774999992606      50.000000000000
      2352    1       92.531927654358      92.069999985981      50.000000000000
      2353    2       82.688105563469      81.839999989968      50.000000000000
      2354    2       85.641252185269      83.544999985659      50.000000000000
      2355    2       82.688105563469      85.249999992284      50.000000000000
      2356    2       85.641252185269      86.954999987974      50.000000000000
      2357    2       82.688105563469      88.659999983665      50.000000000000
      2358    2       85.641252185269      90.364999990290      50.000000000000
      2359    2       82.688105563469      92.069999985981      50.000000000000
      2360    2       85.641252185269      93.774999992606      50.000000000000
      2361    2       88.594398818003      81.839999989968      50.000000000000
      2362    2       91.547545439803      83.544999985659      50.000000000000
      2363    2       88.594398818003      85.249999992284      50.000000000000
      2364    2       91.547545439803      86.954999987974      50.000000000000
      2365    2       88.594398818003      88.659999983665      50.000000000000
      2366    2       91.547545439803      90.364999990290      50.000000000000
      2367    2       88.594398818003      92.069999985981      50.000000000000
      2368    2       91.547545439803      93.774999992606      50.000000000000
      2369    1       95.485074276158      83.544999985659      50.000000000000
      2370    1       98.438220908892      81.839999989968      50.000000000000
      2371    1       95.485074276158      86.954999987974      50.000000000000
      2372    1       98.438220908892      85.249999992284      50.000000000000
      2373    1       95.485074276158      90.364999990290      50.000000000000
      2374    1       98.438220908892      88.659999983665      50.000000000000
      2375    1       95.485074276158      93.774999992606      50.000000000000
      2376    1       98.438220908892      92.069999985981      50.000000000000
      2377    1      101.391367530692      83.544999985659      50.000000000000
      2378    1      104.344514163425      81.839999989968      50.000000000000
      2379    1      101.391367530692      86.954999987974      50.000000000000
      2380    1      104.344514163425      85.249999992284      50.000000000000
      2381    1      101.391367530692      90.364999990290      50.000000000000
      2382    1      104.344514163425      88.659999983665      50.000000000000
      2383    1      101.391367530692      93.774999992606      50.000000000000
      2384    1      104.344514163425      92.069999985981      50.000000000000
      2385    2       94.500692072536      81.839999989968      50.000000000000
      2386    2       97.453838694336      83.544999985659      50.000000000000
      2387    2       94.500692072536      85.249999992284      50.000000000000
      2388    2       97.453838694336      86.954999987974      50.000000000000
      2389    2       94.500692072536      88.659999983665      50.000000000000
      2390    2       97.453838694336      90.364999990290      50.000000000000
      2391    2       94.500692072536      92.069999985981      50.000000000000
      2392    2       97.453838694336      93.774999992606      50.000000000000
      2393    2      100.406985327070      81.839999989968      50.000000000000
      2394    2      103.360131948870      83.544999985659      50.000000000000
      2395    2      100.406985327070      85.249999992284      50.000000000000
      2396    2      103.360131948870      86.954999987974      50.000000000000
      2397    2      100.406985327070      88.659999983665      50.000000000000
      2398    2      103.360131948870      90.364999990290      50.000000000000
      2399    2      100.406985327070      92.069999985981      50.000000000000
      2400    2      103.360131948870      93.774999992606      50.000000000000
      2401    1      107.297660785225      83.544999985659      50.000000000000
      2402    1      110.250807417959      81.839999989968      50.000000000000
      2403    1      107.297660785225      86.954999987974      50.000000000000
      2404    1      110.250807417959      85.249999992284      50.000000000000
      2405    1      107.297660785225      90.364999990290      50.000000000000
      2406    1      110.250807417959      88.659999983665      50.000000000000
      2407    1      107.297660785225      93.774999992606      50.000000000000
      2408    1      110.250807417959      92.069999985981      50.000000000000
      2409    1      113.203954039759      83.544999985659      50.000000000000
      2410    1      116.157100672492      81.839999989968      50.000000000000
      2411    1      113.203954039759      86.954999987974      50.000000000000
      2412    1      116.157100672492      85.249999992284      50.000000000000
      2413    1      113.203954039759      90.364999990290      50.000000000000
      2414    1      116.157100672492      88.659999983665      50.000000000000
      2415    1      113.203954039759      93.774999992606      50.000000000000
      2416    1      116.157100672492      92.069999985981      50.000000000000
      2417    2      106.313278581603      81.839999989968      50.000000000000
      2418    2      109.266425203403      83.544999985659      50.000000000000
      2419    2      106.313278581603      85.249999992284      50.000000000000
      2420    2      109.266425203403      86.954999987974      50.000000000000
      2421    2      106.313278581603      88.659999983665      50.000000000000
      2422    2      109.266425203403      90.364999990290      50.000000000000
      2423    2      106.313278581603      92.069999985981      50.000000000000
      2424    2      109.266425203403      93.774999992606      50.000000000000
      2425    2      112.219571836137      81.839999989968      50.000000000000
      2426    2      115.172718457937      83.544999985659      50.000000000000
      2427    2      112.219571836137      85.249999992284      50.000000000000
      2428    2      115.172718457937      86.954999987974      50.000000000000
      2429    2      112.219571836137      88.659999983665      50.000000000000
      2430    2      115.172718457937      90.364999990290      50.000000000000
      2431    2      112.219571836137      92.069999985981      50.000000000000
      2432    2      115.172718457937      93.774999992606      50.000000000000
      2433    1      119.110247294292      83.544999985659      50.000000000000
      2434    1      122.063393927026      81.839999989968      50.000000000000
      2435    1      119.110247294292      86.954999987974      50.000000000000
      2436    1      122.063393927026      85.249999992284      50.000000000000
      2437    1      119.110247294292      90.364999990290      50.000000000000
      2438    1      122.063393927026      88.659999983665      50.000000000000
      2439    1      119.110247294292      93.774999992606      50.000000000000
      2440    1      122.063393927026      92.069999985981      50.000000000000
      2441    1      125.016540548826      83.544999985659      50.000000000000
      2442    1      127.969687181559      81.839999989968      50.000000000000
      2443    1      125.016540548826      86.954999987974      50.000000000000
      2444    1      127.969687181559      85.249999992284      50.000000000000
      2445    1      125.016540548826      90.364999990290      50.000000000000
      2446    1      127.969687181559      88.659999983665      50.000000000000
      2447    1      125.016540548826      93.774999992606      50.000000000000
      2448    1      127.969687181559      92.069999985981      50.000000000000
      2449    2      118.125865090670      81.839999989968      50.000000000000
      2450    2      121.079011712470      83.544999985659      50.000000000000
      2451    2      118.125865090670      85.249999992284      50.000000000000
      2452    2      121.079011712470      86.954999987974      50.000000000000
      2453    2      118.125865090670      88.659999983665      50.000000000000
      2454    2      121.079011712470      90.364999990290      50.000000000000
      2455    2      118.125865090670      92.069999985981      50.000000000000
      2456    2      121.079011712470      93.774999992606      50.000000000000
      2457    2      124.032158345204      81.839999989968      50.000000000000
      2458    2      126.985304967004      83.544999985659      50.000000000000
      2459    2      124.032158345204      85.249999992284      50.000000000000
      2460    2      126.985304967004      86.954999987974      50.000000000000
      2461    2      124.032158345204      88.659999983665      50.000000000000
      2462    2      126.985304967004      90.364999990290      50.000000000000
      2463    2      124.032158345204      92.069999985981      50.000000000000
      2464    2      126.985304967004      93.774999992606      50.000000000000
      2465    1        0.984382203622      97.184999983987      50.000000000000
      2466    1        3.937528836356      95.479999988296      50.000000000000
      2467    1        0.984382203622     100.594999986302      50.000000000000
      2468    1        3.937528836356      98.889999990612      50.000000000000
      2469    1        0.984382203622     104.004999988618      50.000000000000
      2470    1        3.937528836356     102.299999981993      50.000000000000
      2471    1        0.984382203622     107.414999990934      50.000000000000
      2472    1        3.937528836356     105.709999984309      50.000000000000
      2473    1        6.890675458156      97.184999983987      50.000000000000
      2474    1        9.843822090889      95.479999988296      50.000000000000
      2475    1        6.890675458156     100.594999986302      50.000000000000
      2476    1        9.843822090889      98.889999990612      50.000000000000
      2477    1        6.890675458156     104.004999988618      50.000000000000
      2478    1        9.843822090889     102.299999981993      50.000000000000
      2479    1        6.890675458156     107.414999990934      50.000000000000
      2480    1        9.843822090889     105.709999984309      50.000000000000
      2481    2        0.000000000000      95.479999988296      50.000000000000
      2482    2        2.953146621800      97.184999983987      50.000000000000
      2483    2        0.000000000000      98.889999990612      50.000000000000
      2484    2        2.953146621800     100.594999986302      50.000000000000
      2485    2        0.000000000000     102.299999981993      50.000000000000
      2486    2        2.953146621800     104.004999988618      50.000000000000
      2487    2        0.000000000000     105.709999984309      50.000000000000
      2488    2        2.953146621800     107.414999990934      50.000000000000
      2489    2        5.906293254534      95.479999988296      50.000000000000
      2490    2        8.859439876334      97.184999983987      50.000000000000
      2491    2        5.906293254534      98.889999990612      50.000000000000
      2492    2        8.859439876334     100.594999986302      50.000000000000
      2493    2        5.906293254534     102.299999981993      50.000000000000
      2494    2        8.859439876334     104.004999988618      50.000000000000
      2495    2        5.906293254534     105.709999984309      50.000000000000
      2496    2        8.859439876334     107.414999990934      50.000000000000
      2497    1       12.796968712689      97.184999983987      50.000000000000
      2498    1       15.750115345423      95.479999988296      50.000000000000
      2499    1       12.796968712689     100.594999986302      50.000000000000
      2500    1       15.750115345423      98.889999990612      50.000000000000
      2501    1       12.796968712689     104.004999988618      50.000000000000
      2502    1       15.750115345423     102.299999981993      50.000000000000
      2503    1       12.796968712689     107.414999990934      50.000000000000
      2504    1       15.750115345423     105.709999984309      50.000000000000
      2505    1       18.703261967223      97.184999983987      50.000000000000
      2506    1       21.656408599956      95.479999988296      50.000000000000
      2507    1       18.703261967223     100.594999986302      50.000000000000
      2508    1       21.656408599956      98.889999990612      50.000000000000
      2509    1       18.703261967223     104.004999988618      50.000000000000
      2510    1       21.656408599956     102.299999981993      50.000000000000
      2511    1       18.703261967223     107.414999990934      50.000000000000
      2512    1       21.656408599956     105.709999984309      50.000000000000
      2513    2       11.812586509067      95.479999988296      50.000000000000
      2514    2       14.765733130867      97.184999983987      50.000000000000
      2515    2       11.812586509067      98.889999990612      50.000000000000
      2516    2       14.765733130867     100.594999986302      50.000000000000
      2517    2       11.812586509067     102.299999981993      50.000000000000
      2518    2       14.765733130867     104.004999988618      50.000000000000
      2519    2       11.812586509067     105.709999984309      50.000000000000
      2520    2       14.765733130867     107.414999990934      50.000000000000
      2521    2       17.718879763601      95.479999988296      50.000000000000
      2522    2       20.672026385401      97.184999983987      50.000000000000
      2523    2       17.718879763601      98.889999990612      50.000000000000
      2524    2       20.672026385401     100.594999986302      50.000000000000
      2525    2       17.718879763601     102.299999981993      50.000000000000
      2526    2       20.672026385401     104.004999988618      50.000000000000
      2527    2       17.718879763601     105.709999984309      50.000000000000
      2528    2       20.672026385401     107.414999990934      50.000000000000
      2529    1       24.609555221756      97.184999983987      50.000000000000
      2530    1       27.562701854490      95.479999988296      50.000000000000
      2531    1       24.609555221756     100.594999986302      50.000000000000
      2532    1       27.562701854490      98.889999990612      50.000000000000
      2533    1       24.609555221756     104.004999988618      50.000000000000
      2534    1       27.562701854490     102.299999981993      50.000000000000
      2535    1       24.609555221756     107.414999990934      50.000000000000
      2536    1       27.562701854490     105.709999984309      50.000000000000
      2537    1       30.515848476290      97.184999983987      50.000000000000
      2538    1       33.468995109023      95.479999988296      50.000000000000
      2539    1       30.515848476290     100.594999986302      50.000000000000
      2540    1       33.468995109023      98.889999990612      50.000000000000
      2541    1       30.515848476290     104.004999988618      50.000000000000
      2542    1       33.468995109023     102.299999981993      50.000000000000
      2543    1       30.515848476290     107.414999990934      50.000000000000
      2544    1       33.468995109023     105.709999984309      50.000000000000
      2545    2       23.625173018134      95.479999988296      50.000000000000
      2546    2       26.578319639934      97.184999983987      50.000000000000
      2547    2       23.625173018134      98.889999990612      50.000000000000
      2548    2       26.578319639934     100.594999986302      50.000000000000
      2549    2       23.625173018134     102.299999981993      50.000000000000
      2550    2       26.578319639934     104.004999988618      50.000000000000
      2551    2       23.625173018134     105.709999984309      50.000000000000
      2552    2       26.578319639934     107.414999990934      50.000000000000
      2553    2       29.531466272668      95.479999988296      50.000000000000
      2554    2       32.484612894468      97.184999983987      50.000000000000
      2555    2       29.531466272668      98.889999990612      50.000000000000
      2556    2       32.484612894468     100.594999986302      50.000000000000
      2557    2       29.531466272668     102.299999981993      50.000000000000
      2558    2       32.484612894468     104.004999988618      50.000000000000
      2559    2       29.531466272668     105.709999984309      50.000000000000
      2560    2       32.484612894468     107.414999990934      50.000000000000
      2561    1       36.422141730823      97.184999983987      50.000000000000
      2562    1       39.375288363557      95.479999988296      50.000000000000
      2563    1       36.422141730823     100.594999986302      50.000000000000
      2564    1       39.375288363557      98.889999990612      50.000000000000
      2565    1       36.422141730823     104.004999988618      50.000000000000
      2566    1       39.375288363557     102.299999981993      50.000000000000
      2567    1       36.422141730823     107.414999990934      50.000000000000
      2568    1       39.375288363557     105.709999984309      50.000000000000
      2569    1       42.328434985357      97.184999983987      50.000000000000
      2570    1       45.281581618090      95.479999988296      50.000000000000
      2571    1       42.328434985357     100.594999986302      50.000000000000
      2572    1       45.281581618090      98.889999990612      50.000000000000
      2573    1       42.328434985357     104.004999988618      50.000000000000
      2574    1       45.281581618090     102.299999981993      50.000000000000
      2575    1       42.328434985357     107.414999990934      50.000000000000
      2576    1       45.281581618090     105.709999984309      50.000000000000
      2577    2       35.437759527201      95.479999988296      50.000000000000
      2578    2       38.390906149001      97.184999983987      50.000000000000
      2579    2       35.437759527201      98.889999990612      50.000000000000
      2580    2       38.390906149001     100.594999986302      50.000000000000
      2581    2       35.437759527201     102.299999981993      50.000000000000
      2582    2       38.390906149001     104.004999988618      50.000000000000
      2583    2       35.437759527201     105.709999984309      50.000000000000
      2584    2       38.390906149001     107.414999990934      50.000000000000
      2585    2       41.344052781735      95.479999988296      50.000000000000
      2586    2       44.297199403535      97.184999983987      50.000000000000
      2587    2       41.344052781735      98.889999990612      50.000000000000
      2588    2       44.297199403535     100.594999986302      50.000000000000
      2589    2       41.344052781735     102.299999981993      50.000000000000
      2590    2       44.297199403535     104.004999988618      50.000000000000
      2591    2       41.344052781735     105.709999984309      50.000000000000
      2592    2       44.297199403535     107.414999990934      50.000000000000
      2593    1       48.234728239890      97.184999983987      50.000000000000
      2594    1       51.187874872624      95.479999988296      50.000000000000
      2595    1       48.234728239890     100.594999986302      50.000000000000
      2596    1       51.187874872624      98.889999990612      50.000000000000
      2597    1       48.234728239890     104.004999988618      50.000000000000
      2598    1       51.187874872624     102.299999981993      50.000000000000
      2599    1       48.234728239890     107.414999990934      50.000000000000
      2600    1       51.187874872624     105.709999984309      50.000000000000
      2601    1       54.141021494424      97.184999983987      50.000000000000
      2602    1       57.094168127157      95.479999988296      50.000000000000
      2603    1       54.141021494424     100.594999986302      50.000000000000
      2604    1       57.094168127157      98.889999990612      50.000000000000
      2605    1       54.141021494424     104.004999988618      50.000000000000
      2606    1       57.094168127157     102.299999981993      50.000000000000
      2607    1       54.141021494424     107.414999990934      50.000000000000
      2608    1       57.094168127157     105.709999984309      50.000000000000
      2609    2       47.250346036268      95.479999988296      50.000000000000
      2610    2       50.203492658068      97.184999983987      50.000000000000
      2611    2       47.250346036268      98.889999990612      50.000000000000
      2612    2       50.203492658068     100.594999986302      50.000000000000
      2613    2       47.250346036268     102.299999981993      50.000000000000
      2614    2       50.203492658068     104.004999988618      50.000000000000
      2615    2       47.250346036268     105.709999984309      50.000000000000
      2616    2       50.203492658068     107.414999990934      50.000000000000
      2617    2       53.156639290802      95.479999988296      50.000000000000
      2618    2       56.109785912602      97.184999983987      50.000000000000
      2619    2       53.156639290802      98.889999990612      50.000000000000
      2620    2       56.109785912602     100.594999986302      50.000000000000
      2621    2       53.156639290802     102.299999981993      50.000000000000
      2622    2       56.109785912602     104.004999988618      50.000000000000
      2623    2       53.156639290802     105.709999984309      50.000000000000
      2624    2       56.109785912602     107.414999990934      50.000000000000
      2625    1       60.047314748957      97.184999983987      50.000000000000
      2626    1       63.000461381691      95.479999988296      50.000000000000
      2627    1       60.047314748957     100.594999986302      50.000000000000
      2628    1       63.000461381691      98.889999990612      50.000000000000
      2629    1       60.047314748957     104.004999988618      50.000000000000
      2630    1       63.000461381691     102.299999981993      50.000000000000
      2631    1       60.047314748957     107.414999990934      50.000000000000
      2632    1       63.000461381691     105.709999984309      50.000000000000
      2633    1       65.953608003491      97.184999983987      50.000000000000
      2634    1       68.906754636224      95.479999988296      50.000000000000
      2635    1       65.953608003491     100.594999986302      50.000000000000
      2636    1       68.906754636224      98.889999990612      50.000000000000
      2637    1       65.953608003491     104.004999988618      50.000000000000
      2638    1       68.906754636224     102.299999981993      50.000000000000
      2639    1       65.953608003491     107.414999990934      50.000000000000
      2640    1       68.906754636224     105.709999984309      50.000000000000
      2641    2       59.062932545335      95.479999988296      50.000000000000
      2642    2       62.016079167135      97.184999983987      50.000000000000
      2643    2       59.062932545335      98.889999990612      50.000000000000
      2644    2       62.016079167135     100.594999986302      50.000000000000
      2645    2       59.062932545335     102.299999981993      50.000000000000
      2646    2       62.016079167135     104.004999988618      50.000000000000
      2647    2       59.062932545335     105.709999984309      50.000000000000
      2648    2       62.016079167135     107.414999990934      50.000000000000
      2649    2       64.969225799869      95.479999988296      50.000000000000
      2650    2       67.922372421669      97.184999983987      50.000000000000
      2651    2       64.969225799869      98.889999990612      50.000000000000
      2652    2       67.922372421669     100.594999986302      50.000000000000
      2653    2       64.969225799869     102.299999981993      50.000000000000
      2654    2       67.922372421669     104.004999988618      50.000000000000
      2655    2       64.969225799869     105.709999984309      50.000000000000
      2656    2       67.922372421669     107.414999990934      50.000000000000
      2657    1       71.859901258024      97.184999983987      50.000000000000
      2658    1       74.813047890758      95.479999988296      50.000000000000
      2659    1       71.859901258024     100.594999986302      50.000000000000
      2660    1       74.813047890758      98.889999990612      50.000000000000
      2661    1       71.859901258024     104.004999988618      50.000000000000
      2662    1       74.813047890758     102.299999981993      50.000000000000
      2663    1       71.859901258024     107.414999990934      50.000000000000
      2664    1       74.813047890758     105.709999984309      50.000000000000
      2665    1       77.766194512558      97.184999983987      50.000000000000
      2666    1       80.719341145291      95.479999988296      50.000000000000
      2667    1       77.766194512558     100.594999986302      50.000000000000
      2668    1       80.719341145291      98.889999990612      50.000000000000
      2669    1       77.766194512558     104.004999988618      50.000000000000
      2670    1       80.719341145291     102.299999981993      50.000000000000
      2671    1       77.766194512558     107.414999990934      50.000000000000
      2672    1       80.719341145291     105.709999984309      50.000000000000
      2673    2       70.875519054402      95.479999988296      50.000000000000
      2674    2       73.828665676202      97.184999983987      50.000000000000
      2675    2       70.875519054402      98.889999990612      50.000000000000
      2676    2       73.828665676202     100.594999986302      50.000000000000
      2677    2       70.875519054402     102.299999981993      50.000000000000
      2678    2       73.828665676202     104.004999988618      50.000000000000
      2679    2       70.875519054402     105.709999984309      50.000000000000
      2680    2       73.828665676202     107.414999990934      50.000000000000
      2681    2       76.781812308936      95.479999988296      50.000000000000
      2682    2       79.734958930736      97.184999983987      50.000000000000
      2683    2       76.781812308936      98.889999990612      50.000000000000
      2684    2       79.734958930736     100.594999986302      50.000000000000
      2685    2       76.781812308936     102.299999981993      50.000000000000
      2686    2       79.734958930736     104.004999988618      50.000000000000
      2687    2       76.781812308936     105.709999984309      50.000000000000
      2688    2       79.734958930736     107.414999990934      50.000000000000
      2689    1       83.672487767091      97.184999983987      50.000000000000
      2690    1       86.625634399825      95.479999988296      50.000000000000
      2691    1       83.672487767091     100.594999986302      50.000000000000
      2692    1       86.625634399825      98.889999990612      50.000000000000
      2693    1       83.672487767091     104.004999988618      50.000000000000
      2694    1       86.625634399825     102.299999981993      50.000000000000
      2695    1       83.672487767091     107.414999990934      50.000000000000
      2696    1       86.625634399825     105.709999984309      50.000000000000
      2697    1       89.578781021625      97.184999983987      50.000000000000
      2698    1       92.531927654358      95.479999988296      50.000000000000
      2699    1       89.578781021625     100.594999986302      50.000000000000
      2700    1       92.531927654358      98.889999990612      50.000000000000
      2701    1       89.578781021625     104.004999988618      50.000000000000
      2702    1       92.531927654358     102.299999981993      50.000000000000
      2703    1       89.578781021625     107.414999990934      50.000000000000
      2704    1       92.531927654358     105.709999984309      50.000000000000
      2705    2       82.688105563469      95.479999988296      50.000000000000
      2706    2       85.641252185269      97.184999983987      50.000000000000
      2707    2       82.688105563469      98.889999990612      50.000000000000
      2708    2       85.641252185269     100.594999986302      50.000000000000
      2709    2       82.688105563469     102.299999981993      50.000000000000
      2710    2       85.641252185269     104.004999988618      50.000000000000
      2711    2       82.688105563469     105.709999984309      50.000000000000
      2712    2       85.641252185269     107.414999990934      50.000000000000
      2713    2       88.594398818003      95.479999988296      50.000000000000
      2714    2       91.547545439803      97.184999983987      50.000000000000
      2715    2       88.594398818003      98.889999990612      50.000000000000
      2716    2       91.547545439803     100.594999986302      50.000000000000
      2717    2       88.594398818003     102.299999981993      50.000000000000
      2718    2       91.547545439803     104.004999988618      50.000000000000
      2719    2       88.594398818003     105.709999984309      50.000000000000
      2720    2       91.547545439803     107.414999990934      50.000000000000
      2721    1       95.485074276158      97.184999983987      50.000000000000
      2722    1       98.438220908892      95.479999988296      50.000000000000
      2723    1       95.485074276158     100.594999986302      50.000000000000
      2724    1       98.438220908892      98.889999990612      50.000000000000
      2725    1       95.485074276158     104.004999988618      50.000000000000
      2726    1       98.438220908892     102.299999981993      50.000000000000
      2727    1       95.485074276158     107.414999990934      50.000000000000
      2728    1       98.438220908892     105.709999984309      50.000000000000
      2729    1      101.391367530692      97.184999983987      50.000000000000
      2730    1      104.344514163425      95.479999988296      50.000000000000
      2731    1      101.391367530692     100.594999986302      50.000000000000
      2732    1      104.344514163425      98.889999990612      50.000000000000
      2733    1      101.391367530692     104.004999988618      50.000000000000
      2734    1      104.344514163425     102.299999981993      50.000000000000
      2735    1      101.391367530692     107.414999990934      50.000000000000
      2736    1      104.344514163425     105.709999984309      50.000000000000
      2737    2       94.500692072536      95.479999988296      50.000000000000
      2738    2       97.453838694336      97.184999983987      50.000000000000
      2739    2       94.500692072536      98.889999990612      50.000000000000
      2740    2       97.453838694336     100.594999986302      50.000000000000
      2741    2       94.500692072536     102.299999981993      50.000000000000
      2742    2       97.453838694336     104.004999988618      50.000000000000
      2743    2       94.500692072536     105.709999984309      50.000000000000
      2744    2       97.453838694336     107.414999990934      50.000000000000
      2745    2      100.406985327070      95.479999988296      50.000000000000
      2746    2      103.360131948870      97.184999983987      50.000000000000
      2747    2      100.406985327070      98.889999990612      50.000000000000
      2748    2      103.360131948870     100.594999986302      50.000000000000
      2749    2      100.406985327070     102.299999981993      50.000000000000
      2750    2      103.360131948870     104.004999988618      50.000000000000
      2751    2      100.406985327070     105.709999984309      50.000000000000
      2752    2      103.360131948870     107.414999990934      50.000000000000
      2753    1      107.297660785225      97.184999983987      50.000000000000
      2754    1      110.250807417959      95.479999988296      50.000000000000
      2755    1      107.297660785225     100.594999986302      50.000000000000
      2756    1      110.250807417959      98.889999990612      50.000000000000
      2757    1      107.297660785225     104.004999988618      50.000000000000
      2758    1      110.250807417959     102.299999981993      50.000000000000
      2759    1      107.297660785225     107.414999990934      50.000000000000
      2760    1      110.250807417959     105.709999984309      50.000000000000
      2761    1      113.203954039759      97.184999983987      50.000000000000
      2762    1      116.157100672492      95.479999988296      50.000000000000
      2763    1      113.203954039759     100.594999986302      50.000000000000
      2764    1      116.157100672492      98.889999990612      50.000000000000
      2765    1      113.203954039759     104.004999988618      50.000000000000
      2766    1      116.157100672492     102.299999981993      50.000000000000
      2767    1      113.203954039759     107.414999990934      50.000000000000
      2768    1      116.157100672492     105.709999984309      50.000000000000
      2769    2      106.313278581603      95.479999988296      50.000000000000
      2770    2      109.266425203403      97.184999983987      50.000000000000
      2771    2      106.313278581603      98.889999990612      50.000000000000
      2772    2      109.266425203403     100.594999986302      50.000000000000
      2773    2      106.313278581603     102.299999981993      50.000000000000
      2774    2      109.266425203403     104.004999988618      50.000000000000
      2775    2      106.313278581603     105.709999984309      50.000000000000
      2776    2      109.266425203403     107.414999990934      50.000000000000
      2777    2      112.219571836137      95.479999988296      50.000000000000
      2778    2      115.172718457937      97.184999983987      50.000000000000
      2779    2      112.219571836137      98.889999990612      50.000000000000
      2780    2      115.172718457937     100.594999986302      50.000000000000
      2781    2      112.219571836137     102.299999981993      50.000000000000
      2782    2      115.172718457937     104.004999988618      50.000000000000
      2783    2      112.219571836137     105.709999984309      50.000000000000
      2784    2      115.172718457937     107.414999990934      50.000000000000
      2785    1      119.110247294292      97.184999983987      50.000000000000
      2786    1      122.063393927026      95.479999988296      50.000000000000
      2787    1      119.110247294292     100.594999986302      50.000000000000
      2788    1      122.063393927026      98.889999990612      50.000000000000
      2789    1      119.110247294292     104.004999988618      50.000000000000
      2790    1      122.063393927026     102.299999981993      50.000000000000
      2791    1      119.110247294292     107.414999990934      50.000000000000
      2792    1      122.063393927026     105.709999984309      50.000000000000
      2793    1      125.016540548826      97.184999983987      50.000000000000
      2794    1      127.969687181559      95.479999988296      50.000000000000
      2795    1      125.016540548826     100.594999986302      50.000000000000
      2796    1      127.969687181559      98.889999990612      50.000000000000
      2797    1      125.016540548826     104.004999988618      50.000000000000
      2798    1      127.969687181559     102.299999981993      50.000000000000
      2799    1      125.016540548826     107.414999990934      50.000000000000
      2800    1      127.969687181559     105.709999984309      50.000000000000
      2801    2      118.125865090670      95.479999988296      50.000000000000
      2802    2      121.079011712470      97.184999983987      50.000000000000
      2803    2      118.125865090670      98.889999990612      50.000000000000
      2804    2      121.079011712470     100.594999986302      50.000000000000
      2805    2      118.125865090670     102.299999981993      50.000000000000
      2806    2      121.079011712470     104.004999988618      50.000000000000
      2807    2      118.125865090670     105.709999984309      50.000000000000
      2808    2      121.079011712470     107.414999990934      50.000000000000
      2809    2      124.032158345204      95.479999988296      50.000000000000
      2810    2      126.985304967004      97.184999983987      50.000000000000
      2811    2      124.032158345204      98.889999990612      50.000000000000
      2812    2      126.985304967004     100.594999986302      50.000000000000
      2813    2      124.032158345204     102.299999981993      50.000000000000
      2814    2      126.985304967004     104.004999988618      50.000000000000
      2815    2      124.032158345204     105.709999984309      50.000000000000
      2816    2      126.985304967004     107.414999990934      50.000000000000
      2817    1        0.984382203622     110.824999982315      50.000000000000
      2818    1        3.937528836356     109.119999986624      50.000000000000
      2819    1        0.984382203622     114.234999984630      50.000000000000
      2820    1        3.937528836356     112.529999988940      50.000000000000
      2821    1        0.984382203622     117.644999986946      50.000000000000
      2822    1        3.937528836356     115.939999980321      50.000000000000
      2823    1        0.984382203622     121.054999989262      50.000000000000
      2824    1        3.937528836356     119.349999982637      50.000000000000
      2825    1        6.890675458156     110.824999982315      50.000000000000
      2826    1        9.843822090889     109.119999986624      50.000000000000
      2827    1        6.890675458156     114.234999984630      50.000000000000
      2828    1        9.843822090889     112.529999988940      50.000000000000
      2829    1        6.890675458156     117.644999986946      50.000000000000
      2830    1        9.843822090889     115.939999980321      50.000000000000
      2831    1        6.890675458156     121.054999989262      50.000000000000
      2832    1        9.843822090889     119.349999982637      50.000000000000
      2833    2        0.000000000000     109.119999986624      50.000000000000
      2834    2        2.953146621800     110.824999982315      50.000000000000
      2835    2        0.000000000000     112.529999988940      50.000000000000
      2836    2        2.953146621800     114.234999984630      50.000000000000
      2837    2        0.000000000000     115.939999980321      50.000000000000
      2838    2        2.953146621800     117.644999986946      50.000000000000
      2839    2        0.000000000000     119.349999982637      50.000000000000
      2840    2        2.953146621800     121.054999989262      50.000000000000
      2841    2        5.906293254534     109.119999986624      50.000000000000
      2842    2        8.859439876334     110.824999982315      50.000000000000
      2843    2        5.906293254534     112.529999988940      50.000000000000
      2844    2        8.859439876334     114.234999984630      50.000000000000
      2845    2        5.906293254534     115.939999980321      50.000000000000
      2846    2        8.859439876334     117.644999986946      50.000000000000
      2847    2        5.906293254534     119.349999982637      50.000000000000
      2848    2        8.859439876334     121.054999989262      50.000000000000
      2849    1       12.796968712689     110.824999982315      50.000000000000
      2850    1       15.750115345423     109.119999986624      50.000000000000
      2851    1       12.796968712689     114.234999984630      50.000000000000
      2852    1       15.750115345423     112.529999988940      50.000000000000
      2853    1       12.796968712689     117.644999986946      50.000000000000
      2854    1       15.750115345423     115.939999980321      50.000000000000
      2855    1       12.796968712689     121.054999989262      50.000000000000
      2856    1       15.750115345423     119.349999982637      50.000000000000
      2857    1       18.703261967223     110.824999982315      50.000000000000
      2858    1       21.656408599956     109.119999986624      50.000000000000
      2859    1       18.703261967223     114.234999984630      50.000000000000
      2860    1       21.656408599956     112.529999988940      50.000000000000
      2861    1       18.703261967223     117.644999986946      50.000000000000
      2862    1       21.656408599956     115.939999980321      50.000000000000
      2863    1       18.703261967223     121.054999989262      50.000000000000
      2864    1       21.656408599956     119.349999982637      50.000000000000
      2865    2       11.812586509067     109.119999986624      50.000000000000
      2866    2       14.765733130867     110.824999982315      50.000000000000
      2867    2       11.812586509067     112.529999988940      50.000000000000
      2868    2       14.765733130867     114.234999984630      50.000000000000
      2869    2       11.812586509067     115.939999980321      50.000000000000
      2870    2       14.765733130867     117.644999986946      50.000000000000
      2871    2       11.812586509067     119.349999982637      50.000000000000
      2872    2       14.765733130867     121.054999989262      50.000000000000
      2873    2       17.718879763601     109.119999986624      50.000000000000
      2874    2       20.672026385401     110.824999982315      50.000000000000
      2875    2       17.718879763601     112.529999988940      50.000000000000
      2876    2       20.672026385401     114.234999984630      50.000000000000
      2877    2       17.718879763601     115.939999980321      50.000000000000
      2878    2       20.672026385401     117.644999986946      50.000000000000
      2879    2       17.718879763601     119.349999982637      50.000000000000
      2880    2       20.672026385401     121.054999989262      50.000000000000
      2881    1       24.609555221756     110.824999982315      50.000000000000
      2882    1       27.562701854490     109.119999986624      50.000000000000
      2883    1       24.609555221756     114.234999984630      50.000000000000
      2884    1       27.562701854490     112.529999988940      50.000000000000
      2885    1       24.609555221756     117.644999986946      50.000000000000
      2886    1       27.562701854490     115.939999980321      50.000000000000
      2887    1       24.609555221756     121.054999989262      50.000000000000
      2888    1       27.562701854490     119.349999982637      50.000000000000
      2889    1       30.515848476290     110.824999982315      50.000000000000
      2890    1       33.468995109023     109.119999986624      50.000000000000
      2891    1       30.515848476290     114.234999984630      50.000000000000
      2892    1       33.468995109023     112.529999988940      50.000000000000
      2893    1       30.515848476290     117.644999986946      50.000000000000
      2894    1       33.468995109023     115.939999980321      50.000000000000
      2895    1       30.515848476290     121.054999989262      50.000000000000
      2896    1       33.468995109023     119.349999982637      50.000000000000
      2897    2       23.625173018134     109.119999986624      50.000000000000
      2898    2       26.578319639934     110.824999982315      50.000000000000
      2899    2       23.625173018134     112.529999988940      50.000000000000
      2900    2       26.578319639934     114.234999984630      50.000000000000
      2901    2       23.625173018134     115.939999980321      50.000000000000
      2902    2       26.578319639934     117.644999986946      50.000000000000
      2903    2       23.625173018134     119.349999982637      50.000000000000
      2904    2       26.578319639934     121.054999989262      50.000000000000
      2905    2       29.531466272668     109.119999986624      50.000000000000
      2906    2       32.484612894468     110.824999982315      50.000000000000
      2907    2       29.531466272668     112.529999988940      50.000000000000
      2908    2       32.484612894468     114.234999984630      50.000000000000
      2909    2       29.531466272668     115.939999980321      50.000000000000
      2910    2       32.484612894468     117.644999986946      50.000000000000
      2911    2       29.531466272668     119.349999982637      50.000000000000
      2912    2       32.484612894468     121.054999989262      50.000000000000
      2913    1       36.422141730823     110.824999982315      50.000000000000
      2914    1       39.375288363557     109.119999986624      50.000000000000
      2915    1       36.422141730823     114.234999984630      50.000000000000
      2916    1       39.375288363557     112.529999988940      50.000000000000
      2917    1       36.422141730823     117.644999986946      50.000000000000
      2918    1       39.375288363557     115.939999980321      50.000000000000
      2919    1       36.422141730823     121.054999989262      50.000000000000
      2920    1       39.375288363557     119.349999982637      50.000000000000
      2921    1       42.328434985357     110.824999982315      50.000000000000
      2922    1       45.281581618090     109.119999986624      50.000000000000
      2923    1       42.328434985357     114.234999984630      50.000000000000
      2924    1       45.281581618090     112.529999988940      50.000000000000
      2925    1       42.328434985357     117.644999986946      50.000000000000
      2926    1       45.281581618090     115.939999980321      50.000000000000
      2927    1       42.328434985357     121.054999989262      50.000000000000
      2928    1       45.281581618090     119.349999982637      50.000000000000
      2929    2       35.437759527201     109.119999986624      50.000000000000
      2930    2       38.390906149001     110.824999982315      50.000000000000
      2931    2       35.437759527201     112.529999988940      50.000000000000
      2932    2       38.390906149001     114.234999984630      50.000000000000
      2933    2       35.437759527201     115.939999980321      50.000000000000
      2934    2       38.390906149001     117.644999986946      50.000000000000
      2935    2       35.437759527201     119.349999982637      50.000000000000
      2936    2       38.390906149001     121.054999989262      50.000000000000
      2937    2       41.344052781735     109.119999986624      50.000000000000
      2938    2       44.297199403535     110.824999982315      50.000000000000
      2939    2       41.344052781735     112.529999988940      50.000000000000
      2940    2       44.297199403535     114.234999984630      50.000000000000
      2941    2       41.344052781735     115.939999980321      50.000000000000
      2942    2       44.297199403535     117.644999986946      50.000000000000
      2943    2       41.344052781735     119.349999982637      50.000000000000
      2944    2       44.297199403535     121.054999989262      50.000000000000
      2945    1       48.234728239890     110.824999982315      50.000000000000
      2946    1       51.187874872624     109.119999986624      50.000000000000
      2947    1       48.234728239890     114.234999984630      50.000000000000
      2948    1       51.187874872624     112.529999988940      50.000000000000
      2949    1       48.234728239890     117.644999986946      50.000000000000
      2950    1       51.187874872624     115.939999980321      50.000000000000
      2951    1       48.234728239890     121.054999989262      50.000000000000
      2952    1       51.187874872624     119.349999982637      50.000000000000
      2953    1       54.141021494424     110.824999982315      50.000000000000
      2954    1       57.094168127157     109.119999986624      50.000000000000
      2955    1       54.141021494424     114.234999984630      50.000000000000
      2956    1       57.094168127157     112.529999988940      50.000000000000
      2957    1       54.141021494424     117.644999986946      50.000000000000
      2958    1       57.094168127157     115.939999980321      50.000000000000
      2959    1       54.141021494424     121.054999989262      50.000000000000
      2960    1       57.094168127157     119.349999982637      50.000000000000
      2961    2       47.250346036268     109.119999986624      50.000000000000
      2962    2       50.203492658068     110.824999982315      50.000000000000
      2963    2       47.250346036268     112.529999988940      50.000000000000
      2964    2       50.203492658068     114.234999984630      50.000000000000
      2965    2       47.250346036268     115.939999980321      50.000000000000
      2966    2       50.203492658068     117.644999986946      50.000000000000
      2967    2       47.250346036268     119.349999982637      50.000000000000
      2968    2       50.203492658068     121.054999989262      50.000000000000
      2969    2       53.156639290802     109.119999986624      50.000000000000
      2970    2       56.109785912602     110.824999982315      50.000000000000
      2971    2       53.156639290802     112.529999988940      50.000000000000
      2972    2       56.109785912602     114.234999984630      50.000000000000
      2973    2       53.156639290802     115.939999980321      50.000000000000
      2974    2       56.109785912602     117.644999986946      50.000000000000
      2975    2       53.156639290802     119.349999982637      50.000000000000
      2976    2       56.109785912602     121.054999989262      50.000000000000
      2977    1       60.047314748957     110.824999982315      50.000000000000
      2978    1       63.000461381691     109.119999986624      50.000000000000
      2979    1       60.047314748957     114.234999984630      50.000000000000
      2980    1       63.000461381691     112.529999988940      50.000000000000
      2981    1       60.047314748957     117.644999986946      50.000000000000
      2982    1       63.000461381691     115.939999980321      50.000000000000
      2983    1       60.047314748957     121.054999989262      50.000000000000
      2984    1       63.000461381691     119.349999982637      50.000000000000
      2985    1       65.953608003491     110.824999982315      50.000000000000
      2986    1       68.906754636224     109.119999986624      50.000000000000
      2987    1       65.953608003491     114.234999984630      50.000000000000
      2988    1       68.906754636224     112.529999988940      50.000000000000
      2989    1       65.953608003491     117.644999986946      50.000000000000
      2990    1       68.906754636224     115.939999980321      50.000000000000
      2991    1       65.953608003491     121.054999989262      50.000000000000
      2992    1       68.906754636224     119.349999982637      50.000000000000
      2993    2       59.062932545335     109.119999986624      50.000000000000
      2994    2       62.016079167135     110.824999982315      50.000000000000
      2995    2       59.062932545335     112.529999988940      50.000000000000
      2996    2       62.016079167135     114.234999984630      50.000000000000
      2997    2       59.062932545335     115.939999980321      50.000000000000
      2998    2       62.016079167135     117.644999986946      50.000000000000
      2999    2       59.062932545335     119.349999982637      50.000000000000
      3000    2       62.016079167135     121.054999989262      50.000000000000
      3001    2       64.969225799869     109.119999986624      50.000000000000
      3002    2       67.922372421669     110.824999982315      50.000000000000
      3003    2       64.969225799869     112.529999988940      50.000000000000
      3004    2       67.922372421669     114.234999984630      50.000000000000
      3005    2       64.969225799869     115.939999980321      50.000000000000
      3006    2       67.922372421669     117.644999986946      50.000000000000
      3007    2       64.969225799869     119.349999982637      50.000000000000
      3008    2       67.922372421669     121.054999989262      50.000000000000
      3009    1       71.859901258024     110.824999982315      50.000000000000
      3010    1       74.813047890758     109.119999986624      50.000000000000
      3011    1       71.859901258024     114.234999984630      50.000000000000
      3012    1       74.813047890758     112.529999988940      50.000000000000
      3013    1       71.859901258024     117.644999986946      50.000000000000
      3014    1       74.813047890758     115.939999980321      50.000000000000
      3015    1       71.859901258024     121.054999989262      50.000000000000
      3016    1       74.813047890758     119.349999982637      50.000000000000
      3017    1       77.766194512558     110.824999982315      50.000000000000
      3018    1       80.719341145291     109.119999986624      50.000000000000
      3019    1       77.766194512558     114.234999984630      50.000000000000
      3020    1       80.719341145291     112.529999988940      50.000000000000
      3021    1       77.766194512558     117.644999986946      50.000000000000
      3022    1       80.719341145291     115.939999980321      50.000000000000
      3023    1       77.766194512558     121.054999989262      50.000000000000
      3024    1       80.719341145291     119.349999982637      50.000000000000
      3025    2       70.875519054402     109.119999986624      50.000000000000
      3026    2       73.828665676202     110.824999982315      50.000000000000
      3027    2       70.875519054402     112.529999988940      50.000000000000
      3028    2       73.828665676202     114.234999984630      50.000000000000
      3029    2       70.875519054402     115.939999980321      50.000000000000
      3030    2       73.828665676202     117.644999986946      50.000000000000
      3031    2       70.875519054402     119.349999982637      50.000000000000
      3032    2       73.828665676202     121.054999989262      50.000000000000
      3033    2       76.781812308936     109.119999986624      50.000000000000
      3034    2       79.734958930736     110.824999982315      50.000000000000
      3035    2       76.781812308936     112.529999988940      50.000000000000
      3036    2       79.734958930736     114.234999984630      50.000000000000
      3037    2       76.781812308936     115.939999980321      50.000000000000
      3038    2       79.734958930736     117.644999986946      50.000000000000
      3039    2       76.781812308936     119.349999982637      50.000000000000
      3040    2       79.734958930736     121.054999989262      50.000000000000
      3041    1       83.672487767091     110.824999982315      50.000000000000
      3042    1       86.625634399825     109.119999986624      50.000000000000
      3043    1       83.672487767091     114.234999984630      50.000000000000
      3044    1       86.625634399825     112.529999988940      50.000000000000
      3045    1       83.672487767091     117.644999986946      50.000000000000
      3046    1       86.625634399825     115.939999980321      50.000000000000
      3047    1       83.672487767091     121.054999989262      50.000000000000
      3048    1       86.625634399825     119.349999982637      50.000000000000
      3049    1       89.578781021625     110.824999982315      50.000000000000
      3050    1       92.531927654358     109.119999986624      50.000000000000
      3051    1       89.578781021625     114.234999984630      50.000000000000
      3052    1       92.531927654358     112.529999988940      50.000000000000
      3053    1       89.578781021625     117.644999986946      50.000000000000
      3054    1       92.531927654358     115.939999980321      50.000000000000
      3055    1       89.578781021625     121.054999989262      50.000000000000
      3056    1       92.531927654358     119.349999982637      50.000000000000
      3057    2       82.688105563469     109.119999986624      50.000000000000
      3058    2       85.641252185269     110.824999982315      50.000000000000
      3059    2       82.688105563469     112.529999988940      50.000000000000
      3060    2       85.641252185269     114.234999984630      50.000000000000
      3061    2       82.688105563469     115.939999980321      50.000000000000
      3062    2       85.641252185269     117.644999986946      50.000000000000
      3063    2       82.688105563469     119.349999982637      50.000000000000
      3064    2       85.641252185269     121.054999989262      50.000000000000
      3065    2       88.594398818003     109.119999986624      50.000000000000
      3066    2       91.547545439803     110.824999982315      50.000000000000
      3067    2       88.594398818003     112.529999988940      50.000000000000
      3068    2       91.547545439803     114.234999984630      50.000000000000
      3069    2       88.594398818003     115.939999980321      50.000000000000
      3070    2       91.547545439803     117.644999986946      50.000000000000
      3071    2       88.594398818003     119.349999982637      50.000000000000
      3072    2       91.547545439803     121.054999989262      50.000000000000
      3073    1       95.485074276158     110.824999982315      50.000000000000
      3074    1       98.438220908892     109.119999986624      50.000000000000
      3075    1       95.485074276158     114.234999984630      50.000000000000
      3076    1       98.438220908892     112.529999988940      50.000000000000
      3077    1       95.485074276158     117.644999986946      50.000000000000
      3078    1       98.438220908892     115.939999980321      50.000000000000
      3079    1       95.485074276158     121.054999989262      50.000000000000
      3080    1       98.438220908892     119.349999982637      50.000000000000
      3081    1      101.391367530692     110.824999982315      50.000000000000
      3082    1      104.344514163425     109.119999986624      50.000000000000
      3083    1      101.391367530692     114.234999984630      50.000000000000
      3084    1      104.344514163425     112.529999988940      50.000000000000
      3085    1      101.391367530692     117.644999986946      50.000000000000
      3086    1      104.344514163425     115.939999980321      50.000000000000
      3087    1      101.391367530692     121.054999989262      50.000000000000
      3088    1      104.344514163425     119.349999982637      50.000000000000
      3089    2       94.500692072536     109.119999986624      50.000000000000
      3090    2       97.453838694336     110.824999982315      50.000000000000
      3091    2       94.500692072536     112.529999988940      50.000000000000
      3092    2       97.453838694336     114.234999984630      50.000000000000
      3093    2       94.500692072536     115.939999980321      50.000000000000
      3094    2       97.453838694336     117.644999986946      50.000000000000
      3095    2       94.500692072536     119.349999982637      50.000000000000
      3096    2       97.453838694336     121.054999989262      50.000000000000
      3097    2      100.406985327070     109.119999986624      50.000000000000
      3098    2      103.360131948870     110.824999982315      50.000000000000
      3099    2      100.406985327070     112.529999988940      50.000000000000
      3100    2      103.360131948870     114.234999984630      50.000000000000
      3101    2      100.406985327070     115.939999980321      50.000000000000
      3102    2      103.360131948870     117.644999986946      50.000000000000
      3103    2      100.406985327070     119.349999982637      50.000000000000
      3104    2      103.360131948870     121.054999989262      50.000000000000
      3105    1      107.297660785225     110.824999982315      50.000000000000
      3106    1      110.250807417959     109.119999986624      50.000000000000
      3107    1      107.297660785225     114.234999984630      50.000000000000
      3108    1      110.250807417959     112.529999988940      50.000000000000
      3109    1      107.297660785225     117.644999986946      50.000000000000
      3110    1      110.250807417959     115.939999980321      50.000000000000
      3111    1      107.297660785225     121.054999989262      50.000000000000
      3112    1      110.250807417959     119.349999982637      50.000000000000
      3113    1      113.203954039759     110.824999982315      50.000000000000
      3114    1      116.157100672492     109.119999986624      50.000000000000
      3115    1      113.203954039759     114.234999984630      50.000000000000
      3116    1      116.157100672492     112.529999988940      50.000000000000
      3117    1      113.203954039759     117.644999986946      50.000000000000
      3118    1      116.157100672492     115.939999980321      50.000000000000
      3119    1      113.203954039759     121.054999989262      50.000000000000
      3120    1      116.157100672492     119.349999982637      50.000000000000
      3121    2      106.313278581603     109.119999986624      50.000000000000
      3122    2      109.266425203403     110.824999982315      50.000000000000
      3123    2      106.313278581603     112.529999988940      50.000000000000
      3124    2      109.266425203403     114.234999984630      50.000000000000
      3125    2      106.313278581603     115.939999980321      50.000000000000
      3126    2      109.266425203403     117.644999986946      50.000000000000
      3127    2      106.313278581603     119.349999982637      50.000000000000
      3128    2      109.266425203403     121.054999989262      50.000000000000
      3129    2      112.219571836137     109.119999986624      50.000000000000
      3130    2      115.172718457937     110.824999982315      50.000000000000
      3131    2      112.219571836137     112.529999988940      50.000000000000
      3132    2      115.172718457937     114.234999984630      50.000000000000
      3133    2      112.219571836137     115.939999980321      50.000000000000
      3134    2      115.172718457937     117.644999986946      50.000000000000
      3135    2      112.219571836137     119.349999982637      50.000000000000
      3136    2      115.172718457937     121.054999989262      50.000000000000
      3137    1      119.110247294292     110.824999982315      50.000000000000
      3138    1      122.063393927026     109.119999986624      50.000000000000
      3139    1      119.110247294292     114.234999984630      50.000000000000
      3140    1      122.063393927026     112.529999988940      50.000000000000
      3141    1      119.110247294292     117.644999986946      50.000000000000
      3142    1      122.063393927026     115.939999980321      50.000000000000
      3143    1      119.110247294292     121.054999989262      50.000000000000
      3144    1      122.063393927026     119.349999982637      50.000000000000
      3145    1      125.016540548826     110.824999982315      50.000000000000
      3146    1      127.969687181559     109.119999986624      50.000000000000
      3147    1      125.016540548826     114.234999984630      50.000000000000
      3148    1      127.969687181559     112.529999988940      50.000000000000
      3149    1      125.016540548826     117.644999986946      50.000000000000
      3150    1      127.969687181559     115.939999980321      50.000000000000
      3151    1      125.016540548826     121.054999989262      50.000000000000
      3152    1      127.969687181559     119.349999982637      50.000000000000
      3153    2      118.125865090670     109.119999986624      50.000000000000
      3154    2      121.079011712470     110.824999982315      50.000000000000
      3155    2      118.125865090670     112.529999988940      50.000000000000
      3156    2      121.079011712470     114.234999984630      50.000000000000
      3157    2      118.125865090670     115.939999980321      50.000000000000
      3158    2      121.079011712470     117.644999986946      50.000000000000
      3159    2      118.125865090670     119.349999982637      50.000000000000
      3160    2      121.079011712470     121.054999989262      50.000000000000
      3161    2      124.032158345204     109.119999986624      50.000000000000
      3162    2      126.985304967004     110.824999982315      50.000000000000
      3163    2      124.032158345204     112.529999988940      50.000000000000
      3164    2      126.985304967004     114.234999984630      50.000000000000
      3165    2      124.032158345204     115.939999980321      50.000000000000
      3166    2      126.985304967004     117.644999986946      50.000000000000
      3167    2      124.032158345204     119.349999982637      50.000000000000
      3168    2      126.985304967004     121.054999989262      50.000000000000
      3169    1        0.984382203622     124.464999980643      50.000000000000
      3170    1        3.937528836356     122.759999984952      50.000000000000
      3171    1        0.984382203622     127.874999982958      50.000000000000
      3172    1        3.937528836356     126.169999987268      50.000000000000
      3173    1        0.984382203622     131.284999985274      50.000000000000
      3174    1        3.937528836356     129.579999978649      50.000000000000
      3175    1        0.984382203622     134.694999987590      50.000000000000
      3176    1        3.937528836356     132.989999980965      50.000000000000
      3177    1        6.890675458156     124.464999980643      50.000000000000
      3178    1        9.843822090889     122.759999984952      50.000000000000
      3179    1        6.890675458156     127.874999982958      50.000000000000
      3180    1        9.843822090889     126.169999987268      50.000000000000
      3181    1        6.890675458156     131.284999985274      50.000000000000
      3182    1        9.843822090889     129.579999978649      50.000000000000
      3183    1        6.890675458156     134.694999987590      50.000000000000
      3184    1        9.843822090889     132.989999980965      50.000000000000
      3185    2        0.000000000000     122.759999984952      50.000000000000
      3186    2        2.953146621800     124.464999980643      50.000000000000
      3187    2        0.000000000000     126.169999987268      50.000000000000
      3188    2        2.953146621800     127.874999982958      50.000000000000
      3189    2        0.000000000000     129.579999978649      50.000000000000
      3190    2        2.953146621800     131.284999985274      50.000000000000
      3191    2        0.000000000000     132.989999980965      50.000000000000
      3192    2        2.953146621800     134.694999987590      50.000000000000
      3193    2        5.906293254534     122.759999984952      50.000000000000
      3194    2        8.859439876334     124.464999980643      50.000000000000
      3195    2        5.906293254534     126.169999987268      50.000000000000
      3196    2        8.859439876334     127.874999982958      50.000000000000
      3197    2        5.906293254534     129.579999978649      50.000000000000
      3198    2        8.859439876334     131.284999985274      50.000000000000
      3199    2        5.906293254534     132.989999980965      50.000000000000
      3200    2        8.859439876334     134.694999987590      50.000000000000
      3201    1       12.796968712689     124.464999980643      50.000000000000
      3202    1       15.750115345423     122.759999984952      50.000000000000
      3203    1       12.796968712689     127.874999982958      50.000000000000
      3204    1       15.750115345423     126.169999987268      50.000000000000
      3205    1       12.796968712689     131.284999985274      50.000000000000
      3206    1       15.750115345423     129.579999978649      50.000000000000
      3207    1       12.796968712689     134.694999987590      50.000000000000
      3208    1       15.750115345423     132.989999980965      50.000000000000
      3209    1       18.703261967223     124.464999980643      50.000000000000
      3210    1       21.656408599956     122.759999984952      50.000000000000
      3211    1       18.703261967223     127.874999982958      50.000000000000
      3212    1       21.656408599956     126.169999987268      50.000000000000
      3213    1       18.703261967223     131.284999985274      50.000000000000
      3214    1       21.656408599956     129.579999978649      50.000000000000
      3215    1       18.703261967223     134.694999987590      50.000000000000
      3216    1       21.656408599956     132.989999980965      50.000000000000
      3217    2       11.812586509067     122.759999984952      50.000000000000
      3218    2       14.765733130867     124.464999980643      50.000000000000
      3219    2       11.812586509067     126.169999987268      50.000000000000
      3220    2       14.765733130867     127.874999982958      50.000000000000
      3221    2       11.812586509067     129.579999978649      50.000000000000
      3222    2       14.765733130867     131.284999985274      50.000000000000
      3223    2       11.812586509067     132.989999980965      50.000000000000
      3224    2       14.765733130867     134.694999987590      50.000000000000
      3225    2       17.718879763601     122.759999984952      50.000000000000
      3226    2       20.672026385401     124.464999980643      50.000000000000
      3227    2       17.718879763601     126.169999987268      50.000000000000
      3228    2       20.672026385401     127.874999982958      50.000000000000
      3229    2       17.718879763601     129.579999978649      50.000000000000
      3230    2       20.672026385401     131.284999985274      50.000000000000
      3231    2       17.718879763601     132.989999980965      50.000000000000
      3232    2       20.672026385401     134.694999987590      50.000000000000
      3233    1       24.609555221756     124.464999980643      50.000000000000
      3234    1       27.562701854490     122.759999984952      50.000000000000
      3235    1       24.609555221756     127.874999982958      50.000000000000
      3236    1       27.562701854490     126.169999987268      50.000000000000
      3237    1       24.609555221756     131.284999985274      50.000000000000
      3238    1       27.562701854490     129.579999978649      50.000000000000
      3239    1       24.609555221756     134.694999987590      50.000000000000
      3240    1       27.562701854490     132.989999980965      50.000000000000
      3241    1       30.515848476290     124.464999980643      50.000000000000
      3242    1       33.468995109023     122.759999984952      50.000000000000
      3243    1       30.515848476290     127.874999982958      50.000000000000
      3244    1       33.468995109023     126.169999987268      50.000000000000
      3245    1       30.515848476290     131.284999985274      50.000000000000
      3246    1       33.468995109023     129.579999978649      50.000000000000
      3247    1       30.515848476290     134.694999987590      50.000000000000
      3248    1       33.468995109023     132.989999980965      50.000000000000
      3249    2       23.625173018134     122.759999984952      50.000000000000
      3250    2       26.578319639934     124.464999980643      50.000000000000
      3251    2       23.625173018134     126.169999987268      50.000000000000
      3252    2       26.578319639934     127.874999982958      50.000000000000
      3253    2       23.625173018134     129.579999978649      50.000000000000
      3254    2       26.578319639934     131.284999985274      50.000000000000
      3255    2       23.625173018134     132.989999980965      50.000000000000
      3256    2       26.578319639934     134.694999987590      50.000000000000
      3257    2       29.531466272668     122.759999984952      50.000000000000
      3258    2       32.484612894468     124.464999980643      50.000000000000
      3259    2       29.531466272668     126.169999987268      50.000000000000
      3260    2       32.484612894468     127.874999982958      50.000000000000
      3261    2       29.531466272668     129.579999978649      50.000000000000
      3262    2       32.484612894468     131.284999985274      50.000000000000
      3263    2       29.531466272668     132.989999980965      50.000000000000
      3264    2       32.484612894468     134.694999987590      50.000000000000
      3265    1       36.422141730823     124.464999980643      50.000000000000
      3266    1       39.375288363557     122.759999984952      50.000000000000
      3267    1       36.422141730823     127.874999982958      50.000000000000
      3268    1       39.375288363557     126.169999987268      50.000000000000
      3269    1       36.422141730823     131.284999985274      50.000000000000
      3270    1       39.375288363557     129.579999978649      50.000000000000
      3271    1       36.422141730823     134.694999987590      50.000000000000
      3272    1       39.375288363557     132.989999980965      50.000000000000
      3273    1       42.328434985357     124.464999980643      50.000000000000
      3274    1       45.281581618090     122.759999984952      50.000000000000
      3275    1       42.328434985357     127.874999982958      50.000000000000
      3276    1       45.281581618090     126.169999987268      50.000000000000
      3277    1       42.328434985357     131.284999985274      50.000000000000
      3278    1       45.281581618090     129.579999978649      50.000000000000
      3279    1       42.328434985357     134.694999987590      50.000000000000
      3280    1       45.281581618090     132.989999980965      50.000000000000
      3281    2       35.437759527201     122.759999984952      50.000000000000
      3282    2       38.390906149001     124.464999980643      50.000000000000
      3283    2       35.437759527201     126.169999987268      50.000000000000
      3284    2       38.390906149001     127.874999982958      50.000000000000
      3285    2       35.437759527201     129.579999978649      50.000000000000
      3286    2       38.390906149001     131.284999985274      50.000000000000
      3287    2       35.437759527201     132.989999980965      50.000000000000
      3288    2       38.390906149001     134.694999987590      50.000000000000
      3289    2       41.344052781735     122.759999984952      50.000000000000
      3290    2       44.297199403535     124.464999980643      50.000000000000
      3291    2       41.344052781735     126.169999987268      50.000000000000
      3292    2       44.297199403535     127.874999982958      50.000000000000
      3293    2       41.344052781735     129.579999978649      50.000000000000
      3294    2       44.297199403535     131.284999985274      50.000000000000
      3295    2       41.344052781735     132.989999980965      50.000000000000
      3296    2       44.297199403535     134.694999987590      50.000000000000
      3297    1       48.234728239890     124.464999980643      50.000000000000
      3298    1       51.187874872624     122.759999984952      50.000000000000
      3299    1       48.234728239890     127.874999982958      50.000000000000
      3300    1       51.187874872624     126.169999987268      50.000000000000
      3301    1       48.234728239890     131.284999985274      50.000000000000
      3302    1       51.187874872624     129.579999978649      50.000000000000
      3303    1       48.234728239890     134.694999987590      50.000000000000
      3304    1       51.187874872624     132.989999980965      50.000000000000
      3305    1       54.141021494424     124.464999980643      50.000000000000
      3306    1       57.094168127157     122.759999984952      50.000000000000
      3307    1       54.141021494424     127.874999982958      50.000000000000
      3308    1       57.094168127157     126.169999987268      50.000000000000
      3309    1       54.141021494424     131.284999985274      50.000000000000
      3310    1       57.094168127157     129.579999978649      50.000000000000
      3311    1       54.141021494424     134.694999987590      50.000000000000
      3312    1       57.094168127157     132.989999980965      50.000000000000
      3313    2       47.250346036268     122.759999984952      50.000000000000
      3314    2       50.203492658068     124.464999980643      50.000000000000
      3315    2       47.250346036268     126.169999987268      50.000000000000
      3316    2       50.203492658068     127.874999982958      50.000000000000
      3317    2       47.250346036268     129.579999978649      50.000000000000
      3318    2       50.203492658068     131.284999985274      50.000000000000
      3319    2       47.250346036268     132.989999980965      50.000000000000
      3320    2       50.203492658068     134.694999987590      50.000000000000
      3321    2       53.156639290802     122.759999984952      50.000000000000
      3322    2       56.109785912602     124.464999980643      50.000000000000
      3323    2       53.156639290802     126.169999987268      50.000000000000
      3324    2       56.109785912602     127.874999982958      50.000000000000
      3325    2       53.156639290802     129.579999978649      50.000000000000
      3326    2       56.109785912602     131.284999985274      50.000000000000
      3327    2       53.156639290802     132.989999980965      50.000000000000
      3328    2       56.109785912602     134.694999987590      50.000000000000
      3329    1       60.047314748957     124.464999980643      50.000000000000
      3330    1       63.000461381691     122.759999984952      50.000000000000
      3331    1       60.047314748957     127.874999982958      50.000000000000
      3332    1       63.000461381691     126.169999987268      50.000000000000
      3333    1       60.047314748957     131.284999985274      50.000000000000
      3334    1       63.000461381691     129.579999978649      50.000000000000
      3335    1       60.047314748957     134.694999987590      50.000000000000
      3336    1       63.000461381691     132.989999980965      50.000000000000
      3337    1       65.953608003491     124.464999980643      50.000000000000
      3338    1       68.906754636224     122.759999984952      50.000000000000
      3339    1       65.953608003491     127.874999982958      50.000000000000
      3340    1       68.906754636224     126.169999987268      50.000000000000
      3341    1       65.953608003491     131.284999985274      50.000000000000
      3342    1       68.906754636224     129.579999978649      50.000000000000
      3343    1       65.953608003491     134.694999987590      50.000000000000
      3344    1       68.906754636224     132.989999980965      50.000000000000
      3345    2       59.062932545335     122.759999984952      50.000000000000
      3346    2       62.016079167135     124.464999980643      50.000000000000
      3347    2       59.062932545335     126.169999987268      50.000000000000
      3348    2       62.016079167135     127.874999982958      50.000000000000
      3349    2       59.062932545335     129.579999978649      50.000000000000
      3350    2       62.016079167135     131.284999985274      50.000000000000
      3351    2       59.062932545335     132.989999980965      50.000000000000
      3352    2       62.016079167135     134.694999987590      50.000000000000
      3353    2       64.969225799869     122.759999984952      50.000000000000
      3354    2       67.922372421669     124.464999980643      50.000000000000
      3355    2       64.969225799869     126.169999987268      50.000000000000
      3356    2       67.922372421669     127.874999982958      50.000000000000
      3357    2       64.969225799869     129.579999978649      50.000000000000
      3358    2       67.922372421669     131.284999985274      50.000000000000
      3359    2       64.969225799869     132.989999980965      50.000000000000
      3360    2       67.922372421669     134.694999987590      50.000000000000
      3361    1       71.859901258024     124.464999980643      50.000000000000
      3362    1       74.813047890758     122.759999984952      50.000000000000
      3363    1       71.859901258024     127.874999982958      50.000000000000
      3364    1       74.813047890758     126.169999987268      50.000000000000
      3365    1       71.859901258024     131.284999985274      50.000000000000
      3366    1       74.813047890758     129.579999978649      50.000000000000
      3367    1       71.859901258024     134.694999987590      50.000000000000
      3368    1       74.813047890758     132.989999980965      50.000000000000
      3369    1       77.766194512558     124.464999980643      50.000000000000
      3370    1       80.719341145291     122.759999984952      50.000000000000
      3371    1       77.766194512558     127.874999982958      50.000000000000
      3372    1       80.719341145291     126.169999987268      50.000000000000
      3373    1       77.766194512558     131.284999985274      50.000000000000
      3374    1       80.719341145291     129.579999978649      50.000000000000
      3375    1       77.766194512558     134.694999987590      50.000000000000
      3376    1       80.719341145291     132.989999980965      50.000000000000
      3377    2       70.875519054402     122.759999984952      50.000000000000
      3378    2       73.828665676202     124.464999980643      50.000000000000
      3379    2       70.875519054402     126.169999987268      50.000000000000
      3380    2       73.828665676202     127.874999982958      50.000000000000
      3381    2       70.875519054402     129.579999978649      50.000000000000
      3382    2       73.828665676202     131.284999985274      50.000000000000
      3383    2       70.875519054402     132.989999980965      50.000000000000
      3384    2       73.828665676202     134.694999987590      50.000000000000
      3385    2       76.781812308936     122.759999984952      50.000000000000
      3386    2       79.734958930736     124.464999980643      50.000000000000
      3387    2       76.781812308936     126.169999987268      50.000000000000
      3388    2       79.734958930736     127.874999982958      50.000000000000
      3389    2       76.781812308936     129.579999978649      50.000000000000
      3390    2       79.734958930736     131.284999985274      50.000000000000
      3391    2       76.781812308936     132.989999980965      50.000000000000
      3392    2       79.734958930736     134.694999987590      50.000000000000
      3393    1       83.672487767091     124.464999980643      50.000000000000
      3394    1       86.625634399825     122.759999984952      50.000000000000
      3395    1       83.672487767091     127.874999982958      50.000000000000
      3396    1       86.625634399825     126.169999987268      50.000000000000
      3397    1       83.672487767091     131.284999985274      50.000000000000
      3398    1       86.625634399825     129.579999978649      50.000000000000
      3399    1       83.672487767091     134.694999987590      50.000000000000
      3400    1       86.625634399825     132.989999980965      50.000000000000
      3401    1       89.578781021625     124.464999980643      50.000000000000
      3402    1       92.531927654358     122.759999984952      50.000000000000
      3403    1       89.578781021625     127.874999982958      50.000000000000
      3404    1       92.531927654358     126.169999987268      50.000000000000
      3405    1       89.578781021625     131.284999985274      50.000000000000
      3406    1       92.531927654358     129.579999978649      50.000000000000
      3407    1       89.578781021625     134.694999987590      50.000000000000
      3408    1       92.531927654358     132.989999980965      50.000000000000
      3409    2       82.688105563469     122.759999984952      50.000000000000
      3410    2       85.641252185269     124.464999980643      50.000000000000
      3411    2       82.688105563469     126.169999987268      50.000000000000
      3412    2       85.641252185269     127.874999982958      50.000000000000
      3413    2       82.688105563469     129.579999978649      50.000000000000
      3414    2       85.641252185269     131.284999985274      50.000000000000
      3415    2       82.688105563469     132.989999980965      50.000000000000
      3416    2       85.641252185269     134.694999987590      50.000000000000
      3417    2       88.594398818003     122.759999984952      50.000000000000
      3418    2       91.547545439803     124.464999980643      50.000000000000
      3419    2       88.594398818003     126.169999987268      50.000000000000
      3420    2       91.547545439803     127.874999982958      50.000000000000
      3421    2       88.594398818003     129.579999978649      50.000000000000
      3422    2       91.547545439803     131.284999985274      50.000000000000
      3423    2       88.594398818003     132.989999980965      50.000000000000
      3424    2       91.547545439803     134.694999987590      50.000000000000
      3425    1       95.485074276158     124.464999980643      50.000000000000
      3426    1       98.438220908892     122.759999984952      50.000000000000
      3427    1       95.485074276158     127.874999982958      50.000000000000
      3428    1       98.438220908892     126.169999987268      50.000000000000
      3429    1       95.485074276158     131.284999985274      50.000000000000
      3430    1       98.438220908892     129.579999978649      50.000000000000
      3431    1       95.485074276158     134.694999987590      50.000000000000
      3432    1       98.438220908892     132.989999980965      50.000000000000
      3433    1      101.391367530692     124.464999980643      50.000000000000
      3434    1      104.344514163425     122.759999984952      50.000000000000
      3435    1      101.391367530692     127.874999982958      50.000000000000
      3436    1      104.344514163425     126.169999987268      50.000000000000
      3437    1      101.391367530692     131.284999985274      50.000000000000
      3438    1      104.344514163425     129.579999978649      50.000000000000
      3439    1      101.391367530692     134.694999987590      50.000000000000
      3440    1      104.344514163425     132.989999980965      50.000000000000
      3441    2       94.500692072536     122.759999984952      50.000000000000
      3442    2       97.453838694336     124.464999980643      50.000000000000
      3443    2       94.500692072536     126.169999987268      50.000000000000
      3444    2       97.453838694336     127.874999982958      50.000000000000
      3445    2       94.500692072536     129.579999978649      50.000000000000
      3446    2       97.453838694336     131.284999985274      50.000000000000
      3447    2       94.500692072536     132.989999980965      50.000000000000
      3448    2       97.453838694336     134.694999987590      50.000000000000
      3449    2      100.406985327070     122.759999984952      50.000000000000
      3450    2      103.360131948870     124.464999980643      50.000000000000
      3451    2      100.406985327070     126.169999987268      50.000000000000
      3452    2      103.360131948870     127.874999982958      50.000000000000
      3453    2      100.406985327070     129.579999978649      50.000000000000
      3454    2      103.360131948870     131.284999985274      50.000000000000
      3455    2      100.406985327070     132.989999980965      50.000000000000
      3456    2      103.360131948870     134.694999987590      50.000000000000
      3457    1      107.297660785225     124.464999980643      50.000000000000
      3458    1      110.250807417959     122.759999984952      50.000000000000
      3459    1      107.297660785225     127.874999982958      50.000000000000
      3460    1      110.250807417959     126.169999987268      50.000000000000
      3461    1      107.297660785225     131.284999985274      50.000000000000
      3462    1      110.250807417959     129.579999978649      50.000000000000
      3463    1      107.297660785225     134.694999987590      50.000000000000
      3464    1      110.250807417959     132.989999980965      50.000000000000
      3465    1      113.203954039759     124.464999980643      50.000000000000
      3466    1      116.157100672492     122.759999984952      50.000000000000
      3467    1      113.203954039759     127.874999982958      50.000000000000
      3468    1      116.157100672492     126.169999987268      50.000000000000
      3469    1      113.203954039759     131.284999985274      50.000000000000
      3470    1      116.157100672492     129.579999978649      50.000000000000
      3471    1      113.203954039759     134.694999987590      50.000000000000
      3472    1      116.157100672492     132.989999980965      50.000000000000
      3473    2      106.313278581603     122.759999984952      50.000000000000
      3474    2      109.266425203403     124.464999980643      50.000000000000
      3475    2      106.313278581603     126.169999987268      50.000000000000
      3476    2      109.266425203403     127.874999982958      50.000000000000
      3477    2      106.313278581603     129.579999978649      50.000000000000
      3478    2      109.266425203403     131.284999985274      50.000000000000
      3479    2      106.313278581603     132.989999980965      50.000000000000
      3480    2      109.266425203403     134.694999987590      50.000000000000
      3481    2      112.219571836137     122.759999984952      50.000000000000
      3482    2      115.172718457937     124.464999980643      50.000000000000
      3483    2      112.219571836137     126.169999987268      50.000000000000
      3484    2      115.172718457937     127.874999982958      50.000000000000
      3485    2      112.219571836137     129.579999978649      50.000000000000
      3486    2      115.172718457937     131.284999985274      50.000000000000
      3487    2      112.219571836137     132.989999980965      50.000000000000
      3488    2      115.172718457937     134.694999987590      50.000000000000
      3489    1      119.110247294292     124.464999980643      50.000000000000
      3490    1      122.063393927026     122.759999984952      50.000000000000
      3491    1      119.110247294292     127.874999982958      50.000000000000
      3492    1      122.063393927026     126.169999987268      50.000000000000
      3493    1      119.110247294292     131.284999985274      50.000000000000
      3494    1      122.063393927026     129.579999978649      50.000000000000
      3495    1      119.110247294292     134.694999987590      50.000000000000
      3496    1      122.063393927026     132.989999980965      50.000000000000
      3497    1      125.016540548826     124.464999980643      50.000000000000
      3498    1      127.969687181559     122.759999984952      50.000000000000
      3499    1      125.016540548826     127.874999982958      50.000000000000
      3500    1      127.969687181559     126.169999987268      50.000000000000
      3501    1      125.016540548826     131.284999985274      50.000000000000
      3502    1      127.969687181559     129.579999978649      50.000000000000
      3503    1      125.016540548826     134.694999987590      50.000000000000
      3504    1      127.969687181559     132.989999980965      50.000000000000
      3505    2      118.125865090670     122.759999984952      50.000000000000
      3506    2      121.079011712470     124.464999980643      50.000000000000
      3507    2      118.125865090670     126.169999987268      50.000000000000
      3508    2      121.079011712470     127.874999982958      50.000000000000
      3509    2      118.125865090670     129.579999978649      50.000000000000
      3510    2      121.079011712470     131.284999985274      50.000000000000
      3511    2      118.125865090670     132.989999980965      50.000000000000
      3512    2      121.079011712470     134.694999987590      50.000000000000
      3513    2      124.032158345204     122.759999984952      50.000000000000
      3514    2      126.985304967004     124.464999980643      50.000000000000
      3515    2      124.032158345204     126.169999987268      50.000000000000
      3516    2      126.985304967004     127.874999982958      50.000000000000
      3517    2      124.032158345204     129.579999978649      50.000000000000
      3518    2      126.985304967004     131.284999985274      50.000000000000
      3519    2      124.032158345204     132.989999980965      50.000000000000
      3520    2      126.985304967004     134.694999987590      50.000000000000
      3521    1        0.984382203622     138.104999978971      50.000000000000
      3522    1        3.937528836356     136.399999983280      50.000000000000
      3523    1        0.984382203622     141.514999981286      50.000000000000
      3524    1        3.937528836356     139.809999985596      50.000000000000
      3525    1        0.984382203622     144.924999983602      50.000000000000
      3526    1        3.937528836356     143.219999976977      50.000000000000
      3527    1        0.984382203622     148.334999985918      50.000000000000
      3528    1        3.937528836356     146.629999979293      50.000000000000
      3529    1        6.890675458156     138.104999978971      50.000000000000
      3530    1        9.843822090889     136.399999983280      50.000000000000
      3531    1        6.890675458156     141.514999981286      50.000000000000
      3532    1        9.843822090889     139.809999985596      50.000000000000
      3533    1        6.890675458156     144.924999983602      50.000000000000
      3534    1        9.843822090889     143.219999976977      50.000000000000
      3535    1        6.890675458156     148.334999985918      50.000000000000
      3536    1        9.843822090889     146.629999979293      50.000000000000
      3537    2        0.000000000000     136.399999983280      50.000000000000
      3538    2        2.953146621800     138.104999978971      50.000000000000
      3539    2        0.000000000000     139.809999985596      50.000000000000
      3540    2        2.953146621800     141.514999981286      50.000000000000
      3541    2        0.000000000000     143.219999976977      50.000000000000
      3542    2        2.953146621800     144.924999983602      50.000000000000
      3543    2        0.000000000000     146.629999979293      50.000000000000
      3544    2        2.953146621800     148.334999985918      50.000000000000
      3545    2        5.906293254534     136.399999983280      50.000000000000
      3546    2        8.859439876334     138.104999978971      50.000000000000
      3547    2        5.906293254534     139.809999985596      50.000000000000
      3548    2        8.859439876334     141.514999981286      50.000000000000
      3549    2        5.906293254534     143.219999976977      50.000000000000
      3550    2        8.859439876334     144.924999983602      50.000000000000
      3551    2        5.906293254534     146.629999979293      50.000000000000
      3552    2        8.859439876334     148.334999985918      50.000000000000
      3553    1       12.796968712689     138.104999978971      50.000000000000
      3554    1       15.750115345423     136.399999983280      50.000000000000
      3555    1       12.796968712689     141.514999981286      50.000000000000
      3556    1       15.750115345423     139.809999985596      50.000000000000
      3557    1       12.796968712689     144.924999983602      50.000000000000
      3558    1       15.750115345423     143.219999976977      50.000000000000
      3559    1       12.796968712689     148.334999985918      50.000000000000
      3560    1       15.750115345423     146.629999979293      50.000000000000
      3561    1       18.703261967223     138.104999978971      50.000000000000
      3562    1       21.656408599956     136.399999983280      50.000000000000
      3563    1       18.703261967223     141.514999981286      50.000000000000
      3564    1       21.656408599956     139.809999985596      50.000000000000
      3565    1       18.703261967223     144.924999983602      50.000000000000
      3566    1       21.656408599956     143.219999976977      50.000000000000
      3567    1       18.703261967223     148.334999985918      50.000000000000
      3568    1       21.656408599956     146.629999979293      50.000000000000
      3569    2       11.812586509067     136.399999983280      50.000000000000
      3570    2       14.765733130867     138.104999978971      50.000000000000
      3571    2       11.812586509067     139.809999985596      50.000000000000
      3572    2       14.765733130867     141.514999981286      50.000000000000
      3573    2       11.812586509067     143.219999976977      50.000000000000
      3574    2       14.765733130867     144.924999983602      50.000000000000
      3575    2       11.812586509067     146.629999979293      50.000000000000
      3576    2       14.765733130867     148.334999985918      50.000000000000
      3577    2       17.718879763601     136.399999983280      50.000000000000
      3578    2       20.672026385401     138.104999978971      50.000000000000
      3579    2       17.718879763601     139.809999985596      50.000000000000
      3580    2       20.672026385401     141.514999981286      50.000000000000
      3581    2       17.718879763601     143.219999976977      50.000000000000
      3582    2       20.672026385401     144.924999983602      50.000000000000
      3583    2       17.718879763601     146.629999979293      50.000000000000
      3584    2       20.672026385401     148.334999985918      50.000000000000
      3585    1       24.609555221756     138.104999978971      50.000000000000
      3586    1       27.562701854490     136.399999983280      50.000000000000
      3587    1       24.609555221756     141.514999981286      50.000000000000
      3588    1       27.562701854490     139.809999985596      50.000000000000
      3589    1       24.609555221756     144.924999983602      50.000000000000
      3590    1       27.562701854490     143.219999976977      50.000000000000
      3591    1       24.609555221756     148.334999985918      50.000000000000
      3592    1       27.562701854490     146.629999979293      50.000000000000
      3593    1       30.515848476290     138.104999978971      50.000000000000
      3594    1       33.468995109023     136.399999983280      50.000000000000
      3595    1       30.515848476290     141.514999981286      50.000000000000
      3596    1       33.468995109023     139.809999985596      50.000000000000
      3597    1       30.515848476290     144.924999983602      50.000000000000
      3598    1       33.468995109023     143.219999976977      50.000000000000
      3599    1       30.515848476290     148.334999985918      50.000000000000
      3600    1       33.468995109023     146.629999979293      50.000000000000
      3601    2       23.625173018134     136.399999983280      50.000000000000
      3602    2       26.578319639934     138.104999978971      50.000000000000
      3603    2       23.625173018134     139.809999985596      50.000000000000
      3604    2       26.578319639934     141.514999981286      50.000000000000
      3605    2       23.625173018134     143.219999976977      50.000000000000
      3606    2       26.578319639934     144.924999983602      50.000000000000
      3607    2       23.625173018134     146.629999979293      50.000000000000
      3608    2       26.578319639934     148.334999985918      50.000000000000
      3609    2       29.531466272668     136.399999983280      50.000000000000
      3610    2       32.484612894468     138.104999978971      50.000000000000
      3611    2       29.531466272668     139.809999985596      50.000000000000
      3612    2       32.484612894468     141.514999981286      50.000000000000
      3613    2       29.531466272668     143.219999976977      50.000000000000
      3614    2       32.484612894468     144.924999983602      50.000000000000
      3615    2       29.531466272668     146.629999979293      50.000000000000
      3616    2       32.484612894468     148.334999985918      50.000000000000
      3617    1       36.422141730823     138.104999978971      50.000000000000
      3618    1       39.375288363557     136.399999983280      50.000000000000
      3619    1       36.422141730823     141.514999981286      50.000000000000
      3620    1       39.375288363557     139.809999985596      50.000000000000
      3621    1       36.422141730823     144.924999983602      50.000000000000
      3622    1       39.375288363557     143.219999976977      50.000000000000
      3623    1       36.422141730823     148.334999985918      50.000000000000
      3624    1       39.375288363557     146.629999979293      50.000000000000
      3625    1       42.328434985357     138.104999978971      50.000000000000
      3626    1       45.281581618090     136.399999983280      50.000000000000
      3627    1       42.328434985357     141.514999981286      50.000000000000
      3628    1       45.281581618090     139.809999985596      50.000000000000
      3629    1       42.328434985357     144.924999983602      50.000000000000
      3630    1       45.281581618090     143.219999976977      50.000000000000
      3631    1       42.328434985357     148.334999985918      50.000000000000
      3632    1       45.281581618090     146.629999979293      50.000000000000
      3633    2       35.437759527201     136.399999983280      50.000000000000
      3634    2       38.390906149001     138.104999978971      50.000000000000
      3635    2       35.437759527201     139.809999985596      50.000000000000
      3636    2       38.390906149001     141.514999981286      50.000000000000
      3637    2       35.437759527201     143.219999976977      50.000000000000
      3638    2       38.390906149001     144.924999983602      50.000000000000
      3639    2       35.437759527201     146.629999979293      50.000000000000
      3640    2       38.390906149001     148.334999985918      50.000000000000
      3641    2       41.344052781735     136.399999983280      50.000000000000
      3642    2       44.297199403535     138.104999978971      50.000000000000
      3643    2       41.344052781735     139.809999985596      50.000000000000
      3644    2       44.297199403535     141.514999981286      50.000000000000
      3645    2       41.344052781735     143.219999976977      50.000000000000
      3646    2       44.297199403535     144.924999983602      50.000000000000
      3647    2       41.344052781735     146.629999979293      50.000000000000
      3648    2       44.297199403535     148.334999985918      50.000000000000
      3649    1       48.234728239890     138.104999978971      50.000000000000
      3650    1       51.187874872624     136.399999983280      50.000000000000
      3651    1       48.234728239890     141.514999981286      50.000000000000
      3652    1       51.187874872624     139.809999985596      50.000000000000
      3653    1       48.234728239890     144.924999983602      50.000000000000
      3654    1       51.187874872624     143.219999976977      50.000000000000
      3655    1       48.234728239890     148.334999985918      50.000000000000
      3656    1       51.187874872624     146.629999979293      50.000000000000
      3657    1       54.141021494424     138.104999978971      50.000000000000
      3658    1       57.094168127157     136.399999983280      50.000000000000
      3659    1       54.141021494424     141.514999981286      50.000000000000
      3660    1       57.094168127157     139.809999985596      50.000000000000
      3661    1       54.141021494424     144.924999983602      50.000000000000
      3662    1       57.094168127157     143.219999976977      50.000000000000
      3663    1       54.141021494424     148.334999985918      50.000000000000
      3664    1       57.094168127157     146.629999979293      50.000000000000
      3665    2       47.250346036268     136.399999983280      50.000000000000
      3666    2       50.203492658068     138.104999978971      50.000000000000
      3667    2       47.250346036268     139.809999985596      50.000000000000
      3668    2       50.203492658068     141.514999981286      50.000000000000
      3669    2       47.250346036268     143.219999976977      50.000000000000
      3670    2       50.203492658068     144.924999983602      50.000000000000
      3671    2       47.250346036268     146.629999979293      50.000000000000
      3672    2       50.203492658068     148.334999985918      50.000000000000
      3673    2       53.156639290802     136.399999983280      50.000000000000
      3674    2       56.109785912602     138.104999978971      50.000000000000
      3675    2       53.156639290802     139.809999985596      50.000000000000
      3676    2       56.109785912602     141.514999981286      50.000000000000
      3677    2       53.156639290802     143.219999976977      50.000000000000
      3678    2       56.109785912602     144.924999983602      50.000000000000
      3679    2       53.156639290802     146.629999979293      50.000000000000
      3680    2       56.109785912602     148.334999985918      50.000000000000
      3681    1       60.047314748957     138.104999978971      50.000000000000
      3682    1       63.000461381691     136.399999983280      50.000000000000
      3683    1       60.047314748957     141.514999981286      50.000000000000
      3684    1       63.000461381691     139.809999985596      50.000000000000
      3685    1       60.047314748957     144.924999983602      50.000000000000
      3686    1       63.000461381691     143.219999976977      50.000000000000
      3687    1       60.047314748957     148.334999985918      50.000000000000
      3688    1       63.000461381691     146.629999979293      50.000000000000
      3689    1       65.953608003491     138.104999978971      50.000000000000
      3690    1       68.906754636224     136.399999983280      50.000000000000
      3691    1       65.953608003491     141.514999981286      50.000000000000
      3692    1       68.906754636224     139.809999985596      50.000000000000
      3693    1       65.953608003491     144.924999983602      50.000000000000
      3694    1       68.906754636224     143.219999976977      50.000000000000
      3695    1       65.953608003491     148.334999985918      50.000000000000
      3696    1       68.906754636224     146.629999979293      50.000000000000
      3697    2       59.062932545335     136.399999983280      50.000000000000
      3698    2       62.016079167135     138.104999978971      50.000000000000
      3699    2       59.062932545335     139.809999985596      50.000000000000
      3700    2       62.016079167135     141.514999981286      50.000000000000
      3701    2       59.062932545335     143.219999976977      50.000000000000
      3702    2       62.016079167135     144.924999983602      50.000000000000
      3703    2       59.062932545335     146.629999979293      50.000000000000
      3704    2       62.016079167135     148.334999985918      50.000000000000
      3705    2       64.969225799869     136.399999983280      50.000000000000
      3706    2       67.922372421669     138.104999978971      50.000000000000
      3707    2       64.969225799869     139.809999985596      50.000000000000
      3708    2       67.922372421669     141.514999981286      50.000000000000
      3709    2       64.969225799869     143.219999976977      50.000000000000
      3710    2       67.922372421669     144.924999983602      50.000000000000
      3711    2       64.969225799869     146.629999979293      50.000000000000
      3712    2       67.922372421669     148.334999985918      50.000000000000
      3713    1       71.859901258024     138.104999978971      50.000000000000
      3714    1       74.813047890758     136.399999983280      50.000000000000
      3715    1       71.859901258024     141.514999981286      50.000000000000
      3716    1       74.813047890758     139.809999985596      50.000000000000
      3717    1       71.859901258024     144.924999983602      50.000000000000
      3718    1       74.813047890758     143.219999976977      50.000000000000
      3719    1       71.859901258024     148.334999985918      50.000000000000
      3720    1       74.813047890758     146.629999979293      50.000000000000
      3721    1       77.766194512558     138.104999978971      50.000000000000
      3722    1       80.719341145291     136.399999983280      50.000000000000
      3723    1       77.766194512558     141.514999981286      50.000000000000
      3724    1       80.719341145291     139.809999985596      50.000000000000
      3725    1       77.766194512558     144.924999983602      50.000000000000
      3726    1       80.719341145291     143.219999976977      50.000000000000
      3727    1       77.766194512558     148.334999985918      50.000000000000
      3728    1       80.719341145291     146.629999979293      50.000000000000
      3729    2       70.875519054402     136.399999983280      50.000000000000
      3730    2       73.828665676202     138.104999978971      50.000000000000
      3731    2       70.875519054402     139.809999985596      50.000000000000
      3732    2       73.828665676202     141.514999981286      50.000000000000
      3733    2       70.875519054402     143.219999976977      50.000000000000
      3734    2       73.828665676202     144.924999983602      50.000000000000
      3735    2       70.875519054402     146.629999979293      50.000000000000
      3736    2       73.828665676202     148.334999985918      50.000000000000
      3737    2       76.781812308936     136.399999983280      50.000000000000
      3738    2       79.734958930736     138.104999978971      50.000000000000
      3739    2       76.781812308936     139.809999985596      50.000000000000
      3740    2       79.734958930736     141.514999981286      50.000000000000
      3741    2       76.781812308936     143.219999976977      50.000000000000
      3742    2       79.734958930736     144.924999983602      50.000000000000
      3743    2       76.781812308936     146.629999979293      50.000000000000
      3744    2       79.734958930736     148.334999985918      50.000000000000
      3745    1       83.672487767091     138.104999978971      50.000000000000
      3746    1       86.625634399825     136.399999983280      50.000000000000
      3747    1       83.672487767091     141.514999981286      50.000000000000
      3748    1       86.625634399825     139.809999985596      50.000000000000
      3749    1       83.672487767091     144.924999983602      50.000000000000
      3750    1       86.625634399825     143.219999976977      50.000000000000
      3751    1       83.672487767091     148.334999985918      50.000000000000
      3752    1       86.625634399825     146.629999979293      50.000000000000
      3753    1       89.578781021625     138.104999978971      50.000000000000
      3754    1       92.531927654358     136.399999983280      50.000000000000
      3755    1       89.578781021625     141.514999981286      50.000000000000
      3756    1       92.531927654358     139.809999985596      50.000000000000
      3757    1       89.578781021625     144.924999983602      50.000000000000
      3758    1       92.531927654358     143.219999976977      50.000000000000
      3759    1       89.578781021625     148.334999985918      50.000000000000
      3760    1       92.531927654358     146.629999979293      50.000000000000
      3761    2       82.688105563469     136.399999983280      50.000000000000
      3762    2       85.641252185269     138.104999978971      50.000000000000
      3763    2       82.688105563469     139.809999985596      50.000000000000
      3764    2       85.641252185269     141.514999981286      50.000000000000
      3765    2       82.688105563469     143.219999976977      50.000000000000
      3766    2       85.641252185269     144.924999983602      50.000000000000
      3767    2       82.688105563469     146.629999979293      50.000000000000
      3768    2       85.641252185269     148.334999985918      50.000000000000
      3769    2       88.594398818003     136.399999983280      50.000000000000
      3770    2       91.547545439803     138.104999978971      50.000000000000
      3771    2       88.594398818003     139.809999985596      50.000000000000
      3772    2       91.547545439803     141.514999981286      50.000000000000
      3773    2       88.594398818003     143.219999976977      50.000000000000
      3774    2       91.547545439803     144.924999983602      50.000000000000
      3775    2       88.594398818003     146.629999979293      50.000000000000
      3776    2       91.547545439803     148.334999985918      50.000000000000
      3777    1       95.485074276158     138.104999978971      50.000000000000
      3778    1       98.438220908892     136.399999983280      50.000000000000
      3779    1       95.485074276158     141.514999981286      50.000000000000
      3780    1       98.438220908892     139.809999985596      50.000000000000
      3781    1       95.485074276158     144.924999983602      50.000000000000
      3782    1       98.438220908892     143.219999976977      50.000000000000
      3783    1       95.485074276158     148.334999985918      50.000000000000
      3784    1       98.438220908892     146.629999979293      50.000000000000
      3785    1      101.391367530692     138.104999978971      50.000000000000
      3786    1      104.344514163425     136.399999983280      50.000000000000
      3787    1      101.391367530692     141.514999981286      50.000000000000
      3788    1      104.344514163425     139.809999985596      50.000000000000
      3789    1      101.391367530692     144.924999983602      50.000000000000
      3790    1      104.344514163425     143.219999976977      50.000000000000
      3791    1      101.391367530692     148.334999985918      50.000000000000
      3792    1      104.344514163425     146.629999979293      50.000000000000
      3793    2       94.500692072536     136.399999983280      50.000000000000
      3794    2       97.453838694336     138.104999978971      50.000000000000
      3795    2       94.500692072536     139.809999985596      50.000000000000
      3796    2       97.453838694336     141.514999981286      50.000000000000
      3797    2       94.500692072536     143.219999976977      50.000000000000
      3798    2       97.453838694336     144.924999983602      50.000000000000
      3799    2       94.500692072536     146.629999979293      50.000000000000
      3800    2       97.453838694336     148.334999985918      50.000000000000
      3801    2      100.406985327070     136.399999983280      50.000000000000
      3802    2      103.360131948870     138.104999978971      50.000000000000
      3803    2      100.406985327070     139.809999985596      50.000000000000
      3804    2      103.360131948870     141.514999981286      50.000000000000
      3805    2      100.406985327070     143.219999976977      50.000000000000
      3806    2      103.360131948870     144.924999983602      50.000000000000
      3807    2      100.406985327070     146.629999979293      50.000000000000
      3808    2      103.360131948870     148.334999985918      50.000000000000
      3809    1      107.297660785225     138.104999978971      50.000000000000
      3810    1      110.250807417959     136.399999983280      50.000000000000
      3811    1      107.297660785225     141.514999981286      50.000000000000
      3812    1      110.250807417959     139.809999985596      50.000000000000
      3813    1      107.297660785225     144.924999983602      50.000000000000
      3814    1      110.250807417959     143.219999976977      50.000000000000
      3815    1      107.297660785225     148.334999985918      50.000000000000
      3816    1      110.250807417959     146.629999979293      50.000000000000
      3817    1      113.203954039759     138.104999978971      50.000000000000
      3818    1      116.157100672492     136.399999983280      50.000000000000
      3819    1      113.203954039759     141.514999981286      50.000000000000
      3820    1      116.157100672492     139.809999985596      50.000000000000
      3821    1      113.203954039759     144.924999983602      50.000000000000
      3822    1      116.157100672492     143.219999976977      50.000000000000
      3823    1      113.203954039759     148.334999985918      50.000000000000
      3824    1      116.157100672492     146.629999979293      50.000000000000
      3825    2      106.313278581603     136.399999983280      50.000000000000
      3826    2      109.266425203403     138.104999978971      50.000000000000
      3827    2      106.313278581603     139.809999985596      50.000000000000
      3828    2      109.266425203403     141.514999981286      50.000000000000
      3829    2      106.313278581603     143.219999976977      50.000000000000
      3830    2      109.266425203403     144.924999983602      50.000000000000
      3831    2      106.313278581603     146.629999979293      50.000000000000
      3832    2      109.266425203403     148.334999985918      50.000000000000
      3833    2      112.219571836137     136.399999983280      50.000000000000
      3834    2      115.172718457937     138.104999978971      50.000000000000
      3835    2      112.219571836137     139.809999985596      50.000000000000
      3836    2      115.172718457937     141.514999981286      50.000000000000
      3837    2      112.219571836137     143.219999976977      50.000000000000
      3838    2      115.172718457937     144.924999983602      50.000000000000
      3839    2      112.219571836137     146.629999979293      50.000000000000
      3840    2      115.172718457937     148.334999985918      50.000000000000
      3841    1      119.110247294292     138.104999978971      50.000000000000
      3842    1      122.063393927026     136.399999983280      50.000000000000
      3843    1      119.110247294292     141.514999981286      50.000000000000
      3844    1      122.063393927026     139.809999985596      50.000000000000
      3845    1      119.110247294292     144.924999983602      50.000000000000
      3846    1      122.063393927026     143.219999976977      50.000000000000
      3847    1      119.110247294292     148.334999985918      50.000000000000
      3848    1      122.063393927026     146.629999979293      50.000000000000
      3849    1      125.016540548826     138.104999978971      50.000000000000
      3850    1      127.969687181559     136.399999983280      50.000000000000
      3851    1      125.016540548826     141.514999981286      50.000000000000
      3852    1      127.969687181559     139.809999985596      50.000000000000
      3853    1      125.016540548826     144.924999983602      50.000000000000
      3854    1      127.969687181559     143.219999976977      50.000000000000
      3855    1      125.016540548826     148.334999985918      50.000000000000
      3856    1      127.969687181559     146.629999979293      50.000000000000
      3857    2      118.125865090670     136.399999983280      50.000000000000
      3858    2      121.079011712470     138.104999978971      50.000000000000
      3859    2      118.125865090670     139.809999985596      50.000000000000
      3860    2      121.079011712470     141.514999981286      50.000000000000
      3861    2      118.125865090670     143.219999976977      50.000000000000
      3862    2      121.079011712470     144.924999983602      50.000000000000
      3863    2      118.125865090670     146.629999979293      50.000000000000
      3864    2      121.079011712470     148.334999985918      50.000000000000
      3865    2      124.032158345204     136.399999983280      50.000000000000
      3866    2      126.985304967004     138.104999978971      50.000000000000
      3867    2      124.032158345204     139.809999985596      50.000000000000
      3868    2      126.985304967004     141.514999981286      50.000000000000
      3869    2      124.032158345204     143.219999976977      50.000000000000
      3870    2      126.985304967004     144.924999983602      50.000000000000
      3871    2      124.032158345204     146.629999979293      50.000000000000
      3872    2      126.985304967004     148.334999985918      50.000000000000
      3873    1        0.984382203622     151.744999977299      50.000000000000
      3874    1        3.937528836356     150.039999981608      50.000000000000
      3875    1        0.984382203622     155.154999979614      50.000000000000
      3876    1        3.937528836356     153.449999983924      50.000000000000
      3877    1        0.984382203622     158.564999981930      50.000000000000
      3878    1        3.937528836356     156.859999975305      50.000000000000
      3879    1        0.984382203622     161.974999984246      50.000000000000
      3880    1        3.937528836356     160.269999977621      50.000000000000
      3881    1        6.890675458156     151.744999977299      50.000000000000
      3882    1        9.843822090889     150.039999981608      50.000000000000
      3883    1        6.890675458156     155.154999979614      50.000000000000
      3884    1        9.843822090889     153.449999983924      50.000000000000
      3885    1        6.890675458156     158.564999981930      50.000000000000
      3886    1        9.843822090889     156.859999975305      50.000000000000
      3887    1        6.890675458156     161.974999984246      50.000000000000
      3888    1        9.843822090889     160.269999977621      50.000000000000
      3889    2        0.000000000000     150.039999981608      50.000000000000
      3890    2        2.953146621800     151.744999977299      50.000000000000
      3891    2        0.000000000000     153.449999983924      50.000000000000
      3892    2        2.953146621800     155.154999979614      50.000000000000
      3893    2        0.000000000000     156.859999975305      50.000000000000
      3894    2        2.953146621800     158.564999981930      50.000000000000
      3895    2        0.000000000000     160.269999977621      50.000000000000
      3896    2        2.953146621800     161.974999984246      50.000000000000
      3897    2        5.906293254534     150.039999981608      50.000000000000
      3898    2        8.859439876334     151.744999977299      50.000000000000
      3899    2        5.906293254534     153.449999983924      50.000000000000
      3900    2        8.859439876334     155.154999979614      50.000000000000
      3901    2        5.906293254534     156.859999975305      50.000000000000
      3902    2        8.859439876334     158.564999981930      50.000000000000
      3903    2        5.906293254534     160.269999977621      50.000000000000
      3904    2        8.859439876334     161.974999984246      50.000000000000
      3905    1       12.796968712689     151.744999977299      50.000000000000
      3906    1       15.750115345423     150.039999981608      50.000000000000
      3907    1       12.796968712689     155.154999979614      50.000000000000
      3908    1       15.750115345423     153.449999983924      50.000000000000
      3909    1       12.796968712689     158.564999981930      50.000000000000
      3910    1       15.750115345423     156.859999975305      50.000000000000
      3911    1       12.796968712689     161.974999984246      50.000000000000
      3912    1       15.750115345423     160.269999977621      50.000000000000
      3913    1       18.703261967223     151.744999977299      50.000000000000
      3914    1       21.656408599956     150.039999981608      50.000000000000
      3915    1       18.703261967223     155.154999979614      50.000000000000
      3916    1       21.656408599956     153.449999983924      50.000000000000
      3917    1       18.703261967223     158.564999981930      50.000000000000
      3918    1       21.656408599956     156.859999975305      50.000000000000
      3919    1       18.703261967223     161.974999984246      50.000000000000
      3920    1       21.656408599956     160.269999977621      50.000000000000
      3921    2       11.812586509067     150.039999981608      50.000000000000
      3922    2       14.765733130867     151.744999977299      50.000000000000
      3923    2       11.812586509067     153.449999983924      50.000000000000
      3924    2       14.765733130867     155.154999979614      50.000000000000
      3925    2       11.812586509067     156.859999975305      50.000000000000
      3926    2       14.765733130867     158.564999981930      50.000000000000
      3927    2       11.812586509067     160.269999977621      50.000000000000
      3928    2       14.765733130867     161.974999984246      50.000000000000
      3929    2       17.718879763601     150.039999981608      50.000000000000
      3930    2       20.672026385401     151.744999977299      50.000000000000
      3931    2       17.718879763601     153.449999983924      50.000000000000
      3932    2       20.672026385401     155.154999979614      50.000000000000
      3933    2       17.718879763601     156.859999975305      50.000000000000
      3934    2       20.672026385401     158.564999981930      50.000000000000
      3935    2       17.718879763601     160.269999977621      50.000000000000
      3936    2       20.672026385401     161.974999984246      50.000000000000
      3937    1       24.609555221756     151.744999977299      50.000000000000
      3938    1       27.562701854490     150.039999981608      50.000000000000
      3939    1       24.609555221756     155.154999979614      50.000000000000
      3940    1       27.562701854490     153.449999983924      50.000000000000
      3941    1       24.609555221756     158.564999981930      50.000000000000
      3942    1       27.562701854490     156.859999975305      50.000000000000
      3943    1       24.609555221756     161.974999984246      50.000000000000
      3944    1       27.562701854490     160.269999977621      50.000000000000
      3945    1       30.515848476290     151.744999977299      50.000000000000
      3946    1       33.468995109023     150.039999981608      50.000000000000
      3947    1       30.515848476290     155.154999979614      50.000000000000
      3948    1       33.468995109023     153.449999983924      50.000000000000
      3949    1       30.515848476290     158.564999981930      50.000000000000
      3950    1       33.468995109023     156.859999975305      50.000000000000
      3951    1       30.515848476290     161.974999984246      50.000000000000
      3952    1       33.468995109023     160.269999977621      50.000000000000
      3953    2       23.625173018134     150.039999981608      50.000000000000
      3954    2       26.578319639934     151.744999977299      50.000000000000
      3955    2       23.625173018134     153.449999983924      50.000000000000
      3956    2       26.578319639934     155.154999979614      50.000000000000
      3957    2       23.625173018134     156.859999975305      50.000000000000
      3958    2       26.578319639934     158.564999981930      50.000000000000
      3959    2       23.625173018134     160.269999977621      50.000000000000
      3960    2       26.578319639934     161.974999984246      50.000000000000
      3961    2       29.531466272668     150.039999981608      50.000000000000
      3962    2       32.484612894468     151.744999977299      50.000000000000
      3963    2       29.531466272668     153.449999983924      50.000000000000
      3964    2       32.484612894468     155.154999979614      50.000000000000
      3965    2       29.531466272668     156.859999975305      50.000000000000
      3966    2       32.484612894468     158.564999981930      50.000000000000
      3967    2       29.531466272668     160.269999977621      50.000000000000
      3968    2       32.484612894468     161.974999984246      50.000000000000
      3969    1       36.422141730823     151.744999977299      50.000000000000
      3970    1       39.375288363557     150.039999981608      50.000000000000
      3971    1       36.422141730823     155.154999979614      50.000000000000
      3972    1       39.375288363557     153.449999983924      50.000000000000
      3973    1       36.422141730823     158.564999981930      50.000000000000
      3974    1       39.375288363557     156.859999975305      50.000000000000
      3975    1       36.422141730823     161.974999984246      50.000000000000
      3976    1       39.375288363557     160.269999977621      50.000000000000
      3977    1       42.328434985357     151.744999977299      50.000000000000
      3978    1       45.281581618090     150.039999981608      50.000000000000
      3979    1       42.328434985357     155.154999979614      50.000000000000
      3980    1       45.281581618090     153.449999983924      50.000000000000
      3981    1       42.328434985357     158.564999981930      50.000000000000
      3982    1       45.281581618090     156.859999975305      50.000000000000
      3983    1       42.328434985357     161.974999984246      50.000000000000
      3984    1       45.281581618090     160.269999977621      50.000000000000
      3985    2       35.437759527201     150.039999981608      50.000000000000
      3986    2       38.390906149001     151.744999977299      50.000000000000
      3987    2       35.437759527201     153.449999983924      50.000000000000
      3988    2       38.390906149001     155.154999979614      50.000000000000
      3989    2       35.437759527201     156.859999975305      50.000000000000
      3990    2       38.390906149001     158.564999981930      50.000000000000
      3991    2       35.437759527201     160.269999977621      50.000000000000
      3992    2       38.390906149001     161.974999984246      50.000000000000
      3993    2       41.344052781735     150.039999981608      50.000000000000
      3994    2       44.297199403535     151.744999977299      50.000000000000
      3995    2       41.344052781735     153.449999983924      50.000000000000
      3996    2       44.297199403535     155.154999979614      50.000000000000
      3997    2       41.344052781735     156.859999975305      50.000000000000
      3998    2       44.297199403535     158.564999981930      50.000000000000
      3999    2       41.344052781735     160.269999977621      50.000000000000
      4000    2       44.297199403535     161.974999984246      50.000000000000
      4001    1       48.234728239890     151.744999977299      50.000000000000
      4002    1       51.187874872624     150.039999981608      50.000000000000
      4003    1       48.234728239890     155.154999979614      50.000000000000
      4004    1       51.187874872624     153.449999983924      50.000000000000
      4005    1       48.234728239890     158.564999981930      50.000000000000
      4006    1       51.187874872624     156.859999975305      50.000000000000
      4007    1       48.234728239890     161.974999984246      50.000000000000
      4008    1       51.187874872624     160.269999977621      50.000000000000
      4009    1       54.141021494424     151.744999977299      50.000000000000
      4010    1       57.094168127157     150.039999981608      50.000000000000
      4011    1       54.141021494424     155.154999979614      50.000000000000
      4012    1       57.094168127157     153.449999983924      50.000000000000
      4013    1       54.141021494424     158.564999981930      50.000000000000
      4014    1       57.094168127157     156.859999975305      50.000000000000
      4015    1       54.141021494424     161.974999984246      50.000000000000
      4016    1       57.094168127157     160.269999977621      50.000000000000
      4017    2       47.250346036268     150.039999981608      50.000000000000
      4018    2       50.203492658068     151.744999977299      50.000000000000
      4019    2       47.250346036268     153.449999983924      50.000000000000
      4020    2       50.203492658068     155.154999979614      50.000000000000
      4021    2       47.250346036268     156.859999975305      50.000000000000
      4022    2       50.203492658068     158.564999981930      50.000000000000
      4023    2       47.250346036268     160.269999977621      50.000000000000
      4024    2       50.203492658068     161.974999984246      50.000000000000
      4025    2       53.156639290802     150.039999981608      50.000000000000
      4026    2       56.109785912602     151.744999977299      50.000000000000
      4027    2       53.156639290802     153.449999983924      50.000000000000
      4028    2       56.109785912602     155.154999979614      50.000000000000
      4029    2       53.156639290802     156.859999975305      50.000000000000
      4030    2       56.109785912602     158.564999981930      50.000000000000
      4031    2       53.156639290802     160.269999977621      50.000000000000
      4032    2       56.109785912602     161.974999984246      50.000000000000
      4033    1       60.047314748957     151.744999977299      50.000000000000
      4034    1       63.000461381691     150.039999981608      50.000000000000
      4035    1       60.047314748957     155.154999979614      50.000000000000
      4036    1       63.000461381691     153.449999983924      50.000000000000
      4037    1       60.047314748957     158.564999981930      50.000000000000
      4038    1       63.000461381691     156.859999975305      50.000000000000
      4039    1       60.047314748957     161.974999984246      50.000000000000
      4040    1       63.000461381691     160.269999977621      50.000000000000
      4041    1       65.953608003491     151.744999977299      50.000000000000
      4042    1       68.906754636224     150.039999981608      50.000000000000
      4043    1       65.953608003491     155.154999979614      50.000000000000
      4044    1       68.906754636224     153.449999983924      50.000000000000
      4045    1       65.953608003491     158.564999981930      50.000000000000
      4046    1       68.906754636224     156.859999975305      50.000000000000
      4047    1       65.953608003491     161.974999984246      50.000000000000
      4048    1       68.906754636224     160.269999977621      50.000000000000
      4049    2       59.062932545335     150.039999981608      50.000000000000
      4050    2       62.016079167135     151.744999977299      50.000000000000
      4051    2       59.062932545335     153.449999983924      50.000000000000
      4052    2       62.016079167135     155.154999979614      50.000000000000
      4053    2       59.062932545335     156.859999975305      50.000000000000
      4054    2       62.016079167135     158.564999981930      50.000000000000
      4055    2       59.062932545335     160.269999977621      50.000000000000
      4056    2       62.016079167135     161.974999984246      50.000000000000
      4057    2       64.969225799869     150.039999981608      50.000000000000
      4058    2       67.922372421669     151.744999977299      50.000000000000
      4059    2       64.969225799869     153.449999983924      50.000000000000
      4060    2       67.922372421669     155.154999979614      50.000000000000
      4061    2       64.969225799869     156.859999975305      50.000000000000
      4062    2       67.922372421669     158.564999981930      50.000000000000
      4063    2       64.969225799869     160.269999977621      50.000000000000
      4064    2       67.922372421669     161.974999984246      50.000000000000
      4065    1       71.859901258024     151.744999977299      50.000000000000
      4066    1       74.813047890758     150.039999981608      50.000000000000
      4067    1       71.859901258024     155.154999979614      50.000000000000
      4068    1       74.813047890758     153.449999983924      50.000000000000
      4069    1       71.859901258024     158.564999981930      50.000000000000
      4070    1       74.813047890758     156.859999975305      50.000000000000
      4071    1       71.859901258024     161.974999984246      50.000000000000
      4072    1       74.813047890758     160.269999977621      50.000000000000
      4073    1       77.766194512558     151.744999977299      50.000000000000
      4074    1       80.719341145291     150.039999981608      50.000000000000
      4075    1       77.766194512558     155.154999979614      50.000000000000
      4076    1       80.719341145291     153.449999983924      50.000000000000
      4077    1       77.766194512558     158.564999981930      50.000000000000
      4078    1       80.719341145291     156.859999975305      50.000000000000
      4079    1       77.766194512558     161.974999984246      50.000000000000
      4080    1       80.719341145291     160.269999977621      50.000000000000
      4081    2       70.875519054402     150.039999981608      50.000000000000
      4082    2       73.828665676202     151.744999977299      50.000000000000
      4083    2       70.875519054402     153.449999983924      50.000000000000
      4084    2       73.828665676202     155.154999979614      50.000000000000
      4085    2       70.875519054402     156.859999975305      50.000000000000
      4086    2       73.828665676202     158.564999981930      50.000000000000
      4087    2       70.875519054402     160.269999977621      50.000000000000
      4088    2       73.828665676202     161.974999984246      50.000000000000
      4089    2       76.781812308936     150.039999981608      50.000000000000
      4090    2       79.734958930736     151.744999977299      50.000000000000
      4091    2       76.781812308936     153.449999983924      50.000000000000
      4092    2       79.734958930736     155.154999979614      50.000000000000
      4093    2       76.781812308936     156.859999975305      50.000000000000
      4094    2       79.734958930736     158.564999981930      50.000000000000
      4095    2       76.781812308936     160.269999977621      50.000000000000
      4096    2       79.734958930736     161.974999984246      50.000000000000
      4097    1       83.672487767091     151.744999977299      50.000000000000
      4098    1       86.625634399825     150.039999981608      50.000000000000
      4099    1       83.672487767091     155.154999979614      50.000000000000
      4100    1       86.625634399825     153.449999983924      50.000000000000
      4101    1       83.672487767091     158.564999981930      50.000000000000
      4102    1       86.625634399825     156.859999975305      50.000000000000
      4103    1       83.672487767091     161.974999984246      50.000000000000
      4104    1       86.625634399825     160.269999977621      50.000000000000
      4105    1       89.578781021625     151.744999977299      50.000000000000
      4106    1       92.531927654358     150.039999981608      50.000000000000
      4107    1       89.578781021625     155.154999979614      50.000000000000
      4108    1       92.531927654358     153.449999983924      50.000000000000
      4109    1       89.578781021625     158.564999981930      50.000000000000
      4110    1       92.531927654358     156.859999975305      50.000000000000
      4111    1       89.578781021625     161.974999984246      50.000000000000
      4112    1       92.531927654358     160.269999977621      50.000000000000
      4113    2       82.688105563469     150.039999981608      50.000000000000
      4114    2       85.641252185269     151.744999977299      50.000000000000
      4115    2       82.688105563469     153.449999983924      50.000000000000
      4116    2       85.641252185269     155.154999979614      50.000000000000
      4117    2       82.688105563469     156.859999975305      50.000000000000
      4118    2       85.641252185269     158.564999981930      50.000000000000
      4119    2       82.688105563469     160.269999977621      50.000000000000
      4120    2       85.641252185269     161.974999984246      50.000000000000
      4121    2       88.594398818003     150.039999981608      50.000000000000
      4122    2       91.547545439803     151.744999977299      50.000000000000
      4123    2       88.594398818003     153.449999983924      50.000000000000
      4124    2       91.547545439803     155.154999979614      50.000000000000
      4125    2       88.594398818003     156.859999975305      50.000000000000
      4126    2       91.547545439803     158.564999981930      50.000000000000
      4127    2       88.594398818003     160.269999977621      50.000000000000
      4128    2       91.547545439803     161.974999984246      50.000000000000
      4129    1       95.485074276158     151.744999977299      50.000000000000
      4130    1       98.438220908892     150.039999981608      50.000000000000
      4131    1       95.485074276158     155.154999979614      50.000000000000
      4132    1       98.438220908892     153.449999983924      50.000000000000
      4133    1       95.485074276158     158.564999981930      50.000000000000
      4134    1       98.438220908892     156.859999975305      50.000000000000
      4135    1       95.485074276158     161.974999984246      50.000000000000
      4136    1       98.438220908892     160.269999977621      50.000000000000
      4137    1      101.391367530692     151.744999977299      50.000000000000
      4138    1      104.344514163425     150.039999981608      50.000000000000
      4139    1      101.391367530692     155.154999979614      50.000000000000
      4140    1      104.344514163425     153.449999983924      50.000000000000
      4141    1      101.391367530692     158.564999981930      50.000000000000
      4142    1      104.344514163425     156.859999975305      50.000000000000
      4143    1      101.391367530692     161.974999984246      50.000000000000
      4144    1      104.344514163425     160.269999977621      50.000000000000
      4145    2       94.500692072536     150.039999981608      50.000000000000
      4146    2       97.453838694336     151.744999977299      50.000000000000
      4147    2       94.500692072536     153.449999983924      50.000000000000
      4148    2       97.453838694336     155.154999979614      50.000000000000
      4149    2       94.500692072536     156.859999975305      50.000000000000
      4150    2       97.453838694336     158.564999981930      50.000000000000
      4151    2       94.500692072536     160.269999977621      50.000000000000
      4152    2       97.453838694336     161.974999984246      50.000000000000
      4153    2      100.406985327070     150.039999981608      50.000000000000
      4154    2      103.360131948870     151.744999977299      50.000000000000
      4155    2      100.406985327070     153.449999983924      50.000000000000
      4156    2      103.360131948870     155.154999979614      50.000000000000
      4157    2      100.406985327070     156.859999975305      50.000000000000
      4158    2      103.360131948870     158.564999981930      50.000000000000
      4159    2      100.406985327070     160.269999977621      50.000000000000
      4160    2      103.360131948870     161.974999984246      50.000000000000
      4161    1      107.297660785225     151.744999977299      50.000000000000
      4162    1      110.250807417959     150.039999981608      50.000000000000
      4163    1      107.297660785225     155.154999979614      50.000000000000
      4164    1      110.250807417959     153.449999983924      50.000000000000
      4165    1      107.297660785225     158.564999981930      50.000000000000
      4166    1      110.250807417959     156.859999975305      50.000000000000
      4167    1      107.297660785225     161.974999984246      50.000000000000
      4168    1      110.250807417959     160.269999977621      50.000000000000
      4169    1      113.203954039759     151.744999977299      50.000000000000
      4170    1      116.157100672492     150.039999981608      50.000000000000
      4171    1      113.203954039759     155.154999979614      50.000000000000
      4172    1      116.157100672492     153.449999983924      50.000000000000
      4173    1      113.203954039759     158.564999981930      50.000000000000
      4174    1      116.157100672492     156.859999975305      50.000000000000
      4175    1      113.203954039759     161.974999984246      50.000000000000
      4176    1      116.157100672492     160.269999977621      50.000000000000
      4177    2      106.313278581603     150.039999981608      50.000000000000
      4178    2      109.266425203403     151.744999977299      50.000000000000
      4179    2      106.313278581603     153.449999983924      50.000000000000
      4180    2      109.266425203403     155.154999979614      50.000000000000
      4181    2      106.313278581603     156.859999975305      50.000000000000
      4182    2      109.266425203403     158.564999981930      50.000000000000
      4183    2      106.313278581603     160.269999977621      50.000000000000
      4184    2      109.266425203403     161.974999984246      50.000000000000
      4185    2      112.219571836137     150.039999981608      50.000000000000
      4186    2      115.172718457937     151.744999977299      50.000000000000
      4187    2      112.219571836137     153.449999983924      50.000000000000
      4188    2      115.172718457937     155.154999979614      50.000000000000
      4189    2      112.219571836137     156.859999975305      50.000000000000
      4190    2      115.172718457937     158.564999981930      50.000000000000
      4191    2      112.219571836137     160.269999977621      50.000000000000
      4192    2      115.172718457937     161.974999984246      50.000000000000
      4193    1      119.110247294292     151.744999977299      50.000000000000
      4194    1      122.063393927026     150.039999981608      50.000000000000
      4195    1      119.110247294292     155.154999979614      50.000000000000
      4196    1      122.063393927026     153.449999983924      50.000000000000
      4197    1      119.110247294292     158.564999981930      50.000000000000
      4198    1      122.063393927026     156.859999975305      50.000000000000
      4199    1      119.110247294292     161.974999984246      50.000000000000
      4200    1      122.063393927026     160.269999977621      50.000000000000
      4201    1      125.016540548826     151.744999977299      50.000000000000
      4202    1      127.969687181559     150.039999981608      50.000000000000
      4203    1      125.016540548826     155.154999979614      50.000000000000
      4204    1      127.969687181559     153.449999983924      50.000000000000
      4205    1      125.016540548826     158.564999981930      50.000000000000
      4206    1      127.969687181559     156.859999975305      50.000000000000
      4207    1      125.016540548826     161.974999984246      50.000000000000
      4208    1      127.969687181559     160.269999977621      50.000000000000
      4209    2      118.125865090670     150.039999981608      50.000000000000
      4210    2      121.079011712470     151.744999977299      50.000000000000
      4211    2      118.125865090670     153.449999983924      50.000000000000
      4212    2      121.079011712470     155.154999979614      50.000000000000
      4213    2      118.125865090670     156.859999975305      50.000000000000
      4214    2      121.079011712470     158.564999981930      50.000000000000
      4215    2      118.125865090670     160.269999977621      50.000000000000
      4216    2      121.079011712470     161.974999984246      50.000000000000
      4217    2      124.032158345204     150.039999981608      50.000000000000
      4218    2      126.985304967004     151.744999977299      50.000000000000
      4219    2      124.032158345204     153.449999983924      50.000000000000
      4220    2      126.985304967004     155.154999979614      50.000000000000
      4221    2      124.032158345204     156.859999975305      50.000000000000
      4222    2      126.985304967004     158.564999981930      50.000000000000
      4223    2      124.032158345204     160.269999977621      50.000000000000
      4224    2      126.985304967004     161.974999984246      50.000000000000
      4225    1        0.984382203622     165.384999975627      50.000000000000
      4226    1        3.937528836356     163.679999979936      50.000000000000
      4227    1        0.984382203622     168.794999977942      50.000000000000
      4228    1        3.937528836356     167.089999982252      50.000000000000
      4229    1        0.984382203622     172.204999980258      50.000000000000
      4230    1        3.937528836356     170.499999973633      50.000000000000
      4231    1        0.984382203622     175.614999982574      50.000000000000
      4232    1        3.937528836356     173.909999975949      50.000000000000
      4233    1        6.890675458156     165.384999975627      50.000000000000
      4234    1        9.843822090889     163.679999979936      50.000000000000
      4235    1        6.890675458156     168.794999977942      50.000000000000
      4236    1        9.843822090889     167.089999982252      50.000000000000
      4237    1        6.890675458156     172.204999980258      50.000000000000
      4238    1        9.843822090889     170.499999973633      50.000000000000
      4239    1        6.890675458156     175.614999982574      50.000000000000
      4240    1        9.843822090889     173.909999975949      50.000000000000
      4241    2        0.000000000000     163.679999979936      50.000000000000
      4242    2        2.953146621800     165.384999975627      50.000000000000
      4243    2        0.000000000000     167.089999982252      50.000000000000
      4244    2        2.953146621800     168.794999977942      50.000000000000
      4245    2        0.000000000000     170.499999973633      50.000000000000
      4246    2        2.953146621800     172.204999980258      50.000000000000
      4247    2        0.000000000000     173.909999975949      50.000000000000
      4248    2        2.953146621800     175.614999982574      50.000000000000
      4249    2        5.906293254534     163.679999979936      50.000000000000
      4250    2        8.859439876334     165.384999975627      50.000000000000
      4251    2        5.906293254534     167.089999982252      50.000000000000
      4252    2        8.859439876334     168.794999977942      50.000000000000
      4253    2        5.906293254534     170.499999973633      50.000000000000
      4254    2        8.859439876334     172.204999980258      50.000000000000
      4255    2        5.906293254534     173.909999975949      50.000000000000
      4256    2        8.859439876334     175.614999982574      50.000000000000
      4257    1       12.796968712689     165.384999975627      50.000000000000
      4258    1       15.750115345423     163.679999979936      50.000000000000
      4259    1       12.796968712689     168.794999977942      50.000000000000
      4260    1       15.750115345423     167.089999982252      50.000000000000
      4261    1       12.796968712689     172.204999980258      50.000000000000
      4262    1       15.750115345423     170.499999973633      50.000000000000
      4263    1       12.796968712689     175.614999982574      50.000000000000
      4264    1       15.750115345423     173.909999975949      50.000000000000
      4265    1       18.703261967223     165.384999975627      50.000000000000
      4266    1       21.656408599956     163.679999979936      50.000000000000
      4267    1       18.703261967223     168.794999977942      50.000000000000
      4268    1       21.656408599956     167.089999982252      50.000000000000
      4269    1       18.703261967223     172.204999980258      50.000000000000
      4270    1       21.656408599956     170.499999973633      50.000000000000
      4271    1       18.703261967223     175.614999982574      50.000000000000
      4272    1       21.656408599956     173.909999975949      50.000000000000
      4273    2       11.812586509067     163.679999979936      50.000000000000
      4274    2       14.765733130867     165.384999975627      50.000000000000
      4275    2       11.812586509067     167.089999982252      50.000000000000
      4276    2       14.765733130867     168.794999977942      50.000000000000
      4277    2       11.812586509067     170.499999973633      50.000000000000
      4278    2       14.765733130867     172.204999980258      50.000000000000
      4279    2       11.812586509067     173.909999975949      50.000000000000
      4280    2       14.765733130867     175.614999982574      50.000000000000
      4281    2       17.718879763601     163.679999979936      50.000000000000
      4282    2       20.672026385401     165.384999975627      50.000000000000
      4283    2       17.718879763601     167.089999982252      50.000000000000
      4284    2       20.672026385401     168.794999977942      50.000000000000
      4285    2       17.718879763601     170.499999973633      50.000000000000
      4286    2       20.672026385401     172.204999980258      50.000000000000
      4287    2       17.718879763601     173.909999975949      50.000000000000
      4288    2       20.672026385401     175.614999982574      50.000000000000
      4289    1       24.609555221756     165.384999975627      50.000000000000
      4290    1       27.562701854490     163.679999979936      50.000000000000
      4291    1       24.609555221756     168.794999977942      50.000000000000
      4292    1       27.562701854490     167.089999982252      50.000000000000
      4293    1       24.609555221756     172.204999980258      50.000000000000
      4294    1       27.562701854490     170.499999973633      50.000000000000
      4295    1       24.609555221756     175.614999982574      50.000000000000
      4296    1       27.562701854490     173.909999975949      50.000000000000
      4297    1       30.515848476290     165.384999975627      50.000000000000
      4298    1       33.468995109023     163.679999979936      50.000000000000
      4299    1       30.515848476290     168.794999977942      50.000000000000
      4300    1       33.468995109023     167.089999982252      50.000000000000
      4301    1       30.515848476290     172.204999980258      50.000000000000
      4302    1       33.468995109023     170.499999973633      50.000000000000
      4303    1       30.515848476290     175.614999982574      50.000000000000
      4304    1       33.468995109023     173.909999975949      50.000000000000
      4305    2       23.625173018134     163.679999979936      50.000000000000
      4306    2       26.578319639934     165.384999975627      50.000000000000
      4307    2       23.625173018134     167.089999982252      50.000000000000
      4308    2       26.578319639934     168.794999977942      50.000000000000
      4309    2       23.625173018134     170.499999973633      50.000000000000
      4310    2       26.578319639934     172.204999980258      50.000000000000
      4311    2       23.625173018134     173.909999975949      50.000000000000
      4312    2       26.578319639934     175.614999982574      50.000000000000
      4313    2       29.531466272668     163.679999979936      50.000000000000
      4314    2       32.484612894468     165.384999975627      50.000000000000
      4315    2       29.531466272668     167.089999982252      50.000000000000
      4316    2       32.484612894468     168.794999977942      50.000000000000
      4317    2       29.531466272668     170.499999973633      50.000000000000
      4318    2       32.484612894468     172.204999980258      50.000000000000
      4319    2       29.531466272668     173.909999975949      50.000000000000
      4320    2       32.484612894468     175.614999982574      50.000000000000
      4321    1       36.422141730823     165.384999975627      50.000000000000
      4322    1       39.375288363557     163.679999979936      50.000000000000
      4323    1       36.422141730823     168.794999977942      50.000000000000
      4324    1       39.375288363557     167.089999982252      50.000000000000
      4325    1       36.422141730823     172.204999980258      50.000000000000
      4326    1       39.375288363557     170.499999973633      50.000000000000
      4327    1       36.422141730823     175.614999982574      50.000000000000
      4328    1       39.375288363557     173.909999975949      50.000000000000
      4329    1       42.328434985357     165.384999975627      50.000000000000
      4330    1       45.281581618090     163.679999979936      50.000000000000
      4331    1       42.328434985357     168.794999977942      50.000000000000
      4332    1       45.281581618090     167.089999982252      50.000000000000
      4333    1       42.328434985357     172.204999980258      50.000000000000
      4334    1       45.281581618090     170.499999973633      50.000000000000
      4335    1       42.328434985357     175.614999982574      50.000000000000
      4336    1       45.281581618090     173.909999975949      50.000000000000
      4337    2       35.437759527201     163.679999979936      50.000000000000
      4338    2       38.390906149001     165.384999975627      50.000000000000
      4339    2       35.437759527201     167.089999982252      50.000000000000
      4340    2       38.390906149001     168.794999977942      50.000000000000
      4341    2       35.437759527201     170.499999973633      50.000000000000
      4342    2       38.390906149001     172.204999980258      50.000000000000
      4343    2       35.437759527201     173.909999975949      50.000000000000
      4344    2       38.390906149001     175.614999982574      50.000000000000
      4345    2       41.344052781735     163.679999979936      50.000000000000
      4346    2       44.297199403535     165.384999975627      50.000000000000
      4347    2       41.344052781735     167.089999982252      50.000000000000
      4348    2       44.297199403535     168.794999977942      50.000000000000
      4349    2       41.344052781735     170.499999973633      50.000000000000
      4350    2       44.297199403535     172.204999980258      50.000000000000
      4351    2       41.344052781735     173.909999975949      50.000000000000
      4352    2       44.297199403535     175.614999982574      50.000000000000
      4353    1       48.234728239890     165.384999975627      50.000000000000
      4354    1       51.187874872624     163.679999979936      50.000000000000
      4355    1       48.234728239890     168.794999977942      50.000000000000
      4356    1       51.187874872624     167.089999982252      50.000000000000
      4357    1       48.234728239890     172.204999980258      50.000000000000
      4358    1       51.187874872624     170.499999973633      50.000000000000
      4359    1       48.234728239890     175.614999982574      50.000000000000
      4360    1       51.187874872624     173.909999975949      50.000000000000
      4361    1       54.141021494424     165.384999975627      50.000000000000
      4362    1       57.094168127157     163.679999979936      50.000000000000
      4363    1       54.141021494424     168.794999977942      50.000000000000
      4364    1       57.094168127157     167.089999982252      50.000000000000
      4365    1       54.141021494424     172.204999980258      50.000000000000
      4366    1       57.094168127157     170.499999973633      50.000000000000
      4367    1       54.141021494424     175.614999982574      50.000000000000
      4368    1       57.094168127157     173.909999975949      50.000000000000
      4369    2       47.250346036268     163.679999979936      50.000000000000
      4370    2       50.203492658068     165.384999975627      50.000000000000
      4371    2       47.250346036268     167.089999982252      50.000000000000
      4372    2       50.203492658068     168.794999977942      50.000000000000
      4373    2       47.250346036268     170.499999973633      50.000000000000
      4374    2       50.203492658068     172.204999980258      50.000000000000
      4375    2       47.250346036268     173.909999975949      50.000000000000
      4376    2       50.203492658068     175.614999982574      50.000000000000
      4377    2       53.156639290802     163.679999979936      50.000000000000
      4378    2       56.109785912602     165.384999975627      50.000000000000
      4379    2       53.156639290802     167.089999982252      50.000000000000
      4380    2       56.109785912602     168.794999977942      50.000000000000
      4381    2       53.156639290802     170.499999973633      50.000000000000
      4382    2       56.109785912602     172.204999980258      50.000000000000
      4383    2       53.156639290802     173.909999975949      50.000000000000
      4384    2       56.109785912602     175.614999982574      50.000000000000
      4385    1       60.047314748957     165.384999975627      50.000000000000
      4386    1       63.000461381691     163.679999979936      50.000000000000
      4387    1       60.047314748957     168.794999977942      50.000000000000
      4388    1       63.000461381691     167.089999982252      50.000000000000
      4389    1       60.047314748957     172.204999980258      50.000000000000
      4390    1       63.000461381691     170.499999973633      50.000000000000
      4391    1       60.047314748957     175.614999982574      50.000000000000
      4392    1       63.000461381691     173.909999975949      50.000000000000
      4393    1       65.953608003491     165.384999975627      50.000000000000
      4394    1       68.906754636224     163.679999979936      50.000000000000
      4395    1       65.953608003491     168.794999977942      50.000000000000
      4396    1       68.906754636224     167.089999982252      50.000000000000
      4397    1       65.953608003491     172.204999980258      50.000000000000
      4398    1       68.906754636224     170.499999973633      50.000000000000
      4399    1       65.953608003491     175.614999982574      50.000000000000
      4400    1       68.906754636224     173.909999975949      50.000000000000
      4401    2       59.062932545335     163.679999979936      50.000000000000
      4402    2       62.016079167135     165.384999975627      50.000000000000
      4403    2       59.062932545335     167.089999982252      50.000000000000
      4404    2       62.016079167135     168.794999977942      50.000000000000
      4405    2       59.062932545335     170.499999973633      50.000000000000
      4406    2       62.016079167135     172.204999980258      50.000000000000
      4407    2       59.062932545335     173.909999975949      50.000000000000
      4408    2       62.016079167135     175.614999982574      50.000000000000
      4409    2       64.969225799869     163.679999979936      50.000000000000
      4410    2       67.922372421669     165.384999975627      50.000000000000
      4411    2       64.969225799869     167.089999982252      50.000000000000
      4412    2       67.922372421669     168.794999977942      50.000000000000
      4413    2       64.969225799869     170.499999973633      50.000000000000
      4414    2       67.922372421669     172.204999980258      50.000000000000
      4415    2       64.969225799869     173.909999975949      50.000000000000
      4416    2       67.922372421669     175.614999982574      50.000000000000
      4417    1       71.859901258024     165.384999975627      50.000000000000
      4418    1       74.813047890758     163.679999979936      50.000000000000
      4419    1       71.859901258024     168.794999977942      50.000000000000
      4420    1       74.813047890758     167.089999982252      50.000000000000
      4421    1       71.859901258024     172.204999980258      50.000000000000
      4422    1       74.813047890758     170.499999973633      50.000000000000
      4423    1       71.859901258024     175.614999982574      50.000000000000
      4424    1       74.813047890758     173.909999975949      50.000000000000
      4425    1       77.766194512558     165.384999975627      50.000000000000
      4426    1       80.719341145291     163.679999979936      50.000000000000
      4427    1       77.766194512558     168.794999977942      50.000000000000
      4428    1       80.719341145291     167.089999982252      50.000000000000
      4429    1       77.766194512558     172.204999980258      50.000000000000
      4430    1       80.719341145291     170.499999973633      50.000000000000
      4431    1       77.766194512558     175.614999982574      50.000000000000
      4432    1       80.719341145291     173.909999975949      50.000000000000
      4433    2       70.875519054402     163.679999979936      50.000000000000
      4434    2       73.828665676202     165.384999975627      50.000000000000
      4435    2       70.875519054402     167.089999982252      50.000000000000
      4436    2       73.828665676202     168.794999977942      50.000000000000
      4437    2       70.875519054402     170.499999973633      50.000000000000
      4438    2       73.828665676202     172.204999980258      50.000000000000
      4439    2       70.875519054402     173.909999975949      50.000000000000
      4440    2       73.828665676202     175.614999982574      50.000000000000
      4441    2       76.781812308936     163.679999979936      50.000000000000
      4442    2       79.734958930736     165.384999975627      50.000000000000
      4443    2       76.781812308936     167.089999982252      50.000000000000
      4444    2       79.734958930736     168.794999977942      50.000000000000
      4445    2       76.781812308936     170.499999973633      50.000000000000
      4446    2       79.734958930736     172.204999980258      50.000000000000
      4447    2       76.781812308936     173.909999975949      50.000000000000
      4448    2       79.734958930736     175.614999982574      50.000000000000
      4449    1       83.672487767091     165.384999975627      50.000000000000
      4450    1       86.625634399825     163.679999979936      50.000000000000
      4451    1       83.672487767091     168.794999977942      50.000000000000
      4452    1       86.625634399825     167.089999982252      50.000000000000
      4453    1       83.672487767091     172.204999980258      50.000000000000
      4454    1       86.625634399825     170.499999973633      50.000000000000
      4455    1       83.672487767091     175.614999982574      50.000000000000
      4456    1       86.625634399825     173.909999975949      50.000000000000
      4457    1       89.578781021625     165.384999975627      50.000000000000
      4458    1       92.531927654358     163.679999979936      50.000000000000
      4459    1       89.578781021625     168.794999977942      50.000000000000
      4460    1       92.531927654358     167.089999982252      50.000000000000
      4461    1       89.578781021625     172.204999980258      50.000000000000
      4462    1       92.531927654358     170.499999973633      50.000000000000
      4463    1       89.578781021625     175.614999982574      50.000000000000
      4464    1       92.531927654358     173.909999975949      50.000000000000
      4465    2       82.688105563469     163.679999979936      50.000000000000
      4466    2       85.641252185269     165.384999975627      50.000000000000
      4467    2       82.688105563469     167.089999982252      50.000000000000
      4468    2       85.641252185269     168.794999977942      50.000000000000
      4469    2       82.688105563469     170.499999973633      50.000000000000
      4470    2       85.641252185269     172.204999980258      50.000000000000
      4471    2       82.688105563469     173.909999975949      50.000000000000
      4472    2       85.641252185269     175.614999982574      50.000000000000
      4473    2       88.594398818003     163.679999979936      50.000000000000
      4474    2       91.547545439803     165.384999975627      50.000000000000
      4475    2       88.594398818003     167.089999982252      50.000000000000
      4476    2       91.547545439803     168.794999977942      50.000000000000
      4477    2       88.594398818003     170.499999973633      50.000000000000
      4478    2       91.547545439803     172.204999980258      50.000000000000
      4479    2       88.594398818003     173.909999975949      50.000000000000
      4480    2       91.547545439803     175.614999982574      50.000000000000
      4481    1       95.485074276158     165.384999975627      50.000000000000
      4482    1       98.438220908892     163.679999979936      50.000000000000
      4483    1       95.485074276158     168.794999977942      50.000000000000
      4484    1       98.438220908892     167.089999982252      50.000000000000
      4485    1       95.485074276158     172.204999980258      50.000000000000
      4486    1       98.438220908892     170.499999973633      50.000000000000
      4487    1       95.485074276158     175.614999982574      50.000000000000
      4488    1       98.438220908892     173.909999975949      50.000000000000
      4489    1      101.391367530692     165.384999975627      50.000000000000
      4490    1      104.344514163425     163.679999979936      50.000000000000
      4491    1      101.391367530692     168.794999977942      50.000000000000
      4492    1      104.344514163425     167.089999982252      50.000000000000
      4493    1      101.391367530692     172.204999980258      50.000000000000
      4494    1      104.344514163425     170.499999973633      50.000000000000
      4495    1      101.391367530692     175.614999982574      50.000000000000
      4496    1      104.344514163425     173.909999975949      50.000000000000
      4497    2       94.500692072536     163.679999979936      50.000000000000
      4498    2       97.453838694336     165.384999975627      50.000000000000
      4499    2       94.500692072536     167.089999982252      50.000000000000
      4500    2       97.453838694336     168.794999977942      50.000000000000
      4501    2       94.500692072536     170.499999973633      50.000000000000
      4502    2       97.453838694336     172.204999980258      50.000000000000
      4503    2       94.500692072536     173.909999975949      50.000000000000
      4504    2       97.453838694336     175.614999982574      50.000000000000
      4505    2      100.406985327070     163.679999979936      50.000000000000
      4506    2      103.360131948870     165.384999975627      50.000000000000
      4507    2      100.406985327070     167.089999982252      50.000000000000
      4508    2      103.360131948870     168.794999977942      50.000000000000
      4509    2      100.406985327070     170.499999973633      50.000000000000
      4510    2      103.360131948870     172.204999980258      50.000000000000
      4511    2      100.406985327070     173.909999975949      50.000000000000
      4512    2      103.360131948870     175.614999982574      50.000000000000
      4513    1      107.297660785225     165.384999975627      50.000000000000
      4514    1      110.250807417959     163.679999979936      50.000000000000
      4515    1      107.297660785225     168.794999977942      50.000000000000
      4516    1      110.250807417959     167.089999982252      50.000000000000
      4517    1      107.297660785225     172.204999980258      50.000000000000
      4518    1      110.250807417959     170.499999973633      50.000000000000
      4519    1      107.297660785225     175.614999982574      50.000000000000
      4520    1      110.250807417959     173.909999975949      50.000000000000
      4521    1      113.203954039759     165.384999975627      50.000000000000
      4522    1      116.157100672492     163.679999979936      50.000000000000
      4523    1      113.203954039759     168.794999977942      50.000000000000
      4524    1      116.157100672492     167.089999982252      50.000000000000
      4525    1      113.203954039759     172.204999980258      50.000000000000
      4526    1      116.157100672492     170.499999973633      50.000000000000
      4527    1      113.203954039759     175.614999982574      50.000000000000
      4528    1      116.157100672492     173.909999975949      50.000000000000
      4529    2      106.313278581603     163.679999979936      50.000000000000
      4530    2      109.266425203403     165.384999975627      50.000000000000
      4531    2      106.313278581603     167.089999982252      50.000000000000
      4532    2      109.266425203403     168.794999977942      50.000000000000
      4533    2      106.313278581603     170.499999973633      50.000000000000
      4534    2      109.266425203403     172.204999980258      50.000000000000
      4535    2      106.313278581603     173.909999975949      50.000000000000
      4536    2      109.266425203403     175.614999982574      50.000000000000
      4537    2      112.219571836137     163.679999979936      50.000000000000
      4538    2      115.172718457937     165.384999975627      50.000000000000
      4539    2      112.219571836137     167.089999982252      50.000000000000
      4540    2      115.172718457937     168.794999977942      50.000000000000
      4541    2      112.219571836137     170.499999973633      50.000000000000
      4542    2      115.172718457937     172.204999980258      50.000000000000
      4543    2      112.219571836137     173.909999975949      50.000000000000
      4544    2      115.172718457937     175.614999982574      50.000000000000
      4545    1      119.110247294292     165.384999975627      50.000000000000
      4546    1      122.063393927026     163.679999979936      50.000000000000
      4547    1      119.110247294292     168.794999977942      50.000000000000
      4548    1      122.063393927026     167.089999982252      50.000000000000
      4549    1      119.110247294292     172.204999980258      50.000000000000
      4550    1      122.063393927026     170.499999973633      50.000000000000
      4551    1      119.110247294292     175.614999982574      50.000000000000
      4552    1      122.063393927026     173.909999975949      50.000000000000
      4553    1      125.016540548826     165.384999975627      50.000000000000
      4554    1      127.969687181559     163.679999979936      50.000000000000
      4555    1      125.016540548826     168.794999977942      50.000000000000
      4556    1      127.969687181559     167.089999982252      50.000000000000
      4557    1      125.016540548826     172.204999980258      50.000000000000
      4558    1      127.969687181559     170.499999973633      50.000000000000
      4559    1      125.016540548826     175.614999982574      50.000000000000
      4560    1      127.969687181559     173.909999975949      50.000000000000
      4561    2      118.125865090670     163.679999979936      50.000000000000
      4562    2      121.079011712470     165.384999975627      50.000000000000
      4563    2      118.125865090670     167.089999982252      50.000000000000
      4564    2      121.079011712470     168.794999977942      50.000000000000
      4565    2      118.125865090670     170.499999973633      50.000000000000
      4566    2      121.079011712470     172.204999980258      50.000000000000
      4567    2      118.125865090670     173.909999975949      50.000000000000
      4568    2      121.079011712470     175.614999982574      50.000000000000
      4569    2      124.032158345204     163.679999979936      50.000000000000
      4570    2      126.985304967004     165.384999975627      50.000000000000
      4571    2      124.032158345204     167.089999982252      50.000000000000
      4572    2      126.985304967004     168.794999977942      50.000000000000
      4573    2      124.032158345204     170.499999973633      50.000000000000
      4574    2      126.985304967004     172.204999980258      50.000000000000
      4575    2      124.032158345204     173.909999975949      50.000000000000
      4576    2      126.985304967004     175.614999982574      50.000000000000
      4577    1        0.984382203622     179.024999973955      50.000000000000
      4578    1        3.937528836356     177.319999978264      50.000000000000
      4579    1        0.984382203622     182.434999976270      50.000000000000
      4580    1        3.937528836356     180.729999980580      50.000000000000
      4581    1        0.984382203622     185.844999978586      50.000000000000
      4582    1        3.937528836356     184.139999971961      50.000000000000
      4583    1        0.984382203622     189.254999980902      50.000000000000
      4584    1        3.937528836356     187.549999974277      50.000000000000
      4585    1        6.890675458156     179.024999973955      50.000000000000
      4586    1        9.843822090889     177.319999978264      50.000000000000
      4587    1        6.890675458156     182.434999976270      50.000000000000
      4588    1        9.843822090889     180.729999980580      50.000000000000
      4589    1        6.890675458156     185.844999978586      50.000000000000
      4590    1        9.843822090889     184.139999971961      50.000000000000
      4591    1        6.890675458156     189.254999980902      50.000000000000
      4592    1        9.843822090889     187.549999974277      50.000000000000
      4593    2        0.000000000000     177.319999978264      50.000000000000
      4594    2        2.953146621800     179.024999973955      50.000000000000
      4595    2        0.000000000000     180.729999980580      50.000000000000
      4596    2        2.953146621800     182.434999976270      50.000000000000
      4597    2        0.000000000000     184.139999971961      50.000000000000
      4598    2        2.953146621800     185.844999978586      50.000000000000
      4599    2        0.000000000000     187.549999974277      50.000000000000
      4600    2        2.953146621800     189.254999980902      50.000000000000
      4601    2        5.906293254534     177.319999978264      50.000000000000
      4602    2        8.859439876334     179.024999973955      50.000000000000
      4603    2        5.906293254534     180.729999980580      50.000000000000
      4604    2        8.859439876334     182.434999976270      50.000000000000
      4605    2        5.906293254534     184.139999971961      50.000000000000
      4606    2        8.859439876334     185.844999978586      50.000000000000
      4607    2        5.906293254534     187.549999974277      50.000000000000
      4608    2        8.859439876334     189.254999980902      50.000000000000
      4609    1       12.796968712689     179.024999973955      50.000000000000
      4610    1       15.750115345423     177.319999978264      50.000000000000
      4611    1       12.796968712689     182.434999976270      50.000000000000
      4612    1       15.750115345423     180.729999980580      50.000000000000
      4613    1       12.796968712689     185.844999978586      50.000000000000
      4614    1       15.750115345423     184.139999971961      50.000000000000
      4615    1       12.796968712689     189.254999980902      50.000000000000
      4616    1       15.750115345423     187.549999974277      50.000000000000
      4617    1       18.703261967223     179.024999973955      50.000000000000
      4618    1       21.656408599956     177.319999978264      50.000000000000
      4619    1       18.703261967223     182.434999976270      50.000000000000
      4620    1       21.656408599956     180.729999980580      50.000000000000
      4621    1       18.703261967223     185.844999978586      50.000000000000
      4622    1       21.656408599956     184.139999971961      50.000000000000
      4623    1       18.703261967223     189.254999980902      50.000000000000
      4624    1       21.656408599956     187.549999974277      50.000000000000
      4625    2       11.812586509067     177.319999978264      50.000000000000
      4626    2       14.765733130867     179.024999973955      50.000000000000
      4627    2       11.812586509067     180.729999980580      50.000000000000
      4628    2       14.765733130867     182.434999976270      50.000000000000
      4629    2       11.812586509067     184.139999971961      50.000000000000
      4630    2       14.765733130867     185.844999978586      50.000000000000
      4631    2       11.812586509067     187.549999974277      50.000000000000
      4632    2       14.765733130867     189.254999980902      50.000000000000
      4633    2       17.718879763601     177.319999978264      50.000000000000
      4634    2       20.672026385401     179.024999973955      50.000000000000
      4635    2       17.718879763601     180.729999980580      50.000000000000
      4636    2       20.672026385401     182.434999976270      50.000000000000
      4637    2       17.718879763601     184.139999971961      50.000000000000
      4638    2       20.672026385401     185.844999978586      50.000000000000
      4639    2       17.718879763601     187.549999974277      50.000000000000
      4640    2       20.672026385401     189.254999980902      50.000000000000
      4641    1       24.609555221756     179.024999973955      50.000000000000
      4642    1       27.562701854490     177.319999978264      50.000000000000
      4643    1       24.609555221756     182.434999976270      50.000000000000
      4644    1       27.562701854490     180.729999980580      50.000000000000
      4645    1       24.609555221756     185.844999978586      50.000000000000
      4646    1       27.562701854490     184.139999971961      50.000000000000
      4647    1       24.609555221756     189.254999980902      50.000000000000
      4648    1       27.562701854490     187.549999974277      50.000000000000
      4649    1       30.515848476290     179.024999973955      50.000000000000
      4650    1       33.468995109023     177.319999978264      50.000000000000
      4651    1       30.515848476290     182.434999976270      50.000000000000
      4652    1       33.468995109023     180.729999980580      50.000000000000
      4653    1       30.515848476290     185.844999978586      50.000000000000
      4654    1       33.468995109023     184.139999971961      50.000000000000
      4655    1       30.515848476290     189.254999980902      50.000000000000
      4656    1       33.468995109023     187.549999974277      50.000000000000
      4657    2       23.625173018134     177.319999978264      50.000000000000
      4658    2       26.578319639934     179.024999973955      50.000000000000
      4659    2       23.625173018134     180.729999980580      50.000000000000
      4660    2       26.578319639934     182.434999976270      50.000000000000
      4661    2       23.625173018134     184.139999971961      50.000000000000
      4662    2       26.578319639934     185.844999978586      50.000000000000
      4663    2       23.625173018134     187.549999974277      50.000000000000
      4664    2       26.578319639934     189.254999980902      50.000000000000
      4665    2       29.531466272668     177.319999978264      50.000000000000
      4666    2       32.484612894468     179.024999973955      50.000000000000
      4667    2       29.531466272668     180.729999980580      50.000000000000
      4668    2       32.484612894468     182.434999976270      50.000000000000
      4669    2       29.531466272668     184.139999971961      50.000000000000
      4670    2       32.484612894468     185.844999978586      50.000000000000
      4671    2       29.531466272668     187.549999974277      50.000000000000
      4672    2       32.484612894468     189.254999980902      50.000000000000
      4673    1       36.422141730823     179.024999973955      50.000000000000
      4674    1       39.375288363557     177.319999978264      50.000000000000
      4675    1       36.422141730823     182.434999976270      50.000000000000
      4676    1       39.375288363557     180.729999980580      50.000000000000
      4677    1       36.422141730823     185.844999978586      50.000000000000
      4678    1       39.375288363557     184.139999971961      50.000000000000
      4679    1       36.422141730823     189.254999980902      50.000000000000
      4680    1       39.375288363557     187.549999974277      50.000000000000
      4681    1       42.328434985357     179.024999973955      50.000000000000
      4682    1       45.281581618090     177.319999978264      50.000000000000
      4683    1       42.328434985357     182.434999976270      50.000000000000
      4684    1       45.281581618090     180.729999980580      50.000000000000
      4685    1       42.328434985357     185.844999978586      50.000000000000
      4686    1       45.281581618090     184.139999971961      50.000000000000
      4687    1       42.328434985357     189.254999980902      50.000000000000
      4688    1       45.281581618090     187.549999974277      50.000000000000
      4689    2       35.437759527201     177.319999978264      50.000000000000
      4690    2       38.390906149001     179.024999973955      50.000000000000
      4691    2       35.437759527201     180.729999980580      50.000000000000
      4692    2       38.390906149001     182.434999976270      50.000000000000
      4693    2       35.437759527201     184.139999971961      50.000000000000
      4694    2       38.390906149001     185.844999978586      50.000000000000
      4695    2       35.437759527201     187.549999974277      50.000000000000
      4696    2       38.390906149001     189.254999980902      50.000000000000
      4697    2       41.344052781735     177.319999978264      50.000000000000
      4698    2       44.297199403535     179.024999973955      50.000000000000
      4699    2       41.344052781735     180.729999980580      50.000000000000
      4700    2       44.297199403535     182.434999976270      50.000000000000
      4701    2       41.344052781735     184.139999971961      50.000000000000
      4702    2       44.297199403535     185.844999978586      50.000000000000
      4703    2       41.344052781735     187.549999974277      50.000000000000
      4704    2       44.297199403535     189.254999980902      50.000000000000
      4705    1       48.234728239890     179.024999973955      50.000000000000
      4706    1       51.187874872624     177.319999978264      50.000000000000
      4707    1       48.234728239890     182.434999976270      50.000000000000
      4708    1       51.187874872624     180.729999980580      50.000000000000
      4709    1       48.234728239890     185.844999978586      50.000000000000
      4710    1       51.187874872624     184.139999971961      50.000000000000
      4711    1       48.234728239890     189.254999980902      50.000000000000
      4712    1       51.187874872624     187.549999974277      50.000000000000
      4713    1       54.141021494424     179.024999973955      50.000000000000
      4714    1       57.094168127157     177.319999978264      50.000000000000
      4715    1       54.141021494424     182.434999976270      50.000000000000
      4716    1       57.094168127157     180.729999980580      50.000000000000
      4717    1       54.141021494424     185.844999978586      50.000000000000
      4718    1       57.094168127157     184.139999971961      50.000000000000
      4719    1       54.141021494424     189.254999980902      50.000000000000
      4720    1       57.094168127157     187.549999974277      50.000000000000
      4721    2       47.250346036268     177.319999978264      50.000000000000
      4722    2       50.203492658068     179.024999973955      50.000000000000
      4723    2       47.250346036268     180.729999980580      50.000000000000
      4724    2       50.203492658068     182.434999976270      50.000000000000
      4725    2       47.250346036268     184.139999971961      50.000000000000
      4726    2       50.203492658068     185.844999978586      50.000000000000
      4727    2       47.250346036268     187.549999974277      50.000000000000
      4728    2       50.203492658068     189.254999980902      50.000000000000
      4729    2       53.156639290802     177.319999978264      50.000000000000
      4730    2       56.109785912602     179.024999973955      50.000000000000
      4731    2       53.156639290802     180.729999980580      50.000000000000
      4732    2       56.109785912602     182.434999976270      50.000000000000
      4733    2       53.156639290802     184.139999971961      50.000000000000
      4734    2       56.109785912602     185.844999978586      50.000000000000
      4735    2       53.156639290802     187.549999974277      50.000000000000
      4736    2       56.109785912602     189.254999980902      50.000000000000
      4737    1       60.047314748957     179.024999973955      50.000000000000
      4738    1       63.000461381691     177.319999978264      50.000000000000
      4739    1       60.047314748957     182.434999976270      50.000000000000
      4740    1       63.000461381691     180.729999980580      50.000000000000
      4741    1       60.047314748957     185.844999978586      50.000000000000
      4742    1       63.000461381691     184.139999971961      50.000000000000
      4743    1       60.047314748957     189.254999980902      50.000000000000
      4744    1       63.000461381691     187.549999974277      50.000000000000
      4745    1       65.953608003491     179.024999973955      50.000000000000
      4746    1       68.906754636224     177.319999978264      50.000000000000
      4747    1       65.953608003491     182.434999976270      50.000000000000
      4748    1       68.906754636224     180.729999980580      50.000000000000
      4749    1       65.953608003491     185.844999978586      50.000000000000
      4750    1       68.906754636224     184.139999971961      50.000000000000
      4751    1       65.953608003491     189.254999980902      50.000000000000
      4752    1       68.906754636224     187.549999974277      50.000000000000
      4753    2       59.062932545335     177.319999978264      50.000000000000
      4754    2       62.016079167135     179.024999973955      50.000000000000
      4755    2       59.062932545335     180.729999980580      50.000000000000
      4756    2       62.016079167135     182.434999976270      50.000000000000
      4757    2       59.062932545335     184.139999971961      50.000000000000
      4758    2       62.016079167135     185.844999978586      50.000000000000
      4759    2       59.062932545335     187.549999974277      50.000000000000
      4760    2       62.016079167135     189.254999980902      50.000000000000
      4761    2       64.969225799869     177.319999978264      50.000000000000
      4762    2       67.922372421669     179.024999973955      50.000000000000
      4763    2       64.969225799869     180.729999980580      50.000000000000
      4764    2       67.922372421669     182.434999976270      50.000000000000
      4765    2       64.969225799869     184.139999971961      50.000000000000
      4766    2       67.922372421669     185.844999978586      50.000000000000
      4767    2       64.969225799869     187.549999974277      50.000000000000
      4768    2       67.922372421669     189.254999980902      50.000000000000
      4769    1       71.859901258024     179.024999973955      50.000000000000
      4770    1       74.813047890758     177.319999978264      50.000000000000
      4771    1       71.859901258024     182.434999976270      50.000000000000
      4772    1       74.813047890758     180.729999980580      50.000000000000
      4773    1       71.859901258024     185.844999978586      50.000000000000
      4774    1       74.813047890758     184.139999971961      50.000000000000
      4775    1       71.859901258024     189.254999980902      50.000000000000
      4776    1       74.813047890758     187.549999974277      50.000000000000
      4777    1       77.766194512558     179.024999973955      50.000000000000
      4778    1       80.719341145291     177.319999978264      50.000000000000
      4779    1       77.766194512558     182.434999976270      50.000000000000
      4780    1       80.719341145291     180.729999980580      50.000000000000
      4781    1       77.766194512558     185.844999978586      50.000000000000
      4782    1       80.719341145291     184.139999971961      50.000000000000
      4783    1       77.766194512558     189.254999980902      50.000000000000
      4784    1       80.719341145291     187.549999974277      50.000000000000
      4785    2       70.875519054402     177.319999978264      50.000000000000
      4786    2       73.828665676202     179.024999973955      50.000000000000
      4787    2       70.875519054402     180.729999980580      50.000000000000
      4788    2       73.828665676202     182.434999976270      50.000000000000
      4789    2       70.875519054402     184.139999971961      50.000000000000
      4790    2       73.828665676202     185.844999978586      50.000000000000
      4791    2       70.875519054402     187.549999974277      50.000000000000
      4792    2       73.828665676202     189.254999980902      50.000000000000
      4793    2       76.781812308936     177.319999978264      50.000000000000
      4794    2       79.734958930736     179.024999973955      50.000000000000
      4795    2       76.781812308936     180.729999980580      50.000000000000
      4796    2       79.734958930736     182.434999976270      50.000000000000
      4797    2       76.781812308936     184.139999971961      50.000000000000
      4798    2       79.734958930736     185.844999978586      50.000000000000
      4799    2       76.781812308936     187.549999974277      50.000000000000
      4800    2       79.734958930736     189.254999980902      50.000000000000
      4801    1       83.672487767091     179.024999973955      50.000000000000
      4802    1       86.625634399825     177.319999978264      50.000000000000
      4803    1       83.672487767091     182.434999976270      50.000000000000
      4804    1       86.625634399825     180.729999980580      50.000000000000
      4805    1       83.672487767091     185.844999978586      50.000000000000
      4806    1       86.625634399825     184.139999971961      50.000000000000
      4807    1       83.672487767091     189.254999980902      50.000000000000
      4808    1       86.625634399825     187.549999974277      50.000000000000
      4809    1       89.578781021625     179.024999973955      50.000000000000
      4810    1       92.531927654358     177.319999978264      50.000000000000
      4811    1       89.578781021625     182.434999976270      50.000000000000
      4812    1       92.531927654358     180.729999980580      50.000000000000
      4813    1       89.578781021625     185.844999978586      50.000000000000
      4814    1       92.531927654358     184.139999971961      50.000000000000
      4815    1       89.578781021625     189.254999980902      50.000000000000
      4816    1       92.531927654358     187.549999974277      50.000000000000
      4817    2       82.688105563469     177.319999978264      50.000000000000
      4818    2       85.641252185269     179.024999973955      50.000000000000
      4819    2       82.688105563469     180.729999980580      50.000000000000
      4820    2       85.641252185269     182.434999976270      50.000000000000
      4821    2       82.688105563469     184.139999971961      50.000000000000
      4822    2       85.641252185269     185.844999978586      50.000000000000
      4823    2       82.688105563469     187.549999974277      50.000000000000
      4824    2       85.641252185269     189.254999980902      50.000000000000
      4825    2       88.594398818003     177.319999978264      50.000000000000
      4826    2       91.547545439803     179.024999973955      50.000000000000
      4827    2       88.594398818003     180.729999980580      50.000000000000
      4828    2       91.547545439803     182.434999976270      50.000000000000
      4829    2       88.594398818003     184.139999971961      50.000000000000
      4830    2       91.547545439803     185.844999978586      50.000000000000
      4831    2       88.594398818003     187.549999974277      50.000000000000
      4832    2       91.547545439803     189.254999980902      50.000000000000
      4833    1       95.485074276158     179.024999973955      50.000000000000
      4834    1       98.438220908892     177.319999978264      50.000000000000
      4835    1       95.485074276158     182.434999976270      50.000000000000
      4836    1       98.438220908892     180.729999980580      50.000000000000
      4837    1       95.485074276158     185.844999978586      50.000000000000
      4838    1       98.438220908892     184.139999971961      50.000000000000
      4839    1       95.485074276158     189.254999980902      50.000000000000
      4840    1       98.438220908892     187.549999974277      50.000000000000
      4841    1      101.391367530692     179.024999973955      50.000000000000
      4842    1      104.344514163425     177.319999978264      50.000000000000
      4843    1      101.391367530692     182.434999976270      50.000000000000
      4844    1      104.344514163425     180.729999980580      50.000000000000
      4845    1      101.391367530692     185.844999978586      50.000000000000
      4846    1      104.344514163425     184.139999971961      50.000000000000
      4847    1      101.391367530692     189.254999980902      50.000000000000
      4848    1      104.344514163425     187.549999974277      50.000000000000
      4849    2       94.500692072536     177.319999978264      50.000000000000
      4850    2       97.453838694336     179.024999973955      50.000000000000
      4851    2       94.500692072536     180.729999980580      50.000000000000
      4852    2       97.453838694336     182.434999976270      50.000000000000
      4853    2       94.500692072536     184.139999971961      50.000000000000
      4854    2       97.453838694336     185.844999978586      50.000000000000
      4855    2       94.500692072536     187.549999974277      50.000000000000
      4856    2       97.453838694336     189.254999980902      50.000000000000
      4857    2      100.406985327070     177.319999978264      50.000000000000
      4858    2      103.360131948870     179.024999973955      50.000000000000
      4859    2      100.406985327070     180.729999980580      50.000000000000
      4860    2      103.360131948870     182.434999976270      50.000000000000
      4861    2      100.406985327070     184.139999971961      50.000000000000
      4862    2      103.360131948870     185.844999978586      50.000000000000
      4863    2      100.406985327070     187.549999974277      50.000000000000
      4864    2      103.360131948870     189.254999980902      50.000000000000
      4865    1      107.297660785225     179.024999973955      50.000000000000
      4866    1      110.250807417959     177.319999978264      50.000000000000
      4867    1      107.297660785225     182.434999976270      50.000000000000
      4868    1      110.250807417959     180.729999980580      50.000000000000
      4869    1      107.297660785225     185.844999978586      50.000000000000
      4870    1      110.250807417959     184.139999971961      50.000000000000
      4871    1      107.297660785225     189.254999980902      50.000000000000
      4872    1      110.250807417959     187.549999974277      50.000000000000
      4873    1      113.203954039759     179.024999973955      50.000000000000
      4874    1      116.157100672492     177.319999978264      50.000000000000
      4875    1      113.203954039759     182.434999976270      50.000000000000
      4876    1      116.157100672492     180.729999980580      50.000000000000
      4877    1      113.203954039759     185.844999978586      50.000000000000
      4878    1      116.157100672492     184.139999971961      50.000000000000
      4879    1      113.203954039759     189.254999980902      50.000000000000
      4880    1      116.157100672492     187.549999974277      50.000000000000
      4881    2      106.313278581603     177.319999978264      50.000000000000
      4882    2      109.266425203403     179.024999973955      50.000000000000
      4883    2      106.313278581603     180.729999980580      50.000000000000
      4884    2      109.266425203403     182.434999976270      50.000000000000
      4885    2      106.313278581603     184.139999971961      50.000000000000
      4886    2      109.266425203403     185.844999978586      50.000000000000
      4887    2      106.313278581603     187.549999974277      50.000000000000
      4888    2      109.266425203403     189.254999980902      50.000000000000
      4889    2      112.219571836137     177.319999978264      50.000000000000
      4890    2      115.172718457937     179.024999973955      50.000000000000
      4891    2      112.219571836137     180.729999980580      50.000000000000
      4892    2      115.172718457937     182.434999976270      50.000000000000
      4893    2      112.219571836137     184.139999971961      50.000000000000
      4894    2      115.172718457937     185.844999978586      50.000000000000
      4895    2      112.219571836137     187.549999974277      50.000000000000
      4896    2      115.172718457937     189.254999980902      50.000000000000
      4897    1      119.110247294292     179.024999973955      50.000000000000
      4898    1      122.063393927026     177.319999978264      50.000000000000
      4899    1      119.110247294292     182.434999976270      50.000000000000
      4900    1      122.063393927026     180.729999980580      50.000000000000
      4901    1      119.110247294292     185.844999978586      50.000000000000
      4902    1      122.063393927026     184.139999971961      50.000000000000
      4903    1      119.110247294292     189.254999980902      50.000000000000
      4904    1      122.063393927026     187.549999974277      50.000000000000
      4905    1      125.016540548826     179.024999973955      50.000000000000
      4906    1      127.969687181559     177.319999978264      50.000000000000
      4907    1      125.016540548826     182.434999976270      50.000000000000
      4908    1      127.969687181559     180.729999980580      50.000000000000
      4909    1      125.016540548826     185.844999978586      50.000000000000
      4910    1      127.969687181559     184.139999971961      50.000000000000
      4911    1      125.016540548826     189.254999980902      50.000000000000
      4912    1      127.969687181559     187.549999974277      50.000000000000
      4913    2      118.125865090670     177.319999978264      50.000000000000
      4914    2      121.079011712470     179.024999973955      50.000000000000
      4915    2      118.125865090670     180.729999980580      50.000000000000
      4916    2      121.079011712470     182.434999976270      50.000000000000
      4917    2      118.125865090670     184.139999971961      50.000000000000
      4918    2      121.079011712470     185.844999978586      50.000000000000
      4919    2      118.125865090670     187.549999974277      50.000000000000
      4920    2      121.079011712470     189.254999980902      50.000000000000
      4921    2      124.032158345204     177.319999978264      50.000000000000
      4922    2      126.985304967004     179.024999973955      50.000000000000
      4923    2      124.032158345204     180.729999980580      50.000000000000
      4924    2      126.985304967004     182.434999976270      50.000000000000
      4925    2      124.032158345204     184.139999971961      50.000000000000
      4926    2      126.985304967004     185.844999978586      50.000000000000
      4927    2      124.032158345204     187.549999974277      50.000000000000
      4928    2      126.985304967004     189.254999980902      50.000000000000
      4929    1        0.984382203622     192.664999972283      50.000000000000
      4930    1        3.937528836356     190.959999976592      50.000000000000
      4931    1        0.984382203622     196.074999974598      50.000000000000
      4932    1        3.937528836356     194.369999978908      50.000000000000
      4933    1        0.984382203622     199.484999976914      50.000000000000
      4934    1        3.937528836356     197.779999970289      50.000000000000
      4935    1        0.984382203622     202.894999979230      50.000000000000
      4936    1        3.937528836356     201.189999972605      50.000000000000
      4937    1        6.890675458156     192.664999972283      50.000000000000
      4938    1        9.843822090889     190.959999976592      50.000000000000
      4939    1        6.890675458156     196.074999974598      50.000000000000
      4940    1        9.843822090889     194.369999978908      50.000000000000
      4941    1        6.890675458156     199.484999976914      50.000000000000
      4942    1        9.843822090889     197.779999970289      50.000000000000
      4943    1        6.890675458156     202.894999979230      50.000000000000
      4944    1        9.843822090889     201.189999972605      50.000000000000
      4945    2        0.000000000000     190.959999976592      50.000000000000
      4946    2        2.953146621800     192.664999972283      50.000000000000
      4947    2        0.000000000000     194.369999978908      50.000000000000
      4948    2        2.953146621800     196.074999974598      50.000000000000
      4949    2        0.000000000000     197.779999970289      50.000000000000
      4950    2        2.953146621800     199.484999976914      50.000000000000
      4951    2        0.000000000000     201.189999972605      50.000000000000
      4952    2        2.953146621800     202.894999979230      50.000000000000
      4953    2        5.906293254534     190.959999976592      50.000000000000
      4954    2        8.859439876334     192.664999972283      50.000000000000
      4955    2        5.906293254534     194.369999978908      50.000000000000
      4956    2        8.859439876334     196.074999974598      50.000000000000
      4957    2        5.906293254534     197.779999970289      50.000000000000
      4958    2        8.859439876334     199.484999976914      50.000000000000
      4959    2        5.906293254534     201.189999972605      50.000000000000
      4960    2        8.859439876334     202.894999979230      50.000000000000
      4961    1       12.796968712689     192.664999972283      50.000000000000
      4962    1       15.750115345423     190.959999976592      50.000000000000
      4963    1       12.796968712689     196.074999974598      50.000000000000
      4964    1       15.750115345423     194.369999978908      50.000000000000
      4965    1       12.796968712689     199.484999976914      50.000000000000
      4966    1       15.750115345423     197.779999970289      50.000000000000
      4967    1       12.796968712689     202.894999979230      50.000000000000
      4968    1       15.750115345423     201.189999972605      50.000000000000
      4969    1       18.703261967223     192.664999972283      50.000000000000
      4970    1       21.656408599956     190.959999976592      50.000000000000
      4971    1       18.703261967223     196.074999974598      50.000000000000
      4972    1       21.656408599956     194.369999978908      50.000000000000
      4973    1       18.703261967223     199.484999976914      50.000000000000
      4974    1       21.656408599956     197.779999970289      50.000000000000
      4975    1       18.703261967223     202.894999979230      50.000000000000
      4976    1       21.656408599956     201.189999972605      50.000000000000
      4977    2       11.812586509067     190.959999976592      50.000000000000
      4978    2       14.765733130867     192.664999972283      50.000000000000
      4979    2       11.812586509067     194.369999978908      50.000000000000
      4980    2       14.765733130867     196.074999974598      50.000000000000
      4981    2       11.812586509067     197.779999970289      50.000000000000
      4982    2       14.765733130867     199.484999976914      50.000000000000
      4983    2       11.812586509067     201.189999972605      50.000000000000
      4984    2       14.765733130867     202.894999979230      50.000000000000
      4985    2       17.718879763601     190.959999976592      50.000000000000
      4986    2       20.672026385401     192.664999972283      50.000000000000
      4987    2       17.718879763601     194.369999978908      50.000000000000
      4988    2       20.672026385401     196.074999974598      50.000000000000
      4989    2       17.718879763601     197.779999970289      50.000000000000
      4990    2       20.672026385401     199.484999976914      50.000000000000
      4991    2       17.718879763601     201.189999972605      50.000000000000
      4992    2       20.672026385401     202.894999979230      50.000000000000
      4993    1       24.609555221756     192.664999972283      50.000000000000
      4994    1       27.562701854490     190.959999976592      50.000000000000
      4995    1       24.609555221756     196.074999974598      50.000000000000
      4996    1       27.562701854490     194.369999978908      50.000000000000
      4997    1       24.609555221756     199.484999976914      50.000000000000
      4998    1       27.562701854490     197.779999970289      50.000000000000
      4999    1       24.609555221756     202.894999979230      50.000000000000
      5000    1       27.562701854490     201.189999972605      50.000000000000
      5001    1       30.515848476290     192.664999972283      50.000000000000
      5002    1       33.468995109023     190.959999976592      50.000000000000
      5003    1       30.515848476290     196.074999974598      50.000000000000
      5004    1       33.468995109023     194.369999978908      50.000000000000
      5005    1       30.515848476290     199.484999976914      50.000000000000
      5006    1       33.468995109023     197.779999970289      50.000000000000
      5007    1       30.515848476290     202.894999979230      50.000000000000
      5008    1       33.468995109023     201.189999972605      50.000000000000
      5009    2       23.625173018134     190.959999976592      50.000000000000
      5010    2       26.578319639934     192.664999972283      50.000000000000
      5011    2       23.625173018134     194.369999978908      50.000000000000
      5012    2       26.578319639934     196.074999974598      50.000000000000
      5013    2       23.625173018134     197.779999970289      50.000000000000
      5014    2       26.578319639934     199.484999976914      50.000000000000
      5015    2       23.625173018134     201.189999972605      50.000000000000
      5016    2       26.578319639934     202.894999979230      50.000000000000
      5017    2       29.531466272668     190.959999976592      50.000000000000
      5018    2       32.484612894468     192.664999972283      50.000000000000
      5019    2       29.531466272668     194.369999978908      50.000000000000
      5020    2       32.484612894468     196.074999974598      50.000000000000
      5021    2       29.531466272668     197.779999970289      50.000000000000
      5022    2       32.484612894468     199.484999976914      50.000000000000
      5023    2       29.531466272668     201.189999972605      50.000000000000
      5024    2       32.484612894468     202.894999979230      50.000000000000
      5025    1       36.422141730823     192.664999972283      50.000000000000
      5026    1       39.375288363557     190.959999976592      50.000000000000
      5027    1       36.422141730823     196.074999974598      50.000000000000
      5028    1       39.375288363557     194.369999978908      50.000000000000
      5029    1       36.422141730823     199.484999976914      50.000000000000
      5030    1       39.375288363557     197.779999970289      50.000000000000
      5031    1       36.422141730823     202.894999979230      50.000000000000
      5032    1       39.375288363557     201.189999972605      50.000000000000
      5033    1       42.328434985357     192.664999972283      50.000000000000
      5034    1       45.281581618090     190.959999976592      50.000000000000
      5035    1       42.328434985357     196.074999974598      50.000000000000
      5036    1       45.281581618090     194.369999978908      50.000000000000
      5037    1       42.328434985357     199.484999976914      50.000000000000
      5038    1       45.281581618090     197.779999970289      50.000000000000
      5039    1       42.328434985357     202.894999979230      50.000000000000
      5040    1       45.281581618090     201.189999972605      50.000000000000
      5041    2       35.437759527201     190.959999976592      50.000000000000
      5042    2       38.390906149001     192.664999972283      50.000000000000
      5043    2       35.437759527201     194.369999978908      50.000000000000
      5044    2       38.390906149001     196.074999974598      50.000000000000
      5045    2       35.437759527201     197.779999970289      50.000000000000
      5046    2       38.390906149001     199.484999976914      50.000000000000
      5047    2       35.437759527201     201.189999972605      50.000000000000
      5048    2       38.390906149001     202.894999979230      50.000000000000
      5049    2       41.344052781735     190.959999976592      50.000000000000
      5050    2       44.297199403535     192.664999972283      50.000000000000
      5051    2       41.344052781735     194.369999978908      50.000000000000
      5052    2       44.297199403535     196.074999974598      50.000000000000
      5053    2       41.344052781735     197.779999970289      50.000000000000
      5054    2       44.297199403535     199.484999976914      50.000000000000
      5055    2       41.344052781735     201.189999972605      50.000000000000
      5056    2       44.297199403535     202.894999979230      50.000000000000
      5057    1       48.234728239890     192.664999972283      50.000000000000
      5058    1       51.187874872624     190.959999976592      50.000000000000
      5059    1       48.234728239890     196.074999974598      50.000000000000
      5060    1       51.187874872624     194.369999978908      50.000000000000
      5061    1       48.234728239890     199.484999976914      50.000000000000
      5062    1       51.187874872624     197.779999970289      50.000000000000
      5063    1       48.234728239890     202.894999979230      50.000000000000
      5064    1       51.187874872624     201.189999972605      50.000000000000
      5065    1       54.141021494424     192.664999972283      50.000000000000
      5066    1       57.094168127157     190.959999976592      50.000000000000
      5067    1       54.141021494424     196.074999974598      50.000000000000
      5068    1       57.094168127157     194.369999978908      50.000000000000
      5069    1       54.141021494424     199.484999976914      50.000000000000
      5070    1       57.094168127157     197.779999970289      50.000000000000
      5071    1       54.141021494424     202.894999979230      50.000000000000
      5072    1       57.094168127157     201.189999972605      50.000000000000
      5073    2       47.250346036268     190.959999976592      50.000000000000
      5074    2       50.203492658068     192.664999972283      50.000000000000
      5075    2       47.250346036268     194.369999978908      50.000000000000
      5076    2       50.203492658068     196.074999974598      50.000000000000
      5077    2       47.250346036268     197.779999970289      50.000000000000
      5078    2       50.203492658068     199.484999976914      50.000000000000
      5079    2       47.250346036268     201.189999972605      50.000000000000
      5080    2       50.203492658068     202.894999979230      50.000000000000
      5081    2       53.156639290802     190.959999976592      50.000000000000
      5082    2       56.109785912602     192.664999972283      50.000000000000
      5083    2       53.156639290802     194.369999978908      50.000000000000
      5084    2       56.109785912602     196.074999974598      50.000000000000
      5085    2       53.156639290802     197.779999970289      50.000000000000
      5086    2       56.109785912602     199.484999976914      50.000000000000
      5087    2       53.156639290802     201.189999972605      50.000000000000
      5088    2       56.109785912602     202.894999979230      50.000000000000
      5089    1       60.047314748957     192.664999972283      50.000000000000
      5090    1       63.000461381691     190.959999976592      50.000000000000
      5091    1       60.047314748957     196.074999974598      50.000000000000
      5092    1       63.000461381691     194.369999978908      50.000000000000
      5093    1       60.047314748957     199.484999976914      50.000000000000
      5094    1       63.000461381691     197.779999970289      50.000000000000
      5095    1       60.047314748957     202.894999979230      50.000000000000
      5096    1       63.000461381691     201.189999972605      50.000000000000
      5097    1       65.953608003491     192.664999972283      50.000000000000
      5098    1       68.906754636224     190.959999976592      50.000000000000
      5099    1       65.953608003491     196.074999974598      50.000000000000
      5100    1       68.906754636224     194.369999978908      50.000000000000
      5101    1       65.953608003491     199.484999976914      50.000000000000
      5102    1       68.906754636224     197.779999970289      50.000000000000
      5103    1       65.953608003491     202.894999979230      50.000000000000
      5104    1       68.906754636224     201.189999972605      50.000000000000
      5105    2       59.062932545335     190.959999976592      50.000000000000
      5106    2       62.016079167135     192.664999972283      50.000000000000
      5107    2       59.062932545335     194.369999978908      50.000000000000
      5108    2       62.016079167135     196.074999974598      50.000000000000
      5109    2       59.062932545335     197.779999970289      50.000000000000
      5110    2       62.016079167135     199.484999976914      50.000000000000
      5111    2       59.062932545335     201.189999972605      50.000000000000
      5112    2       62.016079167135     202.894999979230      50.000000000000
      5113    2       64.969225799869     190.959999976592      50.000000000000
      5114    2       67.922372421669     192.664999972283      50.000000000000
      5115    2       64.969225799869     194.369999978908      50.000000000000
      5116    2       67.922372421669     196.074999974598      50.000000000000
      5117    2       64.969225799869     197.779999970289      50.000000000000
      5118    2       67.922372421669     199.484999976914      50.000000000000
      5119    2       64.969225799869     201.189999972605      50.000000000000
      5120    2       67.922372421669     202.894999979230      50.000000000000
      5121    1       71.859901258024     192.664999972283      50.000000000000
      5122    1       74.813047890758     190.959999976592      50.000000000000
      5123    1       71.859901258024     196.074999974598      50.000000000000
      5124    1       74.813047890758     194.369999978908      50.000000000000
      5125    1       71.859901258024     199.484999976914      50.000000000000
      5126    1       74.813047890758     197.779999970289      50.000000000000
      5127    1       71.859901258024     202.894999979230      50.000000000000
      5128    1       74.813047890758     201.189999972605      50.000000000000
      5129    1       77.766194512558     192.664999972283      50.000000000000
      5130    1       80.719341145291     190.959999976592      50.000000000000
      5131    1       77.766194512558     196.074999974598      50.000000000000
      5132    1       80.719341145291     194.369999978908      50.000000000000
      5133    1       77.766194512558     199.484999976914      50.000000000000
      5134    1       80.719341145291     197.779999970289      50.000000000000
      5135    1       77.766194512558     202.894999979230      50.000000000000
      5136    1       80.719341145291     201.189999972605      50.000000000000
      5137    2       70.875519054402     190.959999976592      50.000000000000
      5138    2       73.828665676202     192.664999972283      50.000000000000
      5139    2       70.875519054402     194.369999978908      50.000000000000
      5140    2       73.828665676202     196.074999974598      50.000000000000
      5141    2       70.875519054402     197.779999970289      50.000000000000
      5142    2       73.828665676202     199.484999976914      50.000000000000
      5143    2       70.875519054402     201.189999972605      50.000000000000
      5144    2       73.828665676202     202.894999979230      50.000000000000
      5145    2       76.781812308936     190.959999976592      50.000000000000
      5146    2       79.734958930736     192.664999972283      50.000000000000
      5147    2       76.781812308936     194.369999978908      50.000000000000
      5148    2       79.734958930736     196.074999974598      50.000000000000
      5149    2       76.781812308936     197.779999970289      50.000000000000
      5150    2       79.734958930736     199.484999976914      50.000000000000
      5151    2       76.781812308936     201.189999972605      50.000000000000
      5152    2       79.734958930736     202.894999979230      50.000000000000
      5153    1       83.672487767091     192.664999972283      50.000000000000
      5154    1       86.625634399825     190.959999976592      50.000000000000
      5155    1       83.672487767091     196.074999974598      50.000000000000
      5156    1       86.625634399825     194.369999978908      50.000000000000
      5157    1       83.672487767091     199.484999976914      50.000000000000
      5158    1       86.625634399825     197.779999970289      50.000000000000
      5159    1       83.672487767091     202.894999979230      50.000000000000
      5160    1       86.625634399825     201.189999972605      50.000000000000
      5161    1       89.578781021625     192.664999972283      50.000000000000
      5162    1       92.531927654358     190.959999976592      50.000000000000
      5163    1       89.578781021625     196.074999974598      50.000000000000
      5164    1       92.531927654358     194.369999978908      50.000000000000
      5165    1       89.578781021625     199.484999976914      50.000000000000
      5166    1       92.531927654358     197.779999970289      50.000000000000
      5167    1       89.578781021625     202.894999979230      50.000000000000
      5168    1       92.531927654358     201.189999972605      50.000000000000
      5169    2       82.688105563469     190.959999976592      50.000000000000
      5170    2       85.641252185269     192.664999972283      50.000000000000
      5171    2       82.688105563469     194.369999978908      50.000000000000
      5172    2       85.641252185269     196.074999974598      50.000000000000
      5173    2       82.688105563469     197.779999970289      50.000000000000
      5174    2       85.641252185269     199.484999976914      50.000000000000
      5175    2       82.688105563469     201.189999972605      50.000000000000
      5176    2       85.641252185269     202.894999979230      50.000000000000
      5177    2       88.594398818003     190.959999976592      50.000000000000
      5178    2       91.547545439803     192.664999972283      50.000000000000
      5179    2       88.594398818003     194.369999978908      50.000000000000
      5180    2       91.547545439803     196.074999974598      50.000000000000
      5181    2       88.594398818003     197.779999970289      50.000000000000
      5182    2       91.547545439803     199.484999976914      50.000000000000
      5183    2       88.594398818003     201.189999972605      50.000000000000
      5184    2       91.547545439803     202.894999979230      50.000000000000
      5185    1       95.485074276158     192.664999972283      50.000000000000
      5186    1       98.438220908892     190.959999976592      50.000000000000
      5187    1       95.485074276158     196.074999974598      50.000000000000
      5188    1       98.438220908892     194.369999978908      50.000000000000
      5189    1       95.485074276158     199.484999976914      50.000000000000
      5190    1       98.438220908892     197.779999970289      50.000000000000
      5191    1       95.485074276158     202.894999979230      50.000000000000
      5192    1       98.438220908892     201.189999972605      50.000000000000
      5193    1      101.391367530692     192.664999972283      50.000000000000
      5194    1      104.344514163425     190.959999976592      50.000000000000
      5195    1      101.391367530692     196.074999974598      50.000000000000
      5196    1      104.344514163425     194.369999978908      50.000000000000
      5197    1      101.391367530692     199.484999976914      50.000000000000
      5198    1      104.344514163425     197.779999970289      50.000000000000
      5199    1      101.391367530692     202.894999979230      50.000000000000
      5200    1      104.344514163425     201.189999972605      50.000000000000
      5201    2       94.500692072536     190.959999976592      50.000000000000
      5202    2       97.453838694336     192.664999972283      50.000000000000
      5203    2       94.500692072536     194.369999978908      50.000000000000
      5204    2       97.453838694336     196.074999974598      50.000000000000
      5205    2       94.500692072536     197.779999970289      50.000000000000
      5206    2       97.453838694336     199.484999976914      50.000000000000
      5207    2       94.500692072536     201.189999972605      50.000000000000
      5208    2       97.453838694336     202.894999979230      50.000000000000
      5209    2      100.406985327070     190.959999976592      50.000000000000
      5210    2      103.360131948870     192.664999972283      50.000000000000
      5211    2      100.406985327070     194.369999978908      50.000000000000
      5212    2      103.360131948870     196.074999974598      50.000000000000
      5213    2      100.406985327070     197.779999970289      50.000000000000
      5214    2      103.360131948870     199.484999976914      50.000000000000
      5215    2      100.406985327070     201.189999972605      50.000000000000
      5216    2      103.360131948870     202.894999979230      50.000000000000
      5217    1      107.297660785225     192.664999972283      50.000000000000
      5218    1      110.250807417959     190.959999976592      50.000000000000
      5219    1      107.297660785225     196.074999974598      50.000000000000
      5220    1      110.250807417959     194.369999978908      50.000000000000
      5221    1      107.297660785225     199.484999976914      50.000000000000
      5222    1      110.250807417959     197.779999970289      50.000000000000
      5223    1      107.297660785225     202.894999979230      50.000000000000
      5224    1      110.250807417959     201.189999972605      50.000000000000
      5225    1      113.203954039759     192.664999972283      50.000000000000
      5226    1      116.157100672492     190.959999976592      50.000000000000
      5227    1      113.203954039759     196.074999974598      50.000000000000
      5228    1      116.157100672492     194.369999978908      50.000000000000
      5229    1      113.203954039759     199.484999976914      50.000000000000
      5230    1      116.157100672492     197.779999970289      50.000000000000
      5231    1      113.203954039759     202.894999979230      50.000000000000
      5232    1      116.157100672492     201.189999972605      50.000000000000
      5233    2      106.313278581603     190.959999976592      50.000000000000
      5234    2      109.266425203403     192.664999972283      50.000000000000
      5235    2      106.313278581603     194.369999978908      50.000000000000
      5236    2      109.266425203403     196.074999974598      50.000000000000
      5237    2      106.313278581603     197.779999970289      50.000000000000
      5238    2      109.266425203403     199.484999976914      50.000000000000
      5239    2      106.313278581603     201.189999972605      50.000000000000
      5240    2      109.266425203403     202.894999979230      50.000000000000
      5241    2      112.219571836137     190.959999976592      50.000000000000
      5242    2      115.172718457937     192.664999972283      50.000000000000
      5243    2      112.219571836137     194.369999978908      50.000000000000
      5244    2      115.172718457937     196.074999974598      50.000000000000
      5245    2      112.219571836137     197.779999970289      50.000000000000
      5246    2      115.172718457937     199.484999976914      50.000000000000
      5247    2      112.219571836137     201.189999972605      50.000000000000
      5248    2      115.172718457937     202.894999979230      50.000000000000
      5249    1      119.110247294292     192.664999972283      50.000000000000
      5250    1      122.063393927026     190.959999976592      50.000000000000
      5251    1      119.110247294292     196.074999974598      50.000000000000
      5252    1      122.063393927026     194.369999978908      50.000000000000
      5253    1      119.110247294292     199.484999976914      50.000000000000
      5254    1      122.063393927026     197.779999970289      50.000000000000
      5255    1      119.110247294292     202.894999979230      50.000000000000
      5256    1      122.063393927026     201.189999972605      50.000000000000
      5257    1      125.016540548826     192.664999972283      50.000000000000
      5258    1      127.969687181559     190.959999976592      50.000000000000
      5259    1      125.016540548826     196.074999974598      50.000000000000
      5260    1      127.969687181559     194.369999978908      50.000000000000
      5261    1      125.016540548826     199.484999976914      50.000000000000
      5262    1      127.969687181559     197.779999970289      50.000000000000
      5263    1      125.016540548826     202.894999979230      50.000000000000
      5264    1      127.969687181559     201.189999972605      50.000000000000
      5265    2      118.125865090670     190.959999976592      50.000000000000
      5266    2      121.079011712470     192.664999972283      50.000000000000
      5267    2      118.125865090670     194.369999978908      50.000000000000
      5268    2      121.079011712470     196.074999974598      50.000000000000
      5269    2      118.125865090670     197.779999970289      50.000000000000
      5270    2      121.079011712470     199.484999976914      50.000000000000
      5271    2      118.125865090670     201.189999972605      50.000000000000
      5272    2      121.079011712470     202.894999979230      50.000000000000
      5273    2      124.032158345204     190.959999976592      50.000000000000
      5274    2      126.985304967004     192.664999972283      50.000000000000
      5275    2      124.032158345204     194.369999978908      50.000000000000
      5276    2      126.985304967004     196.074999974598      50.000000000000
      5277    2      124.032158345204     197.779999970289      50.000000000000
      5278    2      126.985304967004     199.484999976914      50.000000000000
      5279    2      124.032158345204     201.189999972605      50.000000000000
      5280    2      126.985304967004     202.894999979230      50.000000000000
      5281    1        0.984382203622     206.304999970611      50.000000000000
      5282    1        3.937528836356     204.599999974920      50.000000000000
      5283    1        0.984382203622     209.714999972926      50.000000000000
      5284    1        3.937528836356     208.009999977236      50.000000000000
      5285    1        0.984382203622     213.124999975242      50.000000000000
      5286    1        3.937528836356     211.419999968617      50.000000000000
      5287    1        0.984382203622     216.534999977558      50.000000000000
      5288    1        3.937528836356     214.829999970933      50.000000000000
      5289    1        6.890675458156     206.304999970611      50.000000000000
      5290    1        9.843822090889     204.599999974920      50.000000000000
      5291    1        6.890675458156     209.714999972926      50.000000000000
      5292    1        9.843822090889     208.009999977236      50.000000000000
      5293    1        6.890675458156     213.124999975242      50.000000000000
      5294    1        9.843822090889     211.419999968617      50.000000000000
      5295    1        6.890675458156     216.534999977558      50.000000000000
      5296    1        9.843822090889     214.829999970933      50.000000000000
      5297    2        0.000000000000     204.599999974920      50.000000000000
      5298    2        2.953146621800     206.304999970611      50.000000000000
      5299    2        0.000000000000     208.009999977236      50.000000000000
      5300    2        2.953146621800     209.714999972926      50.000000000000
      5301    2        0.000000000000     211.419999968617      50.000000000000
      5302    2        2.953146621800     213.124999975242      50.000000000000
      5303    2        0.000000000000     214.829999970933      50.000000000000
      5304    2        2.953146621800     216.534999977558      50.000000000000
      5305    2        5.906293254534     204.599999974920      50.000000000000
      5306    2        8.859439876334     206.304999970611      50.000000000000
      5307    2        5.906293254534     208.009999977236      50.000000000000
      5308    2        8.859439876334     209.714999972926      50.000000000000
      5309    2        5.906293254534     211.419999968617      50.000000000000
      5310    2        8.859439876334     213.124999975242      50.000000000000
      5311    2        5.906293254534     214.829999970933      50.000000000000
      5312    2        8.859439876334     216.534999977558      50.000000000000
      5313    1       12.796968712689     206.304999970611      50.000000000000
      5314    1       15.750115345423     204.599999974920      50.000000000000
      5315    1       12.796968712689     209.714999972926      50.000000000000
      5316    1       15.750115345423     208.009999977236      50.000000000000
      5317    1       12.796968712689     213.124999975242      50.000000000000
      5318    1       15.750115345423     211.419999968617      50.000000000000
      5319    1       12.796968712689     216.534999977558      50.000000000000
      5320    1       15.750115345423     214.829999970933      50.000000000000
      5321    1       18.703261967223     206.304999970611      50.000000000000
      5322    1       21.656408599956     204.599999974920      50.000000000000
      5323    1       18.703261967223     209.714999972926      50.000000000000
      5324    1       21.656408599956     208.009999977236      50.000000000000
      5325    1       18.703261967223     213.124999975242      50.000000000000
      5326    1       21.656408599956     211.419999968617      50.000000000000
      5327    1       18.703261967223     216.534999977558      50.000000000000
      5328    1       21.656408599956     214.829999970933      50.000000000000
      5329    2       11.812586509067     204.599999974920      50.000000000000
      5330    2       14.765733130867     206.304999970611      50.000000000000
      5331    2       11.812586509067     208.009999977236      50.000000000000
      5332    2       14.765733130867     209.714999972926      50.000000000000
      5333    2       11.812586509067     211.419999968617      50.000000000000
      5334    2       14.765733130867     213.124999975242      50.000000000000
      5335    2       11.812586509067     214.829999970933      50.000000000000
      5336    2       14.765733130867     216.534999977558      50.000000000000
      5337    2       17.718879763601     204.599999974920      50.000000000000
      5338    2       20.672026385401     206.304999970611      50.000000000000
      5339    2       17.718879763601     208.009999977236      50.000000000000
      5340    2       20.672026385401     209.714999972926      50.000000000000
      5341    2       17.718879763601     211.419999968617      50.000000000000
      5342    2       20.672026385401     213.124999975242      50.000000000000
      5343    2       17.718879763601     214.829999970933      50.000000000000
      5344    2       20.672026385401     216.534999977558      50.000000000000
      5345    1       24.609555221756     206.304999970611      50.000000000000
      5346    1       27.562701854490     204.599999974920      50.000000000000
      5347    1       24.609555221756     209.714999972926      50.000000000000
      5348    1       27.562701854490     208.009999977236      50.000000000000
      5349    1       24.609555221756     213.124999975242      50.000000000000
      5350    1       27.562701854490     211.419999968617      50.000000000000
      5351    1       24.609555221756     216.534999977558      50.000000000000
      5352    1       27.562701854490     214.829999970933      50.000000000000
      5353    1       30.515848476290     206.304999970611      50.000000000000
      5354    1       33.468995109023     204.599999974920      50.000000000000
      5355    1       30.515848476290     209.714999972926      50.000000000000
      5356    1       33.468995109023     208.009999977236      50.000000000000
      5357    1       30.515848476290     213.124999975242      50.000000000000
      5358    1       33.468995109023     211.419999968617      50.000000000000
      5359    1       30.515848476290     216.534999977558      50.000000000000
      5360    1       33.468995109023     214.829999970933      50.000000000000
      5361    2       23.625173018134     204.599999974920      50.000000000000
      5362    2       26.578319639934     206.304999970611      50.000000000000
      5363    2       23.625173018134     208.009999977236      50.000000000000
      5364    2       26.578319639934     209.714999972926      50.000000000000
      5365    2       23.625173018134     211.419999968617      50.000000000000
      5366    2       26.578319639934     213.124999975242      50.000000000000
      5367    2       23.625173018134     214.829999970933      50.000000000000
      5368    2       26.578319639934     216.534999977558      50.000000000000
      5369    2       29.531466272668     204.599999974920      50.000000000000
      5370    2       32.484612894468     206.304999970611      50.000000000000
      5371    2       29.531466272668     208.009999977236      50.000000000000
      5372    2       32.484612894468     209.714999972926      50.000000000000
      5373    2       29.531466272668     211.419999968617      50.000000000000
      5374    2       32.484612894468     213.124999975242      50.000000000000
      5375    2       29.531466272668     214.829999970933      50.000000000000
      5376    2       32.484612894468     216.534999977558      50.000000000000
      5377    1       36.422141730823     206.304999970611      50.000000000000
      5378    1       39.375288363557     204.599999974920      50.000000000000
      5379    1       36.422141730823     209.714999972926      50.000000000000
      5380    1       39.375288363557     208.009999977236      50.000000000000
      5381    1       36.422141730823     213.124999975242      50.000000000000
      5382    1       39.375288363557     211.419999968617      50.000000000000
      5383    1       36.422141730823     216.534999977558      50.000000000000
      5384    1       39.375288363557     214.829999970933      50.000000000000
      5385    1       42.328434985357     206.304999970611      50.000000000000
      5386    1       45.281581618090     204.599999974920      50.000000000000
      5387    1       42.328434985357     209.714999972926      50.000000000000
      5388    1       45.281581618090     208.009999977236      50.000000000000
      5389    1       42.328434985357     213.124999975242      50.000000000000
      5390    1       45.281581618090     211.419999968617      50.000000000000
      5391    1       42.328434985357     216.534999977558      50.000000000000
      5392    1       45.281581618090     214.829999970933      50.000000000000
      5393    2       35.437759527201     204.599999974920      50.000000000000
      5394    2       38.390906149001     206.304999970611      50.000000000000
      5395    2       35.437759527201     208.009999977236      50.000000000000
      5396    2       38.390906149001     209.714999972926      50.000000000000
      5397    2       35.437759527201     211.419999968617      50.000000000000
      5398    2       38.390906149001     213.124999975242      50.000000000000
      5399    2       35.437759527201     214.829999970933      50.000000000000
      5400    2       38.390906149001     216.534999977558      50.000000000000
      5401    2       41.344052781735     204.599999974920      50.000000000000
      5402    2       44.297199403535     206.304999970611      50.000000000000
      5403    2       41.344052781735     208.009999977236      50.000000000000
      5404    2       44.297199403535     209.714999972926      50.000000000000
      5405    2       41.344052781735     211.419999968617      50.000000000000
      5406    2       44.297199403535     213.124999975242      50.000000000000
      5407    2       41.344052781735     214.829999970933      50.000000000000
      5408    2       44.297199403535     216.534999977558      50.000000000000
      5409    1       48.234728239890     206.304999970611      50.000000000000
      5410    1       51.187874872624     204.599999974920      50.000000000000
      5411    1       48.234728239890     209.714999972926      50.000000000000
      5412    1       51.187874872624     208.009999977236      50.000000000000
      5413    1       48.234728239890     213.124999975242      50.000000000000
      5414    1       51.187874872624     211.419999968617      50.000000000000
      5415    1       48.234728239890     216.534999977558      50.000000000000
      5416    1       51.187874872624     214.829999970933      50.000000000000
      5417    1       54.141021494424     206.304999970611      50.000000000000
      5418    1       57.094168127157     204.599999974920      50.000000000000
      5419    1       54.141021494424     209.714999972926      50.000000000000
      5420    1       57.094168127157     208.009999977236      50.000000000000
      5421    1       54.141021494424     213.124999975242      50.000000000000
      5422    1       57.094168127157     211.419999968617      50.000000000000
      5423    1       54.141021494424     216.534999977558      50.000000000000
      5424    1       57.094168127157     214.829999970933      50.000000000000
      5425    2       47.250346036268     204.599999974920      50.000000000000
      5426    2       50.203492658068     206.304999970611      50.000000000000
      5427    2       47.250346036268     208.009999977236      50.000000000000
      5428    2       50.203492658068     209.714999972926      50.000000000000
      5429    2       47.250346036268     211.419999968617      50.000000000000
      5430    2       50.203492658068     213.124999975242      50.000000000000
      5431    2       47.250346036268     214.829999970933      50.000000000000
      5432    2       50.203492658068     216.534999977558      50.000000000000
      5433    2       53.156639290802     204.599999974920      50.000000000000
      5434    2       56.109785912602     206.304999970611      50.000000000000
      5435    2       53.156639290802     208.009999977236      50.000000000000
      5436    2       56.109785912602     209.714999972926      50.000000000000
      5437    2       53.156639290802     211.419999968617      50.000000000000
      5438    2       56.109785912602     213.124999975242      50.000000000000
      5439    2       53.156639290802     214.829999970933      50.000000000000
      5440    2       56.109785912602     216.534999977558      50.000000000000
      5441    1       60.047314748957     206.304999970611      50.000000000000
      5442    1       63.000461381691     204.599999974920      50.000000000000
      5443    1       60.047314748957     209.714999972926      50.000000000000
      5444    1       63.000461381691     208.009999977236      50.000000000000
      5445    1       60.047314748957     213.124999975242      50.000000000000
      5446    1       63.000461381691     211.419999968617      50.000000000000
      5447    1       60.047314748957     216.534999977558      50.000000000000
      5448    1       63.000461381691     214.829999970933      50.000000000000
      5449    1       65.953608003491     206.304999970611      50.000000000000
      5450    1       68.906754636224     204.599999974920      50.000000000000
      5451    1       65.953608003491     209.714999972926      50.000000000000
      5452    1       68.906754636224     208.009999977236      50.000000000000
      5453    1       65.953608003491     213.124999975242      50.000000000000
      5454    1       68.906754636224     211.419999968617      50.000000000000
      5455    1       65.953608003491     216.534999977558      50.000000000000
      5456    1       68.906754636224     214.829999970933      50.000000000000
      5457    2       59.062932545335     204.599999974920      50.000000000000
      5458    2       62.016079167135     206.304999970611      50.000000000000
      5459    2       59.062932545335     208.009999977236      50.000000000000
      5460    2       62.016079167135     209.714999972926      50.000000000000
      5461    2       59.062932545335     211.419999968617      50.000000000000
      5462    2       62.016079167135     213.124999975242      50.000000000000
      5463    2       59.062932545335     214.829999970933      50.000000000000
      5464    2       62.016079167135     216.534999977558      50.000000000000
      5465    2       64.969225799869     204.599999974920      50.000000000000
      5466    2       67.922372421669     206.304999970611      50.000000000000
      5467    2       64.969225799869     208.009999977236      50.000000000000
      5468    2       67.922372421669     209.714999972926      50.000000000000
      5469    2       64.969225799869     211.419999968617      50.000000000000
      5470    2       67.922372421669     213.124999975242      50.000000000000
      5471    2       64.969225799869     214.829999970933      50.000000000000
      5472    2       67.922372421669     216.534999977558      50.000000000000
      5473    1       71.859901258024     206.304999970611      50.000000000000
      5474    1       74.813047890758     204.599999974920      50.000000000000
      5475    1       71.859901258024     209.714999972926      50.000000000000
      5476    1       74.813047890758     208.009999977236      50.000000000000
      5477    1       71.859901258024     213.124999975242      50.000000000000
      5478    1       74.813047890758     211.419999968617      50.000000000000
      5479    1       71.859901258024     216.534999977558      50.000000000000
      5480    1       74.813047890758     214.829999970933      50.000000000000
      5481    1       77.766194512558     206.304999970611      50.000000000000
      5482    1       80.719341145291     204.599999974920      50.000000000000
      5483    1       77.766194512558     209.714999972926      50.000000000000
      5484    1       80.719341145291     208.009999977236      50.000000000000
      5485    1       77.766194512558     213.124999975242      50.000000000000
      5486    1       80.719341145291     211.419999968617      50.000000000000
      5487    1       77.766194512558     216.534999977558      50.000000000000
      5488    1       80.719341145291     214.829999970933      50.000000000000
      5489    2       70.875519054402     204.599999974920      50.000000000000
      5490    2       73.828665676202     206.304999970611      50.000000000000
      5491    2       70.875519054402     208.009999977236      50.000000000000
      5492    2       73.828665676202     209.714999972926      50.000000000000
      5493    2       70.875519054402     211.419999968617      50.000000000000
      5494    2       73.828665676202     213.124999975242      50.000000000000
      5495    2       70.875519054402     214.829999970933      50.000000000000
      5496    2       73.828665676202     216.534999977558      50.000000000000
      5497    2       76.781812308936     204.599999974920      50.000000000000
      5498    2       79.734958930736     206.304999970611      50.000000000000
      5499    2       76.781812308936     208.009999977236      50.000000000000
      5500    2       79.734958930736     209.714999972926      50.000000000000
      5501    2       76.781812308936     211.419999968617      50.000000000000
      5502    2       79.734958930736     213.124999975242      50.000000000000
      5503    2       76.781812308936     214.829999970933      50.000000000000
      5504    2       79.734958930736     216.534999977558      50.000000000000
      5505    1       83.672487767091     206.304999970611      50.000000000000
      5506    1       86.625634399825     204.599999974920      50.000000000000
      5507    1       83.672487767091     209.714999972926      50.000000000000
      5508    1       86.625634399825     208.009999977236      50.000000000000
      5509    1       83.672487767091     213.124999975242      50.000000000000
      5510    1       86.625634399825     211.419999968617      50.000000000000
      5511    1       83.672487767091     216.534999977558      50.000000000000
      5512    1       86.625634399825     214.829999970933      50.000000000000
      5513    1       89.578781021625     206.304999970611      50.000000000000
      5514    1       92.531927654358     204.599999974920      50.000000000000
      5515    1       89.578781021625     209.714999972926      50.000000000000
      5516    1       92.531927654358     208.009999977236      50.000000000000
      5517    1       89.578781021625     213.124999975242      50.000000000000
      5518    1       92.531927654358     211.419999968617      50.000000000000
      5519    1       89.578781021625     216.534999977558      50.000000000000
      5520    1       92.531927654358     214.829999970933      50.000000000000
      5521    2       82.688105563469     204.599999974920      50.000000000000
      5522    2       85.641252185269     206.304999970611      50.000000000000
      5523    2       82.688105563469     208.009999977236      50.000000000000
      5524    2       85.641252185269     209.714999972926      50.000000000000
      5525    2       82.688105563469     211.419999968617      50.000000000000
      5526    2       85.641252185269     213.124999975242      50.000000000000
      5527    2       82.688105563469     214.829999970933      50.000000000000
      5528    2       85.641252185269     216.534999977558      50.000000000000
      5529    2       88.594398818003     204.599999974920      50.000000000000
      5530    2       91.547545439803     206.304999970611      50.000000000000
      5531    2       88.594398818003     208.009999977236      50.000000000000
      5532    2       91.547545439803     209.714999972926      50.000000000000
      5533    2       88.594398818003     211.419999968617      50.000000000000
      5534    2       91.547545439803     213.124999975242      50.000000000000
      5535    2       88.594398818003     214.829999970933      50.000000000000
      5536    2       91.547545439803     216.534999977558      50.000000000000
      5537    1       95.485074276158     206.304999970611      50.000000000000
      5538    1       98.438220908892     204.599999974920      50.000000000000
      5539    1       95.485074276158     209.714999972926      50.000000000000
      5540    1       98.438220908892     208.009999977236      50.000000000000
      5541    1       95.485074276158     213.124999975242      50.000000000000
      5542    1       98.438220908892     211.419999968617      50.000000000000
      5543    1       95.485074276158     216.534999977558      50.000000000000
      5544    1       98.438220908892     214.829999970933      50.000000000000
      5545    1      101.391367530692     206.304999970611      50.000000000000
      5546    1      104.344514163425     204.599999974920      50.000000000000
      5547    1      101.391367530692     209.714999972926      50.000000000000
      5548    1      104.344514163425     208.009999977236      50.000000000000
      5549    1      101.391367530692     213.124999975242      50.000000000000
      5550    1      104.344514163425     211.419999968617      50.000000000000
      5551    1      101.391367530692     216.534999977558      50.000000000000
      5552    1      104.344514163425     214.829999970933      50.000000000000
      5553    2       94.500692072536     204.599999974920      50.000000000000
      5554    2       97.453838694336     206.304999970611      50.000000000000
      5555    2       94.500692072536     208.009999977236      50.000000000000
      5556    2       97.453838694336     209.714999972926      50.000000000000
      5557    2       94.500692072536     211.419999968617      50.000000000000
      5558    2       97.453838694336     213.124999975242      50.000000000000
      5559    2       94.500692072536     214.829999970933      50.000000000000
      5560    2       97.453838694336     216.534999977558      50.000000000000
      5561    2      100.406985327070     204.599999974920      50.000000000000
      5562    2      103.360131948870     206.304999970611      50.000000000000
      5563    2      100.406985327070     208.009999977236      50.000000000000
      5564    2      103.360131948870     209.714999972926      50.000000000000
      5565    2      100.406985327070     211.419999968617      50.000000000000
      5566    2      103.360131948870     213.124999975242      50.000000000000
      5567    2      100.406985327070     214.829999970933      50.000000000000
      5568    2      103.360131948870     216.534999977558      50.000000000000
      5569    1      107.297660785225     206.304999970611      50.000000000000
      5570    1      110.250807417959     204.599999974920      50.000000000000
      5571    1      107.297660785225     209.714999972926      50.000000000000
      5572    1      110.250807417959     208.009999977236      50.000000000000
      5573    1      107.297660785225     213.124999975242      50.000000000000
      5574    1      110.250807417959     211.419999968617      50.000000000000
      5575    1      107.297660785225     216.534999977558      50.000000000000
      5576    1      110.250807417959     214.829999970933      50.000000000000
      5577    1      113.203954039759     206.304999970611      50.000000000000
      5578    1      116.157100672492     204.599999974920      50.000000000000
      5579    1      113.203954039759     209.714999972926      50.000000000000
      5580    1      116.157100672492     208.009999977236      50.000000000000
      5581    1      113.203954039759     213.124999975242      50.000000000000
      5582    1      116.157100672492     211.419999968617      50.000000000000
      5583    1      113.203954039759     216.534999977558      50.000000000000
      5584    1      116.157100672492     214.829999970933      50.000000000000
      5585    2      106.313278581603     204.599999974920      50.000000000000
      5586    2      109.266425203403     206.304999970611      50.000000000000
      5587    2      106.313278581603     208.009999977236      50.000000000000
      5588    2      109.266425203403     209.714999972926      50.000000000000
      5589    2      106.313278581603     211.419999968617      50.000000000000
      5590    2      109.266425203403     213.124999975242      50.000000000000
      5591    2      106.313278581603     214.829999970933      50.000000000000
      5592    2      109.266425203403     216.534999977558      50.000000000000
      5593    2      112.219571836137     204.599999974920      50.000000000000
      5594    2      115.172718457937     206.304999970611      50.000000000000
      5595    2      112.219571836137     208.009999977236      50.000000000000
      5596    2      115.172718457937     209.714999972926      50.000000000000
      5597    2      112.219571836137     211.419999968617      50.000000000000
      5598    2      115.172718457937     213.124999975242      50.000000000000
      5599    2      112.219571836137     214.829999970933      50.000000000000
      5600    2      115.172718457937     216.534999977558      50.000000000000
      5601    1      119.110247294292     206.304999970611      50.000000000000
      5602    1      122.063393927026     204.599999974920      50.000000000000
      5603    1      119.110247294292     209.714999972926      50.000000000000
      5604    1      122.063393927026     208.009999977236      50.000000000000
      5605    1      119.110247294292     213.124999975242      50.000000000000
      5606    1      122.063393927026     211.419999968617      50.000000000000
      5607    1      119.110247294292     216.534999977558      50.000000000000
      5608    1      122.063393927026     214.829999970933      50.000000000000
      5609    1      125.016540548826     206.304999970611      50.000000000000
      5610    1      127.969687181559     204.599999974920      50.000000000000
      5611    1      125.016540548826     209.714999972926      50.000000000000
      5612    1      127.969687181559     208.009999977236      50.000000000000
      5613    1      125.016540548826     213.124999975242      50.000000000000
      5614    1      127.969687181559     211.419999968617      50.000000000000
      5615    1      125.016540548826     216.534999977558      50.000000000000
      5616    1      127.969687181559     214.829999970933      50.000000000000
      5617    2      118.125865090670     204.599999974920      50.000000000000
      5618    2      121.079011712470     206.304999970611      50.000000000000
      5619    2      118.125865090670     208.009999977236      50.000000000000
      5620    2      121.079011712470     209.714999972926      50.000000000000
      5621    2      118.125865090670     211.419999968617      50.000000000000
      5622    2      121.079011712470     213.124999975242      50.000000000000
      5623    2      118.125865090670     214.829999970933      50.000000000000
      5624    2      121.079011712470     216.534999977558      50.000000000000
      5625    2      124.032158345204     204.599999974920      50.000000000000
      5626    2      126.985304967004     206.304999970611      50.000000000000
      5627    2      124.032158345204     208.009999977236      50.000000000000
      5628    2      126.985304967004     209.714999972926      50.000000000000
      5629    2      124.032158345204     211.419999968617      50.000000000000
      5630    2      126.985304967004     213.124999975242      50.000000000000
      5631    2      124.032158345204     214.829999970933      50.000000000000
      5632    2      126.985304967004     216.534999977558      50.000000000000
      5633    1        0.984382203622     219.944999968939      50.000000000000
      5634    1        3.937528836356     218.239999973248      50.000000000000
      5635    1        0.984382203622     223.354999971254      50.000000000000
      5636    1        3.937528836356     221.649999975564      50.000000000000
      5637    1        0.984382203622     226.764999973570      50.000000000000
      5638    1        3.937528836356     225.059999966945      50.000000000000
      5639    1        0.984382203622     230.174999975886      50.000000000000
      5640    1        3.937528836356     228.469999969261      50.000000000000
      5641    1        6.890675458156     219.944999968939      50.000000000000
      5642    1        9.843822090889     218.239999973248      50.000000000000
      5643    1        6.890675458156     223.354999971254      50.000000000000
      5644    1        9.843822090889     221.649999975564      50.000000000000
      5645    1        6.890675458156     226.764999973570      50.000000000000
      5646    1        9.843822090889     225.059999966945      50.000000000000
      5647    1        6.890675458156     230.174999975886      50.000000000000
      5648    1        9.843822090889     228.469999969261      50.000000000000
      5649    2        0.000000000000     218.239999973248      50.000000000000
      5650    2        2.953146621800     219.944999968939      50.000000000000
      5651    2        0.000000000000     221.649999975564      50.000000000000
      5652    2        2.953146621800     223.354999971254      50.000000000000
      5653    2        0.000000000000     225.059999966945      50.000000000000
      5654    2        2.953146621800     226.764999973570      50.000000000000
      5655    2        0.000000000000     228.469999969261      50.000000000000
      5656    2        2.953146621800     230.174999975886      50.000000000000
      5657    2        5.906293254534     218.239999973248      50.000000000000
      5658    2        8.859439876334     219.944999968939      50.000000000000
      5659    2        5.906293254534     221.649999975564      50.000000000000
      5660    2        8.859439876334     223.354999971254      50.000000000000
      5661    2        5.906293254534     225.059999966945      50.000000000000
      5662    2        8.859439876334     226.764999973570      50.000000000000
      5663    2        5.906293254534     228.469999969261      50.000000000000
      5664    2        8.859439876334     230.174999975886      50.000000000000
      5665    1       12.796968712689     219.944999968939      50.000000000000
      5666    1       15.750115345423     218.239999973248      50.000000000000
      5667    1       12.796968712689     223.354999971254      50.000000000000
      5668    1       15.750115345423     221.649999975564      50.000000000000
      5669    1       12.796968712689     226.764999973570      50.000000000000
      5670    1       15.750115345423     225.059999966945      50.000000000000
      5671    1       12.796968712689     230.174999975886      50.000000000000
      5672    1       15.750115345423     228.469999969261      50.000000000000
      5673    1       18.703261967223     219.944999968939      50.000000000000
      5674    1       21.656408599956     218.239999973248      50.000000000000
      5675    1       18.703261967223     223.354999971254      50.000000000000
      5676    1       21.656408599956     221.649999975564      50.000000000000
      5677    1       18.703261967223     226.764999973570      50.000000000000
      5678    1       21.656408599956     225.059999966945      50.000000000000
      5679    1       18.703261967223     230.174999975886      50.000000000000
      5680    1       21.656408599956     228.469999969261      50.000000000000
      5681    2       11.812586509067     218.239999973248      50.000000000000
      5682    2       14.765733130867     219.944999968939      50.000000000000
      5683    2       11.812586509067     221.649999975564      50.000000000000
      5684    2       14.765733130867     223.354999971254      50.000000000000
      5685    2       11.812586509067     225.059999966945      50.000000000000
      5686    2       14.765733130867     226.764999973570      50.000000000000
      5687    2       11.812586509067     228.469999969261      50.000000000000
      5688    2       14.765733130867     230.174999975886      50.000000000000
      5689    2       17.718879763601     218.239999973248      50.000000000000
      5690    2       20.672026385401     219.944999968939      50.000000000000
      5691    2       17.718879763601     221.649999975564      50.000000000000
      5692    2       20.672026385401     223.354999971254      50.000000000000
      5693    2       17.718879763601     225.059999966945      50.000000000000
      5694    2       20.672026385401     226.764999973570      50.000000000000
      5695    2       17.718879763601     228.469999969261      50.000000000000
      5696    2       20.672026385401     230.174999975886      50.000000000000
      5697    1       24.609555221756     219.944999968939      50.000000000000
      5698    1       27.562701854490     218.239999973248      50.000000000000
      5699    1       24.609555221756     223.354999971254      50.000000000000
      5700    1       27.562701854490     221.649999975564      50.000000000000
      5701    1       24.609555221756     226.764999973570      50.000000000000
      5702    1       27.562701854490     225.059999966945      50.000000000000
      5703    1       24.609555221756     230.174999975886      50.000000000000
      5704    1       27.562701854490     228.469999969261      50.000000000000
      5705    1       30.515848476290     219.944999968939      50.000000000000
      5706    1       33.468995109023     218.239999973248      50.000000000000
      5707    1       30.515848476290     223.354999971254      50.000000000000
      5708    1       33.468995109023     221.649999975564      50.000000000000
      5709    1       30.515848476290     226.764999973570      50.000000000000
      5710    1       33.468995109023     225.059999966945      50.000000000000
      5711    1       30.515848476290     230.174999975886      50.000000000000
      5712    1       33.468995109023     228.469999969261      50.000000000000
      5713    2       23.625173018134     218.239999973248      50.000000000000
      5714    2       26.578319639934     219.944999968939      50.000000000000
      5715    2       23.625173018134     221.649999975564      50.000000000000
      5716    2       26.578319639934     223.354999971254      50.000000000000
      5717    2       23.625173018134     225.059999966945      50.000000000000
      5718    2       26.578319639934     226.764999973570      50.000000000000
      5719    2       23.625173018134     228.469999969261      50.000000000000
      5720    2       26.578319639934     230.174999975886      50.000000000000
      5721    2       29.531466272668     218.239999973248      50.000000000000
      5722    2       32.484612894468     219.944999968939      50.000000000000
      5723    2       29.531466272668     221.649999975564      50.000000000000
      5724    2       32.484612894468     223.354999971254      50.000000000000
      5725    2       29.531466272668     225.059999966945      50.000000000000
      5726    2       32.484612894468     226.764999973570      50.000000000000
      5727    2       29.531466272668     228.469999969261      50.000000000000
      5728    2       32.484612894468     230.174999975886      50.000000000000
      5729    1       36.422141730823     219.944999968939      50.000000000000
      5730    1       39.375288363557     218.239999973248      50.000000000000
      5731    1       36.422141730823     223.354999971254      50.000000000000
      5732    1       39.375288363557     221.649999975564      50.000000000000
      5733    1       36.422141730823     226.764999973570      50.000000000000
      5734    1       39.375288363557     225.059999966945      50.000000000000
      5735    1       36.422141730823     230.174999975886      50.000000000000
      5736    1       39.375288363557     228.469999969261      50.000000000000
      5737    1       42.328434985357     219.944999968939      50.000000000000
      5738    1       45.281581618090     218.239999973248      50.000000000000
      5739    1       42.328434985357     223.354999971254      50.000000000000
      5740    1       45.281581618090     221.649999975564      50.000000000000
      5741    1       42.328434985357     226.764999973570      50.000000000000
      5742    1       45.281581618090     225.059999966945      50.000000000000
      5743    1       42.328434985357     230.174999975886      50.000000000000
      5744    1       45.281581618090     228.469999969261      50.000000000000
      5745    2       35.437759527201     218.239999973248      50.000000000000
      5746    2       38.390906149001     219.944999968939      50.000000000000
      5747    2       35.437759527201     221.649999975564      50.000000000000
      5748    2       38.390906149001     223.354999971254      50.000000000000
      5749    2       35.437759527201     225.059999966945      50.000000000000
      5750    2       38.390906149001     226.764999973570      50.000000000000
      5751    2       35.437759527201     228.469999969261      50.000000000000
      5752    2       38.390906149001     230.174999975886      50.000000000000
      5753    2       41.344052781735     218.239999973248      50.000000000000
      5754    2       44.297199403535     219.944999968939      50.000000000000
      5755    2       41.344052781735     221.649999975564      50.000000000000
      5756    2       44.297199403535     223.354999971254      50.000000000000
      5757    2       41.344052781735     225.059999966945      50.000000000000
      5758    2       44.297199403535     226.764999973570      50.000000000000
      5759    2       41.344052781735     228.469999969261      50.000000000000
      5760    2       44.297199403535     230.174999975886      50.000000000000
      5761    1       48.234728239890     219.944999968939      50.000000000000
      5762    1       51.187874872624     218.239999973248      50.000000000000
      5763    1       48.234728239890     223.354999971254      50.000000000000
      5764    1       51.187874872624     221.649999975564      50.000000000000
      5765    1       48.234728239890     226.764999973570      50.000000000000
      5766    1       51.187874872624     225.059999966945      50.000000000000
      5767    1       48.234728239890     230.174999975886      50.000000000000
      5768    1       51.187874872624     228.469999969261      50.000000000000
      5769    1       54.141021494424     219.944999968939      50.000000000000
      5770    1       57.094168127157     218.239999973248      50.000000000000
      5771    1       54.141021494424     223.354999971254      50.000000000000
      5772    1       57.094168127157     221.649999975564      50.000000000000
      5773    1       54.141021494424     226.764999973570      50.000000000000
      5774    1       57.094168127157     225.059999966945      50.000000000000
      5775    1       54.141021494424     230.174999975886      50.000000000000
      5776    1       57.094168127157     228.469999969261      50.000000000000
      5777    2       47.250346036268     218.239999973248      50.000000000000
      5778    2       50.203492658068     219.944999968939      50.000000000000
      5779    2       47.250346036268     221.649999975564      50.000000000000
      5780    2       50.203492658068     223.354999971254      50.000000000000
      5781    2       47.250346036268     225.059999966945      50.000000000000
      5782    2       50.203492658068     226.764999973570      50.000000000000
      5783    2       47.250346036268     228.469999969261      50.000000000000
      5784    2       50.203492658068     230.174999975886      50.000000000000
      5785    2       53.156639290802     218.239999973248      50.000000000000
      5786    2       56.109785912602     219.944999968939      50.000000000000
      5787    2       53.156639290802     221.649999975564      50.000000000000
      5788    2       56.109785912602     223.354999971254      50.000000000000
      5789    2       53.156639290802     225.059999966945      50.000000000000
      5790    2       56.109785912602     226.764999973570      50.000000000000
      5791    2       53.156639290802     228.469999969261      50.000000000000
      5792    2       56.109785912602     230.174999975886      50.000000000000
      5793    1       60.047314748957     219.944999968939      50.000000000000
      5794    1       63.000461381691     218.239999973248      50.000000000000
      5795    1       60.047314748957     223.354999971254      50.000000000000
      5796    1       63.000461381691     221.649999975564      50.000000000000
      5797    1       60.047314748957     226.764999973570      50.000000000000
      5798    1       63.000461381691     225.059999966945      50.000000000000
      5799    1       60.047314748957     230.174999975886      50.000000000000
      5800    1       63.000461381691     228.469999969261      50.000000000000
      5801    1       65.953608003491     219.944999968939      50.000000000000
      5802    1       68.906754636224     218.239999973248      50.000000000000
      5803    1       65.953608003491     223.354999971254      50.000000000000
      5804    1       68.906754636224     221.649999975564      50.000000000000
      5805    1       65.953608003491     226.764999973570      50.000000000000
      5806    1       68.906754636224     225.059999966945      50.000000000000
      5807    1       65.953608003491     230.174999975886      50.000000000000
      5808    1       68.906754636224     228.469999969261      50.000000000000
      5809    2       59.062932545335     218.239999973248      50.000000000000
      5810    2       62.016079167135     219.944999968939      50.000000000000
      5811    2       59.062932545335     221.649999975564      50.000000000000
      5812    2       62.016079167135     223.354999971254      50.000000000000
      5813    2       59.062932545335     225.059999966945      50.000000000000
      5814    2       62.016079167135     226.764999973570      50.000000000000
      5815    2       59.062932545335     228.469999969261      50.000000000000
      5816    2       62.016079167135     230.174999975886      50.000000000000
      5817    2       64.969225799869     218.239999973248      50.000000000000
      5818    2       67.922372421669     219.944999968939      50.000000000000
      5819    2       64.969225799869     221.649999975564      50.000000000000
      5820    2       67.922372421669     223.354999971254      50.000000000000
      5821    2       64.969225799869     225.059999966945      50.000000000000
      5822    2       67.922372421669     226.764999973570      50.000000000000
      5823    2       64.969225799869     228.469999969261      50.000000000000
      5824    2       67.922372421669     230.174999975886      50.000000000000
      5825    1       71.859901258024     219.944999968939      50.000000000000
      5826    1       74.813047890758     218.239999973248      50.000000000000
      5827    1       71.859901258024     223.354999971254      50.000000000000
      5828    1       74.813047890758     221.649999975564      50.000000000000
      5829    1       71.859901258024     226.764999973570      50.000000000000
      5830    1       74.813047890758     225.059999966945      50.000000000000
      5831    1       71.859901258024     230.174999975886      50.000000000000
      5832    1       74.813047890758     228.469999969261      50.000000000000
      5833    1       77.766194512558     219.944999968939      50.000000000000
      5834    1       80.719341145291     218.239999973248      50.000000000000
      5835    1       77.766194512558     223.354999971254      50.000000000000
      5836    1       80.719341145291     221.649999975564      50.000000000000
      5837    1       77.766194512558     226.764999973570      50.000000000000
      5838    1       80.719341145291     225.059999966945      50.000000000000
      5839    1       77.766194512558     230.174999975886      50.000000000000
      5840    1       80.719341145291     228.469999969261      50.000000000000
      5841    2       70.875519054402     218.239999973248      50.000000000000
      5842    2       73.828665676202     219.944999968939      50.000000000000
      5843    2       70.875519054402     221.649999975564      50.000000000000
      5844    2       73.828665676202     223.354999971254      50.000000000000
      5845    2       70.875519054402     225.059999966945      50.000000000000
      5846    2       73.828665676202     226.764999973570      50.000000000000
      5847    2       70.875519054402     228.469999969261      50.000000000000
      5848    2       73.828665676202     230.174999975886      50.000000000000
      5849    2       76.781812308936     218.239999973248      50.000000000000
      5850    2       79.734958930736     219.944999968939      50.000000000000
      5851    2       76.781812308936     221.649999975564      50.000000000000
      5852    2       79.734958930736     223.354999971254      50.000000000000
      5853    2       76.781812308936     225.059999966945      50.000000000000
      5854    2       79.734958930736     226.764999973570      50.000000000000
      5855    2       76.781812308936     228.469999969261      50.000000000000
      5856    2       79.734958930736     230.174999975886      50.000000000000
      5857    1       83.672487767091     219.944999968939      50.000000000000
      5858    1       86.625634399825     218.239999973248      50.000000000000
      5859    1       83.672487767091     223.354999971254      50.000000000000
      5860    1       86.625634399825     221.649999975564      50.000000000000
      5861    1       83.672487767091     226.764999973570      50.000000000000
      5862    1       86.625634399825     225.059999966945      50.000000000000
      5863    1       83.672487767091     230.174999975886      50.000000000000
      5864    1       86.625634399825     228.469999969261      50.000000000000
      5865    1       89.578781021625     219.944999968939      50.000000000000
      5866    1       92.531927654358     218.239999973248      50.000000000000
      5867    1       89.578781021625     223.354999971254      50.000000000000
      5868    1       92.531927654358     221.649999975564      50.000000000000
      5869    1       89.578781021625     226.764999973570      50.000000000000
      5870    1       92.531927654358     225.059999966945      50.000000000000
      5871    1       89.578781021625     230.174999975886      50.000000000000
      5872    1       92.531927654358     228.469999969261      50.000000000000
      5873    2       82.688105563469     218.239999973248      50.000000000000
      5874    2       85.641252185269     219.944999968939      50.000000000000
      5875    2       82.688105563469     221.649999975564      50.000000000000
      5876    2       85.641252185269     223.354999971254      50.000000000000
      5877    2       82.688105563469     225.059999966945      50.000000000000
      5878    2       85.641252185269     226.764999973570      50.000000000000
      5879    2       82.688105563469     228.469999969261      50.000000000000
      5880    2       85.641252185269     230.174999975886      50.000000000000
      5881    2       88.594398818003     218.239999973248      50.000000000000
      5882    2       91.547545439803     219.944999968939      50.000000000000
      5883    2       88.594398818003     221.649999975564      50.000000000000
      5884    2       91.547545439803     223.354999971254      50.000000000000
      5885    2       88.594398818003     225.059999966945      50.000000000000
      5886    2       91.547545439803     226.764999973570      50.000000000000
      5887    2       88.594398818003     228.469999969261      50.000000000000
      5888    2       91.547545439803     230.174999975886      50.000000000000
      5889    1       95.485074276158     219.944999968939      50.000000000000
      5890    1       98.438220908892     218.239999973248      50.000000000000
      5891    1       95.485074276158     223.354999971254      50.000000000000
      5892    1       98.438220908892     221.649999975564      50.000000000000
      5893    1       95.485074276158     226.764999973570      50.000000000000
      5894    1       98.438220908892     225.059999966945      50.000000000000
      5895    1       95.485074276158     230.174999975886      50.000000000000
      5896    1       98.438220908892     228.469999969261      50.000000000000
      5897    1      101.391367530692     219.944999968939      50.000000000000
      5898    1      104.344514163425     218.239999973248      50.000000000000
      5899    1      101.391367530692     223.354999971254      50.000000000000
      5900    1      104.344514163425     221.649999975564      50.000000000000
      5901    1      101.391367530692     226.764999973570      50.000000000000
      5902    1      104.344514163425     225.059999966945      50.000000000000
      5903    1      101.391367530692     230.174999975886      50.000000000000
      5904    1      104.344514163425     228.469999969261      50.000000000000
      5905    2       94.500692072536     218.239999973248      50.000000000000
      5906    2       97.453838694336     219.944999968939      50.000000000000
      5907    2       94.500692072536     221.649999975564      50.000000000000
      5908    2       97.453838694336     223.354999971254      50.000000000000
      5909    2       94.500692072536     225.059999966945      50.000000000000
      5910    2       97.453838694336     226.764999973570      50.000000000000
      5911    2       94.500692072536     228.469999969261      50.000000000000
      5912    2       97.453838694336     230.174999975886      50.000000000000
      5913    2      100.406985327070     218.239999973248      50.000000000000
      5914    2      103.360131948870     219.944999968939      50.000000000000
      5915    2      100.406985327070     221.649999975564      50.000000000000
      5916    2      103.360131948870     223.354999971254      50.000000000000
      5917    2      100.406985327070     225.059999966945      50.000000000000
      5918    2      103.360131948870     226.764999973570      50.000000000000
      5919    2      100.406985327070     228.469999969261      50.000000000000
      5920    2      103.360131948870     230.174999975886      50.000000000000
      5921    1      107.297660785225     219.944999968939      50.000000000000
      5922    1      110.250807417959     218.239999973248      50.000000000000
      5923    1      107.297660785225     223.354999971254      50.000000000000
      5924    1      110.250807417959     221.649999975564      50.000000000000
      5925    1      107.297660785225     226.764999973570      50.000000000000
      5926    1      110.250807417959     225.059999966945      50.000000000000
      5927    1      107.297660785225     230.174999975886      50.000000000000
      5928    1      110.250807417959     228.469999969261      50.000000000000
      5929    1      113.203954039759     219.944999968939      50.000000000000
      5930    1      116.157100672492     218.239999973248      50.000000000000
      5931    1      113.203954039759     223.354999971254      50.000000000000
      5932    1      116.157100672492     221.649999975564      50.000000000000
      5933    1      113.203954039759     226.764999973570      50.000000000000
      5934    1      116.157100672492     225.059999966945      50.000000000000
      5935    1      113.203954039759     230.174999975886      50.000000000000
      5936    1      116.157100672492     228.469999969261      50.000000000000
      5937    2      106.313278581603     218.239999973248      50.000000000000
      5938    2      109.266425203403     219.944999968939      50.000000000000
      5939    2      106.313278581603     221.649999975564      50.000000000000
      5940    2      109.266425203403     223.354999971254      50.000000000000
      5941    2      106.313278581603     225.059999966945      50.000000000000
      5942    2      109.266425203403     226.764999973570      50.000000000000
      5943    2      106.313278581603     228.469999969261      50.000000000000
      5944    2      109.266425203403     230.174999975886      50.000000000000
      5945    2      112.219571836137     218.239999973248      50.000000000000
      5946    2      115.172718457937     219.944999968939      50.000000000000
      5947    2      112.219571836137     221.649999975564      50.000000000000
      5948    2      115.172718457937     223.354999971254      50.000000000000
      5949    2      112.219571836137     225.059999966945      50.000000000000
      5950    2      115.172718457937     226.764999973570      50.000000000000
      5951    2      112.219571836137     228.469999969261      50.000000000000
      5952    2      115.172718457937     230.174999975886      50.000000000000
      5953    1      119.110247294292     219.944999968939      50.000000000000
      5954    1      122.063393927026     218.239999973248      50.000000000000
      5955    1      119.110247294292     223.354999971254      50.000000000000
      5956    1      122.063393927026     221.649999975564      50.000000000000
      5957    1      119.110247294292     226.764999973570      50.000000000000
      5958    1      122.063393927026     225.059999966945      50.000000000000
      5959    1      119.110247294292     230.174999975886      50.000000000000
      5960    1      122.063393927026     228.469999969261      50.000000000000
      5961    1      125.016540548826     219.944999968939      50.000000000000
      5962    1      127.969687181559     218.239999973248      50.000000000000
      5963    1      125.016540548826     223.354999971254      50.000000000000
      5964    1      127.969687181559     221.649999975564      50.000000000000
      5965    1      125.016540548826     226.764999973570      50.000000000000
      5966    1      127.969687181559     225.059999966945      50.000000000000
      5967    1      125.016540548826     230.174999975886      50.000000000000
      5968    1      127.969687181559     228.469999969261      50.000000000000
      5969    2      118.125865090670     218.239999973248      50.000000000000
      5970    2      121.079011712470     219.944999968939      50.000000000000
      5971    2      118.125865090670     221.649999975564      50.000000000000
      5972    2      121.079011712470     223.354999971254      50.000000000000
      5973    2      118.125865090670     225.059999966945      50.000000000000
      5974    2      121.079011712470     226.764999973570      50.000000000000
      5975    2      118.125865090670     228.469999969261      50.000000000000
      5976    2      121.079011712470     230.174999975886      50.000000000000
      5977    2      124.032158345204     218.239999973248      50.000000000000
      5978    2      126.985304967004     219.944999968939      50.000000000000
      5979    2      124.032158345204     221.649999975564      50.000000000000
      5980    2      126.985304967004     223.354999971254      50.000000000000
      5981    2      124.032158345204     225.059999966945      50.000000000000
      5982    2      126.985304967004     226.764999973570      50.000000000000
      5983    2      124.032158345204     228.469999969261      50.000000000000
      5984    2      126.985304967004     230.174999975886      50.000000000000
      5985    1        0.984382203622     233.584999967267      50.000000000000
      5986    1        3.937528836356     231.879999971576      50.000000000000
      5987    1        0.984382203622     236.994999969582      50.000000000000
      5988    1        3.937528836356     235.289999973892      50.000000000000
      5989    1        0.984382203622     240.404999971898      50.000000000000
      5990    1        3.937528836356     238.699999965273      50.000000000000
      5991    1        0.984382203622     243.814999974214      50.000000000000
      5992    1        3.937528836356     242.109999967589      50.000000000000
      5993    1        6.890675458156     233.584999967267      50.000000000000
      5994    1        9.843822090889     231.879999971576      50.000000000000
      5995    1        6.890675458156     236.994999969582      50.000000000000
      5996    1        9.843822090889     235.289999973892      50.000000000000
      5997    1        6.890675458156     240.404999971898      50.000000000000
      5998    1        9.843822090889     238.699999965273      50.000000000000
      5999    1        6.890675458156     243.814999974214      50.000000000000
      6000    1        9.843822090889     242.109999967589      50.000000000000
      6001    2        0.000000000000     231.879999971576      50.000000000000
      6002    2        2.953146621800     233.584999967267      50.000000000000
      6003    2        0.000000000000     235.289999973892      50.000000000000
      6004    2        2.953146621800     236.994999969582      50.000000000000
      6005    2        0.000000000000     238.699999965273      50.000000000000
      6006    2        2.953146621800     240.404999971898      50.000000000000
      6007    2        0.000000000000     242.109999967589      50.000000000000
      6008    2        2.953146621800     243.814999974214      50.000000000000
      6009    2        5.906293254534     231.879999971576      50.000000000000
      6010    2        8.859439876334     233.584999967267      50.000000000000
      6011    2        5.906293254534     235.289999973892      50.000000000000
      6012    2        8.859439876334     236.994999969582      50.000000000000
      6013    2        5.906293254534     238.699999965273      50.000000000000
      6014    2        8.859439876334     240.404999971898      50.000000000000
      6015    2        5.906293254534     242.109999967589      50.000000000000
      6016    2        8.859439876334     243.814999974214      50.000000000000
      6017    1       12.796968712689     233.584999967267      50.000000000000
      6018    1       15.750115345423     231.879999971576      50.000000000000
      6019    1       12.796968712689     236.994999969582      50.000000000000
      6020    1       15.750115345423     235.289999973892      50.000000000000
      6021    1       12.796968712689     240.404999971898      50.000000000000
      6022    1       15.750115345423     238.699999965273      50.000000000000
      6023    1       12.796968712689     243.814999974214      50.000000000000
      6024    1       15.750115345423     242.109999967589      50.000000000000
      6025    1       18.703261967223     233.584999967267      50.000000000000
      6026    1       21.656408599956     231.879999971576      50.000000000000
      6027    1       18.703261967223     236.994999969582      50.000000000000
      6028    1       21.656408599956     235.289999973892      50.000000000000
      6029    1       18.703261967223     240.404999971898      50.000000000000
      6030    1       21.656408599956     238.699999965273      50.000000000000
      6031    1       18.703261967223     243.814999974214      50.000000000000
      6032    1       21.656408599956     242.109999967589      50.000000000000
      6033    2       11.812586509067     231.879999971576      50.000000000000
      6034    2       14.765733130867     233.584999967267      50.000000000000
      6035    2       11.812586509067     235.289999973892      50.000000000000
      6036    2       14.765733130867     236.994999969582      50.000000000000
      6037    2       11.812586509067     238.699999965273      50.000000000000
      6038    2       14.765733130867     240.404999971898      50.000000000000
      6039    2       11.812586509067     242.109999967589      50.000000000000
      6040    2       14.765733130867     243.814999974214      50.000000000000
      6041    2       17.718879763601     231.879999971576      50.000000000000
      6042    2       20.672026385401     233.584999967267      50.000000000000
      6043    2       17.718879763601     235.289999973892      50.000000000000
      6044    2       20.672026385401     236.994999969582      50.000000000000
      6045    2       17.718879763601     238.699999965273      50.000000000000
      6046    2       20.672026385401     240.404999971898      50.000000000000
      6047    2       17.718879763601     242.109999967589      50.000000000000
      6048    2       20.672026385401     243.814999974214      50.000000000000
      6049    1       24.609555221756     233.584999967267      50.000000000000
      6050    1       27.562701854490     231.879999971576      50.000000000000
      6051    1       24.609555221756     236.994999969582      50.000000000000
      6052    1       27.562701854490     235.289999973892      50.000000000000
      6053    1       24.609555221756     240.404999971898      50.000000000000
      6054    1       27.562701854490     238.699999965273      50.000000000000
      6055    1       24.609555221756     243.814999974214      50.000000000000
      6056    1       27.562701854490     242.109999967589      50.000000000000
      6057    1       30.515848476290     233.584999967267      50.000000000000
      6058    1       33.468995109023     231.879999971576      50.000000000000
      6059    1       30.515848476290     236.994999969582      50.000000000000
      6060    1       33.468995109023     235.289999973892      50.000000000000
      6061    1       30.515848476290     240.404999971898      50.000000000000
      6062    1       33.468995109023     238.699999965273      50.000000000000
      6063    1       30.515848476290     243.814999974214      50.000000000000
      6064    1       33.468995109023     242.109999967589      50.000000000000
      6065    2       23.625173018134     231.879999971576      50.000000000000
      6066    2       26.578319639934     233.584999967267      50.000000000000
      6067    2       23.625173018134     235.289999973892      50.000000000000
      6068    2       26.578319639934     236.994999969582      50.000000000000
      6069    2       23.625173018134     238.699999965273      50.000000000000
      6070    2       26.578319639934     240.404999971898      50.000000000000
      6071    2       23.625173018134     242.109999967589      50.000000000000
      6072    2       26.578319639934     243.814999974214      50.000000000000
      6073    2       29.531466272668     231.879999971576      50.000000000000
      6074    2       32.484612894468     233.584999967267      50.000000000000
      6075    2       29.531466272668     235.289999973892      50.000000000000
      6076    2       32.484612894468     236.994999969582      50.000000000000
      6077    2       29.531466272668     238.699999965273      50.000000000000
      6078    2       32.484612894468     240.404999971898      50.000000000000
      6079    2       29.531466272668     242.109999967589      50.000000000000
      6080    2       32.484612894468     243.814999974214      50.000000000000
      6081    1       36.422141730823     233.584999967267      50.000000000000
      6082    1       39.375288363557     231.879999971576      50.000000000000
      6083    1       36.422141730823     236.994999969582      50.000000000000
      6084    1       39.375288363557     235.289999973892      50.000000000000
      6085    1       36.422141730823     240.404999971898      50.000000000000
      6086    1       39.375288363557     238.699999965273      50.000000000000
      6087    1       36.422141730823     243.814999974214      50.000000000000
      6088    1       39.375288363557     242.109999967589      50.000000000000
      6089    1       42.328434985357     233.584999967267      50.000000000000
      6090    1       45.281581618090     231.879999971576      50.000000000000
      6091    1       42.328434985357     236.994999969582      50.000000000000
      6092    1       45.281581618090     235.289999973892      50.000000000000
      6093    1       42.328434985357     240.404999971898      50.000000000000
      6094    1       45.281581618090     238.699999965273      50.000000000000
      6095    1       42.328434985357     243.814999974214      50.000000000000
      6096    1       45.281581618090     242.109999967589      50.000000000000
      6097    2       35.437759527201     231.879999971576      50.000000000000
      6098    2       38.390906149001     233.584999967267      50.000000000000
      6099    2       35.437759527201     235.289999973892      50.000000000000
      6100    2       38.390906149001     236.994999969582      50.000000000000
      6101    2       35.437759527201     238.699999965273      50.000000000000
      6102    2       38.390906149001     240.404999971898      50.000000000000
      6103    2       35.437759527201     242.109999967589      50.000000000000
      6104    2       38.390906149001     243.814999974214      50.000000000000
      6105    2       41.344052781735     231.879999971576      50.000000000000
      6106    2       44.297199403535     233.584999967267      50.000000000000
      6107    2       41.344052781735     235.289999973892      50.000000000000
      6108    2       44.297199403535     236.994999969582      50.000000000000
      6109    2       41.344052781735     238.699999965273      50.000000000000
      6110    2       44.297199403535     240.404999971898      50.000000000000
      6111    2       41.344052781735     242.109999967589      50.000000000000
      6112    2       44.297199403535     243.814999974214      50.000000000000
      6113    1       48.234728239890     233.584999967267      50.000000000000
      6114    1       51.187874872624     231.879999971576      50.000000000000
      6115    1       48.234728239890     236.994999969582      50.000000000000
      6116    1       51.187874872624     235.289999973892      50.000000000000
      6117    1       48.234728239890     240.404999971898      50.000000000000
      6118    1       51.187874872624     238.699999965273      50.000000000000
      6119    1       48.234728239890     243.814999974214      50.000000000000
      6120    1       51.187874872624     242.109999967589      50.000000000000
      6121    1       54.141021494424     233.584999967267      50.000000000000
      6122    1       57.094168127157     231.879999971576      50.000000000000
      6123    1       54.141021494424     236.994999969582      50.000000000000
      6124    1       57.094168127157     235.289999973892      50.000000000000
      6125    1       54.141021494424     240.404999971898      50.000000000000
      6126    1       57.094168127157     238.699999965273      50.000000000000
      6127    1       54.141021494424     243.814999974214      50.000000000000
      6128    1       57.094168127157     242.109999967589      50.000000000000
      6129    2       47.250346036268     231.879999971576      50.000000000000
      6130    2       50.203492658068     233.584999967267      50.000000000000
      6131    2       47.250346036268     235.289999973892      50.000000000000
      6132    2       50.203492658068     236.994999969582      50.000000000000
      6133    2       47.250346036268     238.699999965273      50.000000000000
      6134    2       50.203492658068     240.404999971898      50.000000000000
      6135    2       47.250346036268     242.109999967589      50.000000000000
      6136    2       50.203492658068     243.814999974214      50.000000000000
      6137    2       53.156639290802     231.879999971576      50.000000000000
      6138    2       56.109785912602     233.584999967267      50.000000000000
      6139    2       53.156639290802     235.289999973892      50.000000000000
      6140    2       56.109785912602     236.994999969582      50.000000000000
      6141    2       53.156639290802     238.699999965273      50.000000000000
      6142    2       56.109785912602     240.404999971898      50.000000000000
      6143    2       53.156639290802     242.109999967589      50.000000000000
      6144    2       56.109785912602     243.814999974214      50.000000000000
      6145    1       60.047314748957     233.584999967267      50.000000000000
      6146    1       63.000461381691     231.879999971576      50.000000000000
      6147    1       60.047314748957     236.994999969582      50.000000000000
      6148    1       63.000461381691     235.289999973892      50.000000000000
      6149    1       60.047314748957     240.404999971898      50.000000000000
      6150    1       63.000461381691     238.699999965273      50.000000000000
      6151    1       60.047314748957     243.814999974214      50.000000000000
      6152    1       63.000461381691     242.109999967589      50.000000000000
      6153    1       65.953608003491     233.584999967267      50.000000000000
      6154    1       68.906754636224     231.879999971576      50.000000000000
      6155    1       65.953608003491     236.994999969582      50.000000000000
      6156    1       68.906754636224     235.289999973892      50.000000000000
      6157    1       65.953608003491     240.404999971898      50.000000000000
      6158    1       68.906754636224     238.699999965273      50.000000000000
      6159    1       65.953608003491     243.814999974214      50.000000000000
      6160    1       68.906754636224     242.109999967589      50.000000000000
      6161    2       59.062932545335     231.879999971576      50.000000000000
      6162    2       62.016079167135     233.584999967267      50.000000000000
      6163    2       59.062932545335     235.289999973892      50.000000000000
      6164    2       62.016079167135     236.994999969582      50.000000000000
      6165    2       59.062932545335     238.699999965273      50.000000000000
      6166    2       62.016079167135     240.404999971898      50.000000000000
      6167    2       59.062932545335     242.109999967589      50.000000000000
      6168    2       62.016079167135     243.814999974214      50.000000000000
      6169    2       64.969225799869     231.879999971576      50.000000000000
      6170    2       67.922372421669     233.584999967267      50.000000000000
      6171    2       64.969225799869     235.289999973892      50.000000000000
      6172    2       67.922372421669     236.994999969582      50.000000000000
      6173    2       64.969225799869     238.699999965273      50.000000000000
      6174    2       67.922372421669     240.404999971898      50.000000000000
      6175    2       64.969225799869     242.109999967589      50.000000000000
      6176    2       67.922372421669     243.814999974214      50.000000000000
      6177    1       71.859901258024     233.584999967267      50.000000000000
      6178    1       74.813047890758     231.879999971576      50.000000000000
      6179    1       71.859901258024     236.994999969582      50.000000000000
      6180    1       74.813047890758     235.289999973892      50.000000000000
      6181    1       71.859901258024     240.404999971898      50.000000000000
      6182    1       74.813047890758     238.699999965273      50.000000000000
      6183    1       71.859901258024     243.814999974214      50.000000000000
      6184    1       74.813047890758     242.109999967589      50.000000000000
      6185    1       77.766194512558     233.584999967267      50.000000000000
      6186    1       80.719341145291     231.879999971576      50.000000000000
      6187    1       77.766194512558     236.994999969582      50.000000000000
      6188    1       80.719341145291     235.289999973892      50.000000000000
      6189    1       77.766194512558     240.404999971898      50.000000000000
      6190    1       80.719341145291     238.699999965273      50.000000000000
      6191    1       77.766194512558     243.814999974214      50.000000000000
      6192    1       80.719341145291     242.109999967589      50.000000000000
      6193    2       70.875519054402     231.879999971576      50.000000000000
      6194    2       73.828665676202     233.584999967267      50.000000000000
      6195    2       70.875519054402     235.289999973892      50.000000000000
      6196    2       73.828665676202     236.994999969582      50.000000000000
      6197    2       70.875519054402     238.699999965273      50.000000000000
      6198    2       73.828665676202     240.404999971898      50.000000000000
      6199    2       70.875519054402     242.109999967589      50.000000000000
      6200    2       73.828665676202     243.814999974214      50.000000000000
      6201    2       76.781812308936     231.879999971576      50.000000000000
      6202    2       79.734958930736     233.584999967267      50.000000000000
      6203    2       76.781812308936     235.289999973892      50.000000000000
      6204    2       79.734958930736     236.994999969582      50.000000000000
      6205    2       76.781812308936     238.699999965273      50.000000000000
      6206    2       79.734958930736     240.404999971898      50.000000000000
      6207    2       76.781812308936     242.109999967589      50.000000000000
      6208    2       79.734958930736     243.814999974214      50.000000000000
      6209    1       83.672487767091     233.584999967267      50.000000000000
      6210    1       86.625634399825     231.879999971576      50.000000000000
      6211    1       83.672487767091     236.994999969582      50.000000000000
      6212    1       86.625634399825     235.289999973892      50.000000000000
      6213    1       83.672487767091     240.404999971898      50.000000000000
      6214    1       86.625634399825     238.699999965273      50.000000000000
      6215    1       83.672487767091     243.814999974214      50.000000000000
      6216    1       86.625634399825     242.109999967589      50.000000000000
      6217    1       89.578781021625     233.584999967267      50.000000000000
      6218    1       92.531927654358     231.879999971576      50.000000000000
      6219    1       89.578781021625     236.994999969582      50.000000000000
      6220    1       92.531927654358     235.289999973892      50.000000000000
      6221    1       89.578781021625     240.404999971898      50.000000000000
      6222    1       92.531927654358     238.699999965273      50.000000000000
      6223    1       89.578781021625     243.814999974214      50.000000000000
      6224    1       92.531927654358     242.109999967589      50.000000000000
      6225    2       82.688105563469     231.879999971576      50.000000000000
      6226    2       85.641252185269     233.584999967267      50.000000000000
      6227    2       82.688105563469     235.289999973892      50.000000000000
      6228    2       85.641252185269     236.994999969582      50.000000000000
      6229    2       82.688105563469     238.699999965273      50.000000000000
      6230    2       85.641252185269     240.404999971898      50.000000000000
      6231    2       82.688105563469     242.109999967589      50.000000000000
      6232    2       85.641252185269     243.814999974214      50.000000000000
      6233    2       88.594398818003     231.879999971576      50.000000000000
      6234    2       91.547545439803     233.584999967267      50.000000000000
      6235    2       88.594398818003     235.289999973892      50.000000000000
      6236    2       91.547545439803     236.994999969582      50.000000000000
      6237    2       88.594398818003     238.699999965273      50.000000000000
      6238    2       91.547545439803     240.404999971898      50.000000000000
      6239    2       88.594398818003     242.109999967589      50.000000000000
      6240    2       91.547545439803     243.814999974214      50.000000000000
      6241    1       95.485074276158     233.584999967267      50.000000000000
      6242    1       98.438220908892     231.879999971576      50.000000000000
      6243    1       95.485074276158     236.994999969582      50.000000000000
      6244    1       98.438220908892     235.289999973892      50.000000000000
      6245    1       95.485074276158     240.404999971898      50.000000000000
      6246    1       98.438220908892     238.699999965273      50.000000000000
      6247    1       95.485074276158     243.814999974214      50.000000000000
      6248    1       98.438220908892     242.109999967589      50.000000000000
      6249    1      101.391367530692     233.584999967267      50.000000000000
      6250    1      104.344514163425     231.879999971576      50.000000000000
      6251    1      101.391367530692     236.994999969582      50.000000000000
      6252    1      104.344514163425     235.289999973892      50.000000000000
      6253    1      101.391367530692     240.404999971898      50.000000000000
      6254    1      104.344514163425     238.699999965273      50.000000000000
      6255    1      101.391367530692     243.814999974214      50.000000000000
      6256    1      104.344514163425     242.109999967589      50.000000000000
      6257    2       94.500692072536     231.879999971576      50.000000000000
      6258    2       97.453838694336     233.584999967267      50.000000000000
      6259    2       94.500692072536     235.289999973892      50.000000000000
      6260    2       97.453838694336     236.994999969582      50.000000000000
      6261    2       94.500692072536     238.699999965273      50.000000000000
      6262    2       97.453838694336     240.404999971898      50.000000000000
      6263    2       94.500692072536     242.109999967589      50.000000000000
      6264    2       97.453838694336     243.814999974214      50.000000000000
      6265    2      100.406985327070     231.879999971576      50.000000000000
      6266    2      103.360131948870     233.584999967267      50.000000000000
      6267    2      100.406985327070     235.289999973892      50.000000000000
      6268    2      103.360131948870     236.994999969582      50.000000000000
      6269    2      100.406985327070     238.699999965273      50.000000000000
      6270    2      103.360131948870     240.404999971898      50.000000000000
      6271    2      100.406985327070     242.109999967589      50.000000000000
      6272    2      103.360131948870     243.814999974214      50.000000000000
      6273    1      107.297660785225     233.584999967267      50.000000000000
      6274    1      110.250807417959     231.879999971576      50.000000000000
      6275    1      107.297660785225     236.994999969582      50.000000000000
      6276    1      110.250807417959     235.289999973892      50.000000000000
      6277    1      107.297660785225     240.404999971898      50.000000000000
      6278    1      110.250807417959     238.699999965273      50.000000000000
      6279    1      107.297660785225     243.814999974214      50.000000000000
      6280    1      110.250807417959     242.109999967589      50.000000000000
      6281    1      113.203954039759     233.584999967267      50.000000000000
      6282    1      116.157100672492     231.879999971576      50.000000000000
      6283    1      113.203954039759     236.994999969582      50.000000000000
      6284    1      116.157100672492     235.289999973892      50.000000000000
      6285    1      113.203954039759     240.404999971898      50.000000000000
      6286    1      116.157100672492     238.699999965273      50.000000000000
      6287    1      113.203954039759     243.814999974214      50.000000000000
      6288    1      116.157100672492     242.109999967589      50.000000000000
      6289    2      106.313278581603     231.879999971576      50.000000000000
      6290    2      109.266425203403     233.584999967267      50.000000000000
      6291    2      106.313278581603     235.289999973892      50.000000000000
      6292    2      109.266425203403     236.994999969582      50.000000000000
      6293    2      106.313278581603     238.699999965273      50.000000000000
      6294    2      109.266425203403     240.404999971898      50.000000000000
      6295    2      106.313278581603     242.109999967589      50.000000000000
      6296    2      109.266425203403     243.814999974214      50.000000000000
      6297    2      112.219571836137     231.879999971576      50.000000000000
      6298    2      115.172718457937     233.584999967267      50.000000000000
      6299    2      112.219571836137     235.289999973892      50.000000000000
      6300    2      115.172718457937     236.994999969582      50.000000000000
      6301    2      112.219571836137     238.699999965273      50.000000000000
      6302    2      115.172718457937     240.404999971898      50.000000000000
      6303    2      112.219571836137     242.109999967589      50.000000000000
      6304    2      115.172718457937     243.814999974214      50.000000000000
      6305    1      119.110247294292     233.584999967267      50.000000000000
      6306    1      122.063393927026     231.879999971576      50.000000000000
      6307    1      119.110247294292     236.994999969582      50.000000000000
      6308    1      122.063393927026     235.289999973892      50.000000000000
      6309    1      119.110247294292     240.404999971898      50.000000000000
      6310    1      122.063393927026     238.699999965273      50.000000000000
      6311    1      119.110247294292     243.814999974214      50.000000000000
      6312    1      122.063393927026     242.109999967589      50.000000000000
      6313    1      125.016540548826     233.584999967267      50.000000000000
      6314    1      127.969687181559     231.879999971576      50.000000000000
      6315    1      125.016540548826     236.994999969582      50.000000000000
      6316    1      127.969687181559     235.289999973892      50.000000000000
      6317    1      125.016540548826     240.404999971898      50.000000000000
      6318    1      127.969687181559     238.699999965273      50.000000000000
      6319    1      125.016540548826     243.814999974214      50.000000000000
      6320    1      127.969687181559     242.109999967589      50.000000000000
      6321    2      118.125865090670     231.879999971576      50.000000000000
      6322    2      121.079011712470     233.584999967267      50.000000000000
      6323    2      118.125865090670     235.289999973892      50.000000000000
      6324    2      121.079011712470     236.994999969582      50.000000000000
      6325    2      118.125865090670     238.699999965273      50.000000000000
      6326    2      121.079011712470     240.404999971898      50.000000000000
      6327    2      118.125865090670     242.109999967589      50.000000000000
      6328    2      121.079011712470     243.814999974214      50.000000000000
      6329    2      124.032158345204     231.879999971576      50.000000000000
      6330    2      126.985304967004     233.584999967267      50.000000000000
      6331    2      124.032158345204     235.289999973892      50.000000000000
      6332    2      126.985304967004     236.994999969582      50.000000000000
      6333    2      124.032158345204     238.699999965273      50.000000000000
      6334    2      126.985304967004     240.404999971898      50.000000000000
      6335    2      124.032158345204     242.109999967589      50.000000000000
      6336    2      126.985304967004     243.814999974214      50.000000000000
      6337    1        0.984382203622     247.224999965595      50.000000000000
      6338    1        3.937528836356     245.519999969904      50.000000000000
      6339    1        0.984382203622     250.634999967910      50.000000000000
      6340    1        3.937528836356     248.929999972220      50.000000000000
      6341    1        0.984382203622     254.044999970226      50.000000000000
      6342    1        3.937528836356     252.339999963601      50.000000000000
      6343    1        0.984382203622     257.454999972542      50.000000000000
      6344    1        3.937528836356     255.749999965917      50.000000000000
      6345    1        6.890675458156     247.224999965595      50.000000000000
      6346    1        9.843822090889     245.519999969904      50.000000000000
      6347    1        6.890675458156     250.634999967910      50.000000000000
      6348    1        9.843822090889     248.929999972220      50.000000000000
      6349    1        6.890675458156     254.044999970226      50.000000000000
      6350    1        9.843822090889     252.339999963601      50.000000000000
      6351    1        6.890675458156     257.454999972542      50.000000000000
      6352    1        9.843822090889     255.749999965917      50.000000000000
      6353    2        0.000000000000     245.519999969904      50.000000000000
      6354    2        2.953146621800     247.224999965595      50.000000000000
      6355    2        0.000000000000     248.929999972220      50.000000000000
      6356    2        2.953146621800     250.634999967910      50.000000000000
      6357    2        0.000000000000     252.339999963601      50.000000000000
      6358    2        2.953146621800     254.044999970226      50.000000000000
      6359    2        0.000000000000     255.749999965917      50.000000000000
      6360    2        2.953146621800     257.454999972542      50.000000000000
      6361    2        5.906293254534     245.519999969904      50.000000000000
      6362    2        8.859439876334     247.224999965595      50.000000000000
      6363    2        5.906293254534     248.929999972220      50.000000000000
      6364    2        8.859439876334     250.634999967910      50.000000000000
      6365    2        5.906293254534     252.339999963601      50.000000000000
      6366    2        8.859439876334     254.044999970226      50.000000000000
      6367    2        5.906293254534     255.749999965917      50.000000000000
      6368    2        8.859439876334     257.454999972542      50.000000000000
      6369    1       12.796968712689     247.224999965595      50.000000000000
      6370    1       15.750115345423     245.519999969904      50.000000000000
      6371    1       12.796968712689     250.634999967910      50.000000000000
      6372    1       15.750115345423     248.929999972220      50.000000000000
      6373    1       12.796968712689     254.044999970226      50.000000000000
      6374    1       15.750115345423     252.339999963601      50.000000000000
      6375    1       12.796968712689     257.454999972542      50.000000000000
      6376    1       15.750115345423     255.749999965917      50.000000000000
      6377    1       18.703261967223     247.224999965595      50.000000000000
      6378    1       21.656408599956     245.519999969904      50.000000000000
      6379    1       18.703261967223     250.634999967910      50.000000000000
      6380    1       21.656408599956     248.929999972220      50.000000000000
      6381    1       18.703261967223     254.044999970226      50.000000000000
      6382    1       21.656408599956     252.339999963601      50.000000000000
      6383    1       18.703261967223     257.454999972542      50.000000000000
      6384    1       21.656408599956     255.749999965917      50.000000000000
      6385    2       11.812586509067     245.519999969904      50.000000000000
      6386    2       14.765733130867     247.224999965595      50.000000000000
      6387    2       11.812586509067     248.929999972220      50.000000000000
      6388    2       14.765733130867     250.634999967910      50.000000000000
      6389    2       11.812586509067     252.339999963601      50.000000000000
      6390    2       14.765733130867     254.044999970226      50.000000000000
      6391    2       11.812586509067     255.749999965917      50.000000000000
      6392    2       14.765733130867     257.454999972542      50.000000000000
      6393    2       17.718879763601     245.519999969904      50.000000000000
      6394    2       20.672026385401     247.224999965595      50.000000000000
      6395    2       17.718879763601     248.929999972220      50.000000000000
      6396    2       20.672026385401     250.634999967910      50.000000000000
      6397    2       17.718879763601     252.339999963601      50.000000000000
      6398    2       20.672026385401     254.044999970226      50.000000000000
      6399    2       17.718879763601     255.749999965917      50.000000000000
      6400    2       20.672026385401     257.454999972542      50.000000000000
      6401    1       24.609555221756     247.224999965595      50.000000000000
      6402    1       27.562701854490     245.519999969904      50.000000000000
      6403    1       24.609555221756     250.634999967910      50.000000000000
      6404    1       27.562701854490     248.929999972220      50.000000000000
      6405    1       24.609555221756     254.044999970226      50.000000000000
      6406    1       27.562701854490     252.339999963601      50.000000000000
      6407    1       24.609555221756     257.454999972542      50.000000000000
      6408    1       27.562701854490     255.749999965917      50.000000000000
      6409    1       30.515848476290     247.224999965595      50.000000000000
      6410    1       33.468995109023     245.519999969904      50.000000000000
      6411    1       30.515848476290     250.634999967910      50.000000000000
      6412    1       33.468995109023     248.929999972220      50.000000000000
      6413    1       30.515848476290     254.044999970226      50.000000000000
      6414    1       33.468995109023     252.339999963601      50.000000000000
      6415    1       30.515848476290     257.454999972542      50.000000000000
      6416    1       33.468995109023     255.749999965917      50.000000000000
      6417    2       23.625173018134     245.519999969904      50.000000000000
      6418    2       26.578319639934     247.224999965595      50.000000000000
      6419    2       23.625173018134     248.929999972220      50.000000000000
      6420    2       26.578319639934     250.634999967910      50.000000000000
      6421    2       23.625173018134     252.339999963601      50.000000000000
      6422    2       26.578319639934     254.044999970226      50.000000000000
      6423    2       23.625173018134     255.749999965917      50.000000000000
      6424    2       26.578319639934     257.454999972542      50.000000000000
      6425    2       29.531466272668     245.519999969904      50.000000000000
      6426    2       32.484612894468     247.224999965595      50.000000000000
      6427    2       29.531466272668     248.929999972220      50.000000000000
      6428    2       32.484612894468     250.634999967910      50.000000000000
      6429    2       29.531466272668     252.339999963601      50.000000000000
      6430    2       32.484612894468     254.044999970226      50.000000000000
      6431    2       29.531466272668     255.749999965917      50.000000000000
      6432    2       32.484612894468     257.454999972542      50.000000000000
      6433    1       36.422141730823     247.224999965595      50.000000000000
      6434    1       39.375288363557     245.519999969904      50.000000000000
      6435    1       36.422141730823     250.634999967910      50.000000000000
      6436    1       39.375288363557     248.929999972220      50.000000000000
      6437    1       36.422141730823     254.044999970226      50.000000000000
      6438    1       39.375288363557     252.339999963601      50.000000000000
      6439    1       36.422141730823     257.454999972542      50.000000000000
      6440    1       39.375288363557     255.749999965917      50.000000000000
      6441    1       42.328434985357     247.224999965595      50.000000000000
      6442    1       45.281581618090     245.519999969904      50.000000000000
      6443    1       42.328434985357     250.634999967910      50.000000000000
      6444    1       45.281581618090     248.929999972220      50.000000000000
      6445    1       42.328434985357     254.044999970226      50.000000000000
      6446    1       45.281581618090     252.339999963601      50.000000000000
      6447    1       42.328434985357     257.454999972542      50.000000000000
      6448    1       45.281581618090     255.749999965917      50.000000000000
      6449    2       35.437759527201     245.519999969904      50.000000000000
      6450    2       38.390906149001     247.224999965595      50.000000000000
      6451    2       35.437759527201     248.929999972220      50.000000000000
      6452    2       38.390906149001     250.634999967910      50.000000000000
      6453    2       35.437759527201     252.339999963601      50.000000000000
      6454    2       38.390906149001     254.044999970226      50.000000000000
      6455    2       35.437759527201     255.749999965917      50.000000000000
      6456    2       38.390906149001     257.454999972542      50.000000000000
      6457    2       41.344052781735     245.519999969904      50.000000000000
      6458    2       44.297199403535     247.224999965595      50.000000000000
      6459    2       41.344052781735     248.929999972220      50.000000000000
      6460    2       44.297199403535     250.634999967910      50.000000000000
      6461    2       41.344052781735     252.339999963601      50.000000000000
      6462    2       44.297199403535     254.044999970226      50.000000000000
      6463    2       41.344052781735     255.749999965917      50.000000000000
      6464    2       44.297199403535     257.454999972542      50.000000000000
      6465    1       48.234728239890     247.224999965595      50.000000000000
      6466    1       51.187874872624     245.519999969904      50.000000000000
      6467    1       48.234728239890     250.634999967910      50.000000000000
      6468    1       51.187874872624     248.929999972220      50.000000000000
      6469    1       48.234728239890     254.044999970226      50.000000000000
      6470    1       51.187874872624     252.339999963601      50.000000000000
      6471    1       48.234728239890     257.454999972542      50.000000000000
      6472    1       51.187874872624     255.749999965917      50.000000000000
      6473    1       54.141021494424     247.224999965595      50.000000000000
      6474    1       57.094168127157     245.519999969904      50.000000000000
      6475    1       54.141021494424     250.634999967910      50.000000000000
      6476    1       57.094168127157     248.929999972220      50.000000000000
      6477    1       54.141021494424     254.044999970226      50.000000000000
      6478    1       57.094168127157     252.339999963601      50.000000000000
      6479    1       54.141021494424     257.454999972542      50.000000000000
      6480    1       57.094168127157     255.749999965917      50.000000000000
      6481    2       47.250346036268     245.519999969904      50.000000000000
      6482    2       50.203492658068     247.224999965595      50.000000000000
      6483    2       47.250346036268     248.929999972220      50.000000000000
      6484    2       50.203492658068     250.634999967910      50.000000000000
      6485    2       47.250346036268     252.339999963601      50.000000000000
      6486    2       50.203492658068     254.044999970226      50.000000000000
      6487    2       47.250346036268     255.749999965917      50.000000000000
      6488    2       50.203492658068     257.454999972542      50.000000000000
      6489    2       53.156639290802     245.519999969904      50.000000000000
      6490    2       56.109785912602     247.224999965595      50.000000000000
      6491    2       53.156639290802     248.929999972220      50.000000000000
      6492    2       56.109785912602     250.634999967910      50.000000000000
      6493    2       53.156639290802     252.339999963601      50.000000000000
      6494    2       56.109785912602     254.044999970226      50.000000000000
      6495    2       53.156639290802     255.749999965917      50.000000000000
      6496    2       56.109785912602     257.454999972542      50.000000000000
      6497    1       60.047314748957     247.224999965595      50.000000000000
      6498    1       63.000461381691     245.519999969904      50.000000000000
      6499    1       60.047314748957     250.634999967910      50.000000000000
      6500    1       63.000461381691     248.929999972220      50.000000000000
      6501    1       60.047314748957     254.044999970226      50.000000000000
      6502    1       63.000461381691     252.339999963601      50.000000000000
      6503    1       60.047314748957     257.454999972542      50.000000000000
      6504    1       63.000461381691     255.749999965917      50.000000000000
      6505    1       65.953608003491     247.224999965595      50.000000000000
      6506    1       68.906754636224     245.519999969904      50.000000000000
      6507    1       65.953608003491     250.634999967910      50.000000000000
      6508    1       68.906754636224     248.929999972220      50.000000000000
      6509    1       65.953608003491     254.044999970226      50.000000000000
      6510    1       68.906754636224     252.339999963601      50.000000000000
      6511    1       65.953608003491     257.454999972542      50.000000000000
      6512    1       68.906754636224     255.749999965917      50.000000000000
      6513    2       59.062932545335     245.519999969904      50.000000000000
      6514    2       62.016079167135     247.224999965595      50.000000000000
      6515    2       59.062932545335     248.929999972220      50.000000000000
      6516    2       62.016079167135     250.634999967910      50.000000000000
      6517    2       59.062932545335     252.339999963601      50.000000000000
      6518    2       62.016079167135     254.044999970226      50.000000000000
      6519    2       59.062932545335     255.749999965917      50.000000000000
      6520    2       62.016079167135     257.454999972542      50.000000000000
      6521    2       64.969225799869     245.519999969904      50.000000000000
      6522    2       67.922372421669     247.224999965595      50.000000000000
      6523    2       64.969225799869     248.929999972220      50.000000000000
      6524    2       67.922372421669     250.634999967910      50.000000000000
      6525    2       64.969225799869     252.339999963601      50.000000000000
      6526    2       67.922372421669     254.044999970226      50.000000000000
      6527    2       64.969225799869     255.749999965917      50.000000000000
      6528    2       67.922372421669     257.454999972542      50.000000000000
      6529    1       71.859901258024     247.224999965595      50.000000000000
      6530    1       74.813047890758     245.519999969904      50.000000000000
      6531    1       71.859901258024     250.634999967910      50.000000000000
      6532    1       74.813047890758     248.929999972220      50.000000000000
      6533    1       71.859901258024     254.044999970226      50.000000000000
      6534    1       74.813047890758     252.339999963601      50.000000000000
      6535    1       71.859901258024     257.454999972542      50.000000000000
      6536    1       74.813047890758     255.749999965917      50.000000000000
      6537    1       77.766194512558     247.224999965595      50.000000000000
      6538    1       80.719341145291     245.519999969904      50.000000000000
      6539    1       77.766194512558     250.634999967910      50.000000000000
      6540    1       80.719341145291     248.929999972220      50.000000000000
      6541    1       77.766194512558     254.044999970226      50.000000000000
      6542    1       80.719341145291     252.339999963601      50.000000000000
      6543    1       77.766194512558     257.454999972542      50.000000000000
      6544    1       80.719341145291     255.749999965917      50.000000000000
      6545    2       70.875519054402     245.519999969904      50.000000000000
      6546    2       73.828665676202     247.224999965595      50.000000000000
      6547    2       70.875519054402     248.929999972220      50.000000000000
      6548    2       73.828665676202     250.634999967910      50.000000000000
      6549    2       70.875519054402     252.339999963601      50.000000000000
      6550    2       73.828665676202     254.044999970226      50.000000000000
      6551    2       70.875519054402     255.749999965917      50.000000000000
      6552    2       73.828665676202     257.454999972542      50.000000000000
      6553    2       76.781812308936     245.519999969904      50.000000000000
      6554    2       79.734958930736     247.224999965595      50.000000000000
      6555    2       76.781812308936     248.929999972220      50.000000000000
      6556    2       79.734958930736     250.634999967910      50.000000000000
      6557    2       76.781812308936     252.339999963601      50.000000000000
      6558    2       79.734958930736     254.044999970226      50.000000000000
      6559    2       76.781812308936     255.749999965917      50.000000000000
      6560    2       79.734958930736     257.454999972542      50.000000000000
      6561    1       83.672487767091     247.224999965595      50.000000000000
      6562    1       86.625634399825     245.519999969904      50.000000000000
      6563    1       83.672487767091     250.634999967910      50.000000000000
      6564    1       86.625634399825     248.929999972220      50.000000000000
      6565    1       83.672487767091     254.044999970226      50.000000000000
      6566    1       86.625634399825     252.339999963601      50.000000000000
      6567    1       83.672487767091     257.454999972542      50.000000000000
      6568    1       86.625634399825     255.749999965917      50.000000000000
      6569    1       89.578781021625     247.224999965595      50.000000000000
      6570    1       92.531927654358     245.519999969904      50.000000000000
      6571    1       89.578781021625     250.634999967910      50.000000000000
      6572    1       92.531927654358     248.929999972220      50.000000000000
      6573    1       89.578781021625     254.044999970226      50.000000000000
      6574    1       92.531927654358     252.339999963601      50.000000000000
      6575    1       89.578781021625     257.454999972542      50.000000000000
      6576    1       92.531927654358     255.749999965917      50.000000000000
      6577    2       82.688105563469     245.519999969904      50.000000000000
      6578    2       85.641252185269     247.224999965595      50.000000000000
      6579    2       82.688105563469     248.929999972220      50.000000000000
      6580    2       85.641252185269     250.634999967910      50.000000000000
      6581    2       82.688105563469     252.339999963601      50.000000000000
      6582    2       85.641252185269     254.044999970226      50.000000000000
      6583    2       82.688105563469     255.749999965917      50.000000000000
      6584    2       85.641252185269     257.454999972542      50.000000000000
      6585    2       88.594398818003     245.519999969904      50.000000000000
      6586    2       91.547545439803     247.224999965595      50.000000000000
      6587    2       88.594398818003     248.929999972220      50.000000000000
      6588    2       91.547545439803     250.634999967910      50.000000000000
      6589    2       88.594398818003     252.339999963601      50.000000000000
      6590    2       91.547545439803     254.044999970226      50.000000000000
      6591    2       88.594398818003     255.749999965917      50.000000000000
      6592    2       91.547545439803     257.454999972542      50.000000000000
      6593    1       95.485074276158     247.224999965595      50.000000000000
      6594    1       98.438220908892     245.519999969904      50.000000000000
      6595    1       95.485074276158     250.634999967910      50.000000000000
      6596    1       98.438220908892     248.929999972220      50.000000000000
      6597    1       95.485074276158     254.044999970226      50.000000000000
      6598    1       98.438220908892     252.339999963601      50.000000000000
      6599    1       95.485074276158     257.454999972542      50.000000000000
      6600    1       98.438220908892     255.749999965917      50.000000000000
      6601    1      101.391367530692     247.224999965595      50.000000000000
      6602    1      104.344514163425     245.519999969904      50.000000000000
      6603    1      101.391367530692     250.634999967910      50.000000000000
      6604    1      104.344514163425     248.929999972220      50.000000000000
      6605    1      101.391367530692     254.044999970226      50.000000000000
      6606    1      104.344514163425     252.339999963601      50.000000000000
      6607    1      101.391367530692     257.454999972542      50.000000000000
      6608    1      104.344514163425     255.749999965917      50.000000000000
      6609    2       94.500692072536     245.519999969904      50.000000000000
      6610    2       97.453838694336     247.224999965595      50.000000000000
      6611    2       94.500692072536     248.929999972220      50.000000000000
      6612    2       97.453838694336     250.634999967910      50.000000000000
      6613    2       94.500692072536     252.339999963601      50.000000000000
      6614    2       97.453838694336     254.044999970226      50.000000000000
      6615    2       94.500692072536     255.749999965917      50.000000000000
      6616    2       97.453838694336     257.454999972542      50.000000000000
      6617    2      100.406985327070     245.519999969904      50.000000000000
      6618    2      103.360131948870     247.224999965595      50.000000000000
      6619    2      100.406985327070     248.929999972220      50.000000000000
      6620    2      103.360131948870     250.634999967910      50.000000000000
      6621    2      100.406985327070     252.339999963601      50.000000000000
      6622    2      103.360131948870     254.044999970226      50.000000000000
      6623    2      100.406985327070     255.749999965917      50.000000000000
      6624    2      103.360131948870     257.454999972542      50.000000000000
      6625    1      107.297660785225     247.224999965595      50.000000000000
      6626    1      110.250807417959     245.519999969904      50.000000000000
      6627    1      107.297660785225     250.634999967910      50.000000000000
      6628    1      110.250807417959     248.929999972220      50.000000000000
      6629    1      107.297660785225     254.044999970226      50.000000000000
      6630    1      110.250807417959     252.339999963601      50.000000000000
      6631    1      107.297660785225     257.454999972542      50.000000000000
      6632    1      110.250807417959     255.749999965917      50.000000000000
      6633    1      113.203954039759     247.224999965595      50.000000000000
      6634    1      116.157100672492     245.519999969904      50.000000000000
      6635    1      113.203954039759     250.634999967910      50.000000000000
      6636    1      116.157100672492     248.929999972220      50.000000000000
      6637    1      113.203954039759     254.044999970226      50.000000000000
      6638    1      116.157100672492     252.339999963601      50.000000000000
      6639    1      113.203954039759     257.454999972542      50.000000000000
      6640    1      116.157100672492     255.749999965917      50.000000000000
      6641    2      106.313278581603     245.519999969904      50.000000000000
      6642    2      109.266425203403     247.224999965595      50.000000000000
      6643    2      106.313278581603     248.929999972220      50.000000000000
      6644    2      109.266425203403     250.634999967910      50.000000000000
      6645    2      106.313278581603     252.339999963601      50.000000000000
      6646    2      109.266425203403     254.044999970226      50.000000000000
      6647    2      106.313278581603     255.749999965917      50.000000000000
      6648    2      109.266425203403     257.454999972542      50.000000000000
      6649    2      112.219571836137     245.519999969904      50.000000000000
      6650    2      115.172718457937     247.224999965595      50.000000000000
      6651    2      112.219571836137     248.929999972220      50.000000000000
      6652    2      115.172718457937     250.634999967910      50.000000000000
      6653    2      112.219571836137     252.339999963601      50.000000000000
      6654    2      115.172718457937     254.044999970226      50.000000000000
      6655    2      112.219571836137     255.749999965917      50.000000000000
      6656    2      115.172718457937     257.454999972542      50.000000000000
      6657    1      119.110247294292     247.224999965595      50.000000000000
      6658    1      122.063393927026     245.519999969904      50.000000000000
      6659    1      119.110247294292     250.634999967910      50.000000000000
      6660    1      122.063393927026     248.929999972220      50.000000000000
      6661    1      119.110247294292     254.044999970226      50.000000000000
      6662    1      122.063393927026     252.339999963601      50.000000000000
      6663    1      119.110247294292     257.454999972542      50.000000000000
      6664    1      122.063393927026     255.749999965917      50.000000000000
      6665    1      125.016540548826     247.224999965595      50.000000000000
      6666    1      127.969687181559     245.519999969904      50.000000000000
      6667    1      125.016540548826     250.634999967910      50.000000000000
      6668    1      127.969687181559     248.929999972220      50.000000000000
      6669    1      125.016540548826     254.044999970226      50.000000000000
      6670    1      127.969687181559     252.339999963601      50.000000000000
      6671    1      125.016540548826     257.454999972542      50.000000000000
      6672    1      127.969687181559     255.749999965917      50.000000000000
      6673    2      118.125865090670     245.519999969904      50.000000000000
      6674    2      121.079011712470     247.224999965595      50.000000000000
      6675    2      118.125865090670     248.929999972220      50.000000000000
      6676    2      121.079011712470     250.634999967910      50.000000000000
      6677    2      118.125865090670     252.339999963601      50.000000000000
      6678    2      121.079011712470     254.044999970226      50.000000000000
      6679    2      118.125865090670     255.749999965917      50.000000000000
      6680    2      121.079011712470     257.454999972542      50.000000000000
      6681    2      124.032158345204     245.519999969904      50.000000000000
      6682    2      126.985304967004     247.224999965595      50.000000000000
      6683    2      124.032158345204     248.929999972220      50.000000000000
      6684    2      126.985304967004     250.634999967910      50.000000000000
      6685    2      124.032158345204     252.339999963601      50.000000000000
      6686    2      126.985304967004     254.044999970226      50.000000000000
      6687    2      124.032158345204     255.749999965917      50.000000000000
      6688    2      126.985304967004     257.454999972542      50.000000000000
      6689    1        0.984382203622     260.864999963923      50.000000000000
      6690    1        3.937528836356     259.159999968232      50.000000000000
      6691    1        0.984382203622     264.274999966238      50.000000000000
      6692    1        3.937528836356     262.569999970548      50.000000000000
      6693    1        0.984382203622     267.684999968554      50.000000000000
      6694    1        3.937528836356     265.979999961929      50.000000000000
      6695    1        0.984382203622     271.094999970870      50.000000000000
      6696    1        3.937528836356     269.389999964245      50.000000000000
      6697    1        6.890675458156     260.864999963923      50.000000000000
      6698    1        9.843822090889     259.159999968232      50.000000000000
      6699    1        6.890675458156     264.274999966238      50.000000000000
      6700    1        9.843822090889     262.569999970548      50.000000000000
      6701    1        6.890675458156     267.684999968554      50.000000000000
      6702    1        9.843822090889     265.979999961929      50.000000000000
      6703    1        6.890675458156     271.094999970870      50.000000000000
      6704    1        9.843822090889     269.389999964245      50.000000000000
      6705    2        0.000000000000     259.159999968232      50.000000000000
      6706    2        2.953146621800     260.864999963923      50.000000000000
      6707    2        0.000000000000     262.569999970548      50.000000000000
      6708    2        2.953146621800     264.274999966238      50.000000000000
      6709    2        0.000000000000     265.979999961929      50.000000000000
      6710    2        2.953146621800     267.684999968554      50.000000000000
      6711    2        0.000000000000     269.389999964245      50.000000000000
      6712    2        2.953146621800     271.094999970870      50.000000000000
      6713    2        5.906293254534     259.159999968232      50.000000000000
      6714    2        8.859439876334     260.864999963923      50.000000000000
      6715    2        5.906293254534     262.569999970548      50.000000000000
      6716    2        8.859439876334     264.274999966238      50.000000000000
      6717    2        5.906293254534     265.979999961929      50.000000000000
      6718    2        8.859439876334     267.684999968554      50.000000000000
      6719    2        5.906293254534     269.389999964245      50.000000000000
      6720    2        8.859439876334     271.094999970870      50.000000000000
      6721    1       12.796968712689     260.864999963923      50.000000000000
      6722    1       15.750115345423     259.159999968232      50.000000000000
      6723    1       12.796968712689     264.274999966238      50.000000000000
      6724    1       15.750115345423     262.569999970548      50.000000000000
      6725    1       12.796968712689     267.684999968554      50.000000000000
      6726    1       15.750115345423     265.979999961929      50.000000000000
      6727    1       12.796968712689     271.094999970870      50.000000000000
      6728    1       15.750115345423     269.389999964245      50.000000000000
      6729    1       18.703261967223     260.864999963923      50.000000000000
      6730    1       21.656408599956     259.159999968232      50.000000000000
      6731    1       18.703261967223     264.274999966238      50.000000000000
      6732    1       21.656408599956     262.569999970548      50.000000000000
      6733    1       18.703261967223     267.684999968554      50.000000000000
      6734    1       21.656408599956     265.979999961929      50.000000000000
      6735    1       18.703261967223     271.094999970870      50.000000000000
      6736    1       21.656408599956     269.389999964245      50.000000000000
      6737    2       11.812586509067     259.159999968232      50.000000000000
      6738    2       14.765733130867     260.864999963923      50.000000000000
      6739    2       11.812586509067     262.569999970548      50.000000000000
      6740    2       14.765733130867     264.274999966238      50.000000000000
      6741    2       11.812586509067     265.979999961929      50.000000000000
      6742    2       14.765733130867     267.684999968554      50.000000000000
      6743    2       11.812586509067     269.389999964245      50.000000000000
      6744    2       14.765733130867     271.094999970870      50.000000000000
      6745    2       17.718879763601     259.159999968232      50.000000000000
      6746    2       20.672026385401     260.864999963923      50.000000000000
      6747    2       17.718879763601     262.569999970548      50.000000000000
      6748    2       20.672026385401     264.274999966238      50.000000000000
      6749    2       17.718879763601     265.979999961929      50.000000000000
      6750    2       20.672026385401     267.684999968554      50.000000000000
      6751    2       17.718879763601     269.389999964245      50.000000000000
      6752    2       20.672026385401     271.094999970870      50.000000000000
      6753    1       24.609555221756     260.864999963923      50.000000000000
      6754    1       27.562701854490     259.159999968232      50.000000000000
      6755    1       24.609555221756     264.274999966238      50.000000000000
      6756    1       27.562701854490     262.569999970548      50.000000000000
      6757    1       24.609555221756     267.684999968554      50.000000000000
      6758    1       27.562701854490     265.979999961929      50.000000000000
      6759    1       24.609555221756     271.094999970870      50.000000000000
      6760    1       27.562701854490     269.389999964245      50.000000000000
      6761    1       30.515848476290     260.864999963923      50.000000000000
      6762    1       33.468995109023     259.159999968232      50.000000000000
      6763    1       30.515848476290     264.274999966238      50.000000000000
      6764    1       33.468995109023     262.569999970548      50.000000000000
      6765    1       30.515848476290     267.684999968554      50.000000000000
      6766    1       33.468995109023     265.979999961929      50.000000000000
      6767    1       30.515848476290     271.094999970870      50.000000000000
      6768    1       33.468995109023     269.389999964245      50.000000000000
      6769    2       23.625173018134     259.159999968232      50.000000000000
      6770    2       26.578319639934     260.864999963923      50.000000000000
      6771    2       23.625173018134     262.569999970548      50.000000000000
      6772    2       26.578319639934     264.274999966238      50.000000000000
      6773    2       23.625173018134     265.979999961929      50.000000000000
      6774    2       26.578319639934     267.684999968554      50.000000000000
      6775    2       23.625173018134     269.389999964245      50.000000000000
      6776    2       26.578319639934     271.094999970870      50.000000000000
      6777    2       29.531466272668     259.159999968232      50.000000000000
      6778    2       32.484612894468     260.864999963923      50.000000000000
      6779    2       29.531466272668     262.569999970548      50.000000000000
      6780    2       32.484612894468     264.274999966238      50.000000000000
      6781    2       29.531466272668     265.979999961929      50.000000000000
      6782    2       32.484612894468     267.684999968554      50.000000000000
      6783    2       29.531466272668     269.389999964245      50.000000000000
      6784    2       32.484612894468     271.094999970870      50.000000000000
      6785    1       36.422141730823     260.864999963923      50.000000000000
      6786    1       39.375288363557     259.159999968232      50.000000000000
      6787    1       36.422141730823     264.274999966238      50.000000000000
      6788    1       39.375288363557     262.569999970548      50.000000000000
      6789    1       36.422141730823     267.684999968554      50.000000000000
      6790    1       39.375288363557     265.979999961929      50.000000000000
      6791    1       36.422141730823     271.094999970870      50.000000000000
      6792    1       39.375288363557     269.389999964245      50.000000000000
      6793    1       42.328434985357     260.864999963923      50.000000000000
      6794    1       45.281581618090     259.159999968232      50.000000000000
      6795    1       42.328434985357     264.274999966238      50.000000000000
      6796    1       45.281581618090     262.569999970548      50.000000000000
      6797    1       42.328434985357     267.684999968554      50.000000000000
      6798    1       45.281581618090     265.979999961929      50.000000000000
      6799    1       42.328434985357     271.094999970870      50.000000000000
      6800    1       45.281581618090     269.389999964245      50.000000000000
      6801    2       35.437759527201     259.159999968232      50.000000000000
      6802    2       38.390906149001     260.864999963923      50.000000000000
      6803    2       35.437759527201     262.569999970548      50.000000000000
      6804    2       38.390906149001     264.274999966238      50.000000000000
      6805    2       35.437759527201     265.979999961929      50.000000000000
      6806    2       38.390906149001     267.684999968554      50.000000000000
      6807    2       35.437759527201     269.389999964245      50.000000000000
      6808    2       38.390906149001     271.094999970870      50.000000000000
      6809    2       41.344052781735     259.159999968232      50.000000000000
      6810    2       44.297199403535     260.864999963923      50.000000000000
      6811    2       41.344052781735     262.569999970548      50.000000000000
      6812    2       44.297199403535     264.274999966238      50.000000000000
      6813    2       41.344052781735     265.979999961929      50.000000000000
      6814    2       44.297199403535     267.684999968554      50.000000000000
      6815    2       41.344052781735     269.389999964245      50.000000000000
      6816    2       44.297199403535     271.094999970870      50.000000000000
      6817    1       48.234728239890     260.864999963923      50.000000000000
      6818    1       51.187874872624     259.159999968232      50.000000000000
      6819    1       48.234728239890     264.274999966238      50.000000000000
      6820    1       51.187874872624     262.569999970548      50.000000000000
      6821    1       48.234728239890     267.684999968554      50.000000000000
      6822    1       51.187874872624     265.979999961929      50.000000000000
      6823    1       48.234728239890     271.094999970870      50.000000000000
      6824    1       51.187874872624     269.389999964245      50.000000000000
      6825    1       54.141021494424     260.864999963923      50.000000000000
      6826    1       57.094168127157     259.159999968232      50.000000000000
      6827    1       54.141021494424     264.274999966238      50.000000000000
      6828    1       57.094168127157     262.569999970548      50.000000000000
      6829    1       54.141021494424     267.684999968554      50.000000000000
      6830    1       57.094168127157     265.979999961929      50.000000000000
      6831    1       54.141021494424     271.094999970870      50.000000000000
      6832    1       57.094168127157     269.389999964245      50.000000000000
      6833    2       47.250346036268     259.159999968232      50.000000000000
      6834    2       50.203492658068     260.864999963923      50.000000000000
      6835    2       47.250346036268     262.569999970548      50.000000000000
      6836    2       50.203492658068     264.274999966238      50.000000000000
      6837    2       47.250346036268     265.979999961929      50.000000000000
      6838    2       50.203492658068     267.684999968554      50.000000000000
      6839    2       47.250346036268     269.389999964245      50.000000000000
      6840    2       50.203492658068     271.094999970870      50.000000000000
      6841    2       53.156639290802     259.159999968232      50.000000000000
      6842    2       56.109785912602     260.864999963923      50.000000000000
      6843    2       53.156639290802     262.569999970548      50.000000000000
      6844    2       56.109785912602     264.274999966238      50.000000000000
      6845    2       53.156639290802     265.979999961929      50.000000000000
      6846    2       56.109785912602     267.684999968554      50.000000000000
      6847    2       53.156639290802     269.389999964245      50.000000000000
      6848    2       56.109785912602     271.094999970870      50.000000000000
      6849    1       60.047314748957     260.864999963923      50.000000000000
      6850    1       63.000461381691     259.159999968232      50.000000000000
      6851    1       60.047314748957     264.274999966238      50.000000000000
      6852    1       63.000461381691     262.569999970548      50.000000000000
      6853    1       60.047314748957     267.684999968554      50.000000000000
      6854    1       63.000461381691     265.979999961929      50.000000000000
      6855    1       60.047314748957     271.094999970870      50.000000000000
      6856    1       63.000461381691     269.389999964245      50.000000000000
      6857    1       65.953608003491     260.864999963923      50.000000000000
      6858    1       68.906754636224     259.159999968232      50.000000000000
      6859    1       65.953608003491     264.274999966238      50.000000000000
      6860    1       68.906754636224     262.569999970548      50.000000000000
      6861    1       65.953608003491     267.684999968554      50.000000000000
      6862    1       68.906754636224     265.979999961929      50.000000000000
      6863    1       65.953608003491     271.094999970870      50.000000000000
      6864    1       68.906754636224     269.389999964245      50.000000000000
      6865    2       59.062932545335     259.159999968232      50.000000000000
      6866    2       62.016079167135     260.864999963923      50.000000000000
      6867    2       59.062932545335     262.569999970548      50.000000000000
      6868    2       62.016079167135     264.274999966238      50.000000000000
      6869    2       59.062932545335     265.979999961929      50.000000000000
      6870    2       62.016079167135     267.684999968554      50.000000000000
      6871    2       59.062932545335     269.389999964245      50.000000000000
      6872    2       62.016079167135     271.094999970870      50.000000000000
      6873    2       64.969225799869     259.159999968232      50.000000000000
      6874    2       67.922372421669     260.864999963923      50.000000000000
      6875    2       64.969225799869     262.569999970548      50.000000000000
      6876    2       67.922372421669     264.274999966238      50.000000000000
      6877    2       64.969225799869     265.979999961929      50.000000000000
      6878    2       67.922372421669     267.684999968554      50.000000000000
      6879    2       64.969225799869     269.389999964245      50.000000000000
      6880    2       67.922372421669     271.094999970870      50.000000000000
      6881    1       71.859901258024     260.864999963923      50.000000000000
      6882    1       74.813047890758     259.159999968232      50.000000000000
      6883    1       71.859901258024     264.274999966238      50.000000000000
      6884    1       74.813047890758     262.569999970548      50.000000000000
      6885    1       71.859901258024     267.684999968554      50.000000000000
      6886    1       74.813047890758     265.979999961929      50.000000000000
      6887    1       71.859901258024     271.094999970870      50.000000000000
      6888    1       74.813047890758     269.389999964245      50.000000000000
      6889    1       77.766194512558     260.864999963923      50.000000000000
      6890    1       80.719341145291     259.159999968232      50.000000000000
      6891    1       77.766194512558     264.274999966238      50.000000000000
      6892    1       80.719341145291     262.569999970548      50.000000000000
      6893    1       77.766194512558     267.684999968554      50.000000000000
      6894    1       80.719341145291     265.979999961929      50.000000000000
      6895    1       77.766194512558     271.094999970870      50.000000000000
      6896    1       80.719341145291     269.389999964245      50.000000000000
      6897    2       70.875519054402     259.159999968232      50.000000000000
      6898    2       73.828665676202     260.864999963923      50.000000000000
      6899    2       70.875519054402     262.569999970548      50.000000000000
      6900    2       73.828665676202     264.274999966238      50.000000000000
      6901    2       70.875519054402     265.979999961929      50.000000000000
      6902    2       73.828665676202     267.684999968554      50.000000000000
      6903    2       70.875519054402     269.389999964245      50.000000000000
      6904    2       73.828665676202     271.094999970870      50.000000000000
      6905    2       76.781812308936     259.159999968232      50.000000000000
      6906    2       79.734958930736     260.864999963923      50.000000000000
      6907    2       76.781812308936     262.569999970548      50.000000000000
      6908    2       79.734958930736     264.274999966238      50.000000000000
      6909    2       76.781812308936     265.979999961929      50.000000000000
      6910    2       79.734958930736     267.684999968554      50.000000000000
      6911    2       76.781812308936     269.389999964245      50.000000000000
      6912    2       79.734958930736     271.094999970870      50.000000000000
      6913    1       83.672487767091     260.864999963923      50.000000000000
      6914    1       86.625634399825     259.159999968232      50.000000000000
      6915    1       83.672487767091     264.274999966238      50.000000000000
      6916    1       86.625634399825     262.569999970548      50.000000000000
      6917    1       83.672487767091     267.684999968554      50.000000000000
      6918    1       86.625634399825     265.979999961929      50.000000000000
      6919    1       83.672487767091     271.094999970870      50.000000000000
      6920    1       86.625634399825     269.389999964245      50.000000000000
      6921    1       89.578781021625     260.864999963923      50.000000000000
      6922    1       92.531927654358     259.159999968232      50.000000000000
      6923    1       89.578781021625     264.274999966238      50.000000000000
      6924    1       92.531927654358     262.569999970548      50.000000000000
      6925    1       89.578781021625     267.684999968554      50.000000000000
      6926    1       92.531927654358     265.979999961929      50.000000000000
      6927    1       89.578781021625     271.094999970870      50.000000000000
      6928    1       92.531927654358     269.389999964245      50.000000000000
      6929    2       82.688105563469     259.159999968232      50.000000000000
      6930    2       85.641252185269     260.864999963923      50.000000000000
      6931    2       82.688105563469     262.569999970548      50.000000000000
      6932    2       85.641252185269     264.274999966238      50.000000000000
      6933    2       82.688105563469     265.979999961929      50.000000000000
      6934    2       85.641252185269     267.684999968554      50.000000000000
      6935    2       82.688105563469     269.389999964245      50.000000000000
      6936    2       85.641252185269     271.094999970870      50.000000000000
      6937    2       88.594398818003     259.159999968232      50.000000000000
      6938    2       91.547545439803     260.864999963923      50.000000000000
      6939    2       88.594398818003     262.569999970548      50.000000000000
      6940    2       91.547545439803     264.274999966238      50.000000000000
      6941    2       88.594398818003     265.979999961929      50.000000000000
      6942    2       91.547545439803     267.684999968554      50.000000000000
      6943    2       88.594398818003     269.389999964245      50.000000000000
      6944    2       91.547545439803     271.094999970870      50.000000000000
      6945    1       95.485074276158     260.864999963923      50.000000000000
      6946    1       98.438220908892     259.159999968232      50.000000000000
      6947    1       95.485074276158     264.274999966238      50.000000000000
      6948    1       98.438220908892     262.569999970548      50.000000000000
      6949    1       95.485074276158     267.684999968554      50.000000000000
      6950    1       98.438220908892     265.979999961929      50.000000000000
      6951    1       95.485074276158     271.094999970870      50.000000000000
      6952    1       98.438220908892     269.389999964245      50.000000000000
      6953    1      101.391367530692     260.864999963923      50.000000000000
      6954    1      104.344514163425     259.159999968232      50.000000000000
      6955    1      101.391367530692     264.274999966238      50.000000000000
      6956    1      104.344514163425     262.569999970548      50.000000000000
      6957    1      101.391367530692     267.684999968554      50.000000000000
      6958    1      104.344514163425     265.979999961929      50.000000000000
      6959    1      101.391367530692     271.094999970870      50.000000000000
      6960    1      104.344514163425     269.389999964245      50.000000000000
      6961    2       94.500692072536     259.159999968232      50.000000000000
      6962    2       97.453838694336     260.864999963923      50.000000000000
      6963    2       94.500692072536     262.569999970548      50.000000000000
      6964    2       97.453838694336     264.274999966238      50.000000000000
      6965    2       94.500692072536     265.979999961929      50.000000000000
      6966    2       97.453838694336     267.684999968554      50.000000000000
      6967    2       94.500692072536     269.389999964245      50.000000000000
      6968    2       97.453838694336     271.094999970870      50.000000000000
      6969    2      100.406985327070     259.159999968232      50.000000000000
      6970    2      103.360131948870     260.864999963923      50.000000000000
      6971    2      100.406985327070     262.569999970548      50.000000000000
      6972    2      103.360131948870     264.274999966238      50.000000000000
      6973    2      100.406985327070     265.979999961929      50.000000000000
      6974    2      103.360131948870     267.684999968554      50.000000000000
      6975    2      100.406985327070     269.389999964245      50.000000000000
      6976    2      103.360131948870     271.094999970870      50.000000000000
      6977    1      107.297660785225     260.864999963923      50.000000000000
      6978    1      110.250807417959     259.159999968232      50.000000000000
      6979    1      107.297660785225     264.274999966238      50.000000000000
      6980    1      110.250807417959     262.569999970548      50.000000000000
      6981    1      107.297660785225     267.684999968554      50.000000000000
      6982    1      110.250807417959     265.979999961929      50.000000000000
      6983    1      107.297660785225     271.094999970870      50.000000000000
      6984    1      110.250807417959     269.389999964245      50.000000000000
      6985    1      113.203954039759     260.864999963923      50.000000000000
      6986    1      116.157100672492     259.159999968232      50.000000000000
      6987    1      113.203954039759     264.274999966238      50.000000000000
      6988    1      116.157100672492     262.569999970548      50.000000000000
      6989    1      113.203954039759     267.684999968554      50.000000000000
      6990    1      116.157100672492     265.979999961929      50.000000000000
      6991    1      113.203954039759     271.094999970870      50.000000000000
      6992    1      116.157100672492     269.389999964245      50.000000000000
      6993    2      106.313278581603     259.159999968232      50.000000000000
      6994    2      109.266425203403     260.864999963923      50.000000000000
      6995    2      106.313278581603     262.569999970548      50.000000000000
      6996    2      109.266425203403     264.274999966238      50.000000000000
      6997    2      106.313278581603     265.979999961929      50.000000000000
      6998    2      109.266425203403     267.684999968554      50.000000000000
      6999    2      106.313278581603     269.389999964245      50.000000000000
      7000    2      109.266425203403     271.094999970870      50.000000000000
      7001    2      112.219571836137     259.159999968232      50.000000000000
      7002    2      115.172718457937     260.864999963923      50.000000000000
      7003    2      112.219571836137     262.569999970548      50.000000000000
      7004    2      115.172718457937     264.274999966238      50.000000000000
      7005    2      112.219571836137     265.979999961929      50.000000000000
      7006    2      115.172718457937     267.684999968554      50.000000000000
      7007    2      112.219571836137     269.389999964245      50.000000000000
      7008    2      115.172718457937     271.094999970870      50.000000000000
      7009    1      119.110247294292     260.864999963923      50.000000000000
      7010    1      122.063393927026     259.159999968232      50.000000000000
      7011    1      119.110247294292     264.274999966238      50.000000000000
      7012    1      122.063393927026     262.569999970548      50.000000000000
      7013    1      119.110247294292     267.684999968554      50.000000000000
      7014    1      122.063393927026     265.979999961929      50.000000000000
      7015    1      119.110247294292     271.094999970870      50.000000000000
      7016    1      122.063393927026     269.389999964245      50.000000000000
      7017    1      125.016540548826     260.864999963923      50.000000000000
      7018    1      127.969687181559     259.159999968232      50.000000000000
      7019    1      125.016540548826     264.274999966238      50.000000000000
      7020    1      127.969687181559     262.569999970548      50.000000000000
      7021    1      125.016540548826     267.684999968554      50.000000000000
      7022    1      127.969687181559     265.979999961929      50.000000000000
      7023    1      125.016540548826     271.094999970870      50.000000000000
      7024    1      127.969687181559     269.389999964245      50.000000000000
      7025    2      118.125865090670     259.159999968232      50.000000000000
      7026    2      121.079011712470     260.864999963923      50.000000000000
      7027    2      118.125865090670     262.569999970548      50.000000000000
      7028    2      121.079011712470     264.274999966238      50.000000000000
      7029    2      118.125865090670     265.979999961929      50.000000000000
      7030    2      121.079011712470     267.684999968554      50.000000000000
      7031    2      118.125865090670     269.389999964245      50.000000000000
      7032    2      121.079011712470     271.094999970870      50.000000000000
      7033    2      124.032158345204     259.159999968232      50.000000000000
      7034    2      126.985304967004     260.864999963923      50.000000000000
      7035    2      124.032158345204     262.569999970548      50.000000000000
      7036    2      126.985304967004     264.274999966238      50.000000000000
      7037    2      124.032158345204     265.979999961929      50.000000000000
      7038    2      126.985304967004     267.684999968554      50.000000000000
      7039    2      124.032158345204     269.389999964245      50.000000000000
      7040    2      126.985304967004     271.094999970870      50.000000000000
      7041    1        0.984382203622     274.504999962251      50.000000000000
      7042    1        3.937528836356     272.799999966560      50.000000000000
      7043    1        0.984382203622     277.914999964566      50.000000000000
      7044    1        3.937528836356     276.209999968876      50.000000000000
      7045    1        0.984382203622     281.324999966882      50.000000000000
      7046    1        3.937528836356     279.619999960257      50.000000000000
      7047    1        0.984382203622     284.734999969198      50.000000000000
      7048    1        3.937528836356     283.029999962573      50.000000000000
      7049    1        6.890675458156     274.504999962251      50.000000000000
      7050    1        9.843822090889     272.799999966560      50.000000000000
      7051    1        6.890675458156     277.914999964566      50.000000000000
      7052    1        9.843822090889     276.209999968876      50.000000000000
      7053    1        6.890675458156     281.324999966882      50.000000000000
      7054    1        9.843822090889     279.619999960257      50.000000000000
      7055    1        6.890675458156     284.734999969198      50.000000000000
      7056    1        9.843822090889     283.029999962573      50.000000000000
      7057    2        0.000000000000     272.799999966560      50.000000000000
      7058    2        2.953146621800     274.504999962251      50.000000000000
      7059    2        0.000000000000     276.209999968876      50.000000000000
      7060    2        2.953146621800     277.914999964566      50.000000000000
      7061    2        0.000000000000     279.619999960257      50.000000000000
      7062    2        2.953146621800     281.324999966882      50.000000000000
      7063    2        0.000000000000     283.029999962573      50.000000000000
      7064    2        2.953146621800     284.734999969198      50.000000000000
      7065    2        5.906293254534     272.799999966560      50.000000000000
      7066    2        8.859439876334     274.504999962251      50.000000000000
      7067    2        5.906293254534     276.209999968876      50.000000000000
      7068    2        8.859439876334     277.914999964566      50.000000000000
      7069    2        5.906293254534     279.619999960257      50.000000000000
      7070    2        8.859439876334     281.324999966882      50.000000000000
      7071    2        5.906293254534     283.029999962573      50.000000000000
      7072    2        8.859439876334     284.734999969198      50.000000000000
      7073    1       12.796968712689     274.504999962251      50.000000000000
      7074    1       15.750115345423     272.799999966560      50.000000000000
      7075    1       12.796968712689     277.914999964566      50.000000000000
      7076    1       15.750115345423     276.209999968876      50.000000000000
      7077    1       12.796968712689     281.324999966882      50.000000000000
      7078    1       15.750115345423     279.619999960257      50.000000000000
      7079    1       12.796968712689     284.734999969198      50.000000000000
      7080    1       15.750115345423     283.029999962573      50.000000000000
      7081    1       18.703261967223     274.504999962251      50.000000000000
      7082    1       21.656408599956     272.799999966560      50.000000000000
      7083    1       18.703261967223     277.914999964566      50.000000000000
      7084    1       21.656408599956     276.209999968876      50.000000000000
      7085    1       18.703261967223     281.324999966882      50.000000000000
      7086    1       21.656408599956     279.619999960257      50.000000000000
      7087    1       18.703261967223     284.734999969198      50.000000000000
      7088    1       21.656408599956     283.029999962573      50.000000000000
      7089    2       11.812586509067     272.799999966560      50.000000000000
      7090    2       14.765733130867     274.504999962251      50.000000000000
      7091    2       11.812586509067     276.209999968876      50.000000000000
      7092    2       14.765733130867     277.914999964566      50.000000000000
      7093    2       11.812586509067     279.619999960257      50.000000000000
      7094    2       14.765733130867     281.324999966882      50.000000000000
      7095    2       11.812586509067     283.029999962573      50.000000000000
      7096    2       14.765733130867     284.734999969198      50.000000000000
      7097    2       17.718879763601     272.799999966560      50.000000000000
      7098    2       20.672026385401     274.504999962251      50.000000000000
      7099    2       17.718879763601     276.209999968876      50.000000000000
      7100    2       20.672026385401     277.914999964566      50.000000000000
      7101    2       17.718879763601     279.619999960257      50.000000000000
      7102    2       20.672026385401     281.324999966882      50.000000000000
      7103    2       17.718879763601     283.029999962573      50.000000000000
      7104    2       20.672026385401     284.734999969198      50.000000000000
      7105    1       24.609555221756     274.504999962251      50.000000000000
      7106    1       27.562701854490     272.799999966560      50.000000000000
      7107    1       24.609555221756     277.914999964566      50.000000000000
      7108    1       27.562701854490     276.209999968876      50.000000000000
      7109    1       24.609555221756     281.324999966882      50.000000000000
      7110    1       27.562701854490     279.619999960257      50.000000000000
      7111    1       24.609555221756     284.734999969198      50.000000000000
      7112    1       27.562701854490     283.029999962573      50.000000000000
      7113    1       30.515848476290     274.504999962251      50.000000000000
      7114    1       33.468995109023     272.799999966560      50.000000000000
      7115    1       30.515848476290     277.914999964566      50.000000000000
      7116    1       33.468995109023     276.209999968876      50.000000000000
      7117    1       30.515848476290     281.324999966882      50.000000000000
      7118    1       33.468995109023     279.619999960257      50.000000000000
      7119    1       30.515848476290     284.734999969198      50.000000000000
      7120    1       33.468995109023     283.029999962573      50.000000000000
      7121    2       23.625173018134     272.799999966560      50.000000000000
      7122    2       26.578319639934     274.504999962251      50.000000000000
      7123    2       23.625173018134     276.209999968876      50.000000000000
      7124    2       26.578319639934     277.914999964566      50.000000000000
      7125    2       23.625173018134     279.619999960257      50.000000000000
      7126    2       26.578319639934     281.324999966882      50.000000000000
      7127    2       23.625173018134     283.029999962573      50.000000000000
      7128    2       26.578319639934     284.734999969198      50.000000000000
      7129    2       29.531466272668     272.799999966560      50.000000000000
      7130    2       32.484612894468     274.504999962251      50.000000000000
      7131    2       29.531466272668     276.209999968876      50.000000000000
      7132    2       32.484612894468     277.914999964566      50.000000000000
      7133    2       29.531466272668     279.619999960257      50.000000000000
      7134    2       32.484612894468     281.324999966882      50.000000000000
      7135    2       29.531466272668     283.029999962573      50.000000000000
      7136    2       32.484612894468     284.734999969198      50.000000000000
      7137    1       36.422141730823     274.504999962251      50.000000000000
      7138    1       39.375288363557     272.799999966560      50.000000000000
      7139    1       36.422141730823     277.914999964566      50.000000000000
      7140    1       39.375288363557     276.209999968876      50.000000000000
      7141    1       36.422141730823     281.324999966882      50.000000000000
      7142    1       39.375288363557     279.619999960257      50.000000000000
      7143    1       36.422141730823     284.734999969198      50.000000000000
      7144    1       39.375288363557     283.029999962573      50.000000000000
      7145    1       42.328434985357     274.504999962251      50.000000000000
      7146    1       45.281581618090     272.799999966560      50.000000000000
      7147    1       42.328434985357     277.914999964566      50.000000000000
      7148    1       45.281581618090     276.209999968876      50.000000000000
      7149    1       42.328434985357     281.324999966882      50.000000000000
      7150    1       45.281581618090     279.619999960257      50.000000000000
      7151    1       42.328434985357     284.734999969198      50.000000000000
      7152    1       45.281581618090     283.029999962573      50.000000000000
      7153    2       35.437759527201     272.799999966560      50.000000000000
      7154    2       38.390906149001     274.504999962251      50.000000000000
      7155    2       35.437759527201     276.209999968876      50.000000000000
      7156    2       38.390906149001     277.914999964566      50.000000000000
      7157    2       35.437759527201     279.619999960257      50.000000000000
      7158    2       38.390906149001     281.324999966882      50.000000000000
      7159    2       35.437759527201     283.029999962573      50.000000000000
      7160    2       38.390906149001     284.734999969198      50.000000000000
      7161    2       41.344052781735     272.799999966560      50.000000000000
      7162    2       44.297199403535     274.504999962251      50.000000000000
      7163    2       41.344052781735     276.209999968876      50.000000000000
      7164    2       44.297199403535     277.914999964566      50.000000000000
      7165    2       41.344052781735     279.619999960257      50.000000000000
      7166    2       44.297199403535     281.324999966882      50.000000000000
      7167    2       41.344052781735     283.029999962573      50.000000000000
      7168    2       44.297199403535     284.734999969198      50.000000000000
      7169    1       48.234728239890     274.504999962251      50.000000000000
      7170    1       51.187874872624     272.799999966560      50.000000000000
      7171    1       48.234728239890     277.914999964566      50.000000000000
      7172    1       51.187874872624     276.209999968876      50.000000000000
      7173    1       48.234728239890     281.324999966882      50.000000000000
      7174    1       51.187874872624     279.619999960257      50.000000000000
      7175    1       48.234728239890     284.734999969198      50.000000000000
      7176    1       51.187874872624     283.029999962573      50.000000000000
      7177    1       54.141021494424     274.504999962251      50.000000000000
      7178    1       57.094168127157     272.799999966560      50.000000000000
      7179    1       54.141021494424     277.914999964566      50.000000000000
      7180    1       57.094168127157     276.209999968876      50.000000000000
      7181    1       54.141021494424     281.324999966882      50.000000000000
      7182    1       57.094168127157     279.619999960257      50.000000000000
      7183    1       54.141021494424     284.734999969198      50.000000000000
      7184    1       57.094168127157     283.029999962573      50.000000000000
      7185    2       47.250346036268     272.799999966560      50.000000000000
      7186    2       50.203492658068     274.504999962251      50.000000000000
      7187    2       47.250346036268     276.209999968876      50.000000000000
      7188    2       50.203492658068     277.914999964566      50.000000000000
      7189    2       47.250346036268     279.619999960257      50.000000000000
      7190    2       50.203492658068     281.324999966882      50.000000000000
      7191    2       47.250346036268     283.029999962573      50.000000000000
      7192    2       50.203492658068     284.734999969198      50.000000000000
      7193    2       53.156639290802     272.799999966560      50.000000000000
      7194    2       56.109785912602     274.504999962251      50.000000000000
      7195    2       53.156639290802     276.209999968876      50.000000000000
      7196    2       56.109785912602     277.914999964566      50.000000000000
      7197    2       53.156639290802     279.619999960257      50.000000000000
      7198    2       56.109785912602     281.324999966882      50.000000000000
      7199    2       53.156639290802     283.029999962573      50.000000000000
      7200    2       56.109785912602     284.734999969198      50.000000000000
      7201    1       60.047314748957     274.504999962251      50.000000000000
      7202    1       63.000461381691     272.799999966560      50.000000000000
      7203    1       60.047314748957     277.914999964566      50.000000000000
      7204    1       63.000461381691     276.209999968876      50.000000000000
      7205    1       60.047314748957     281.324999966882      50.000000000000
      7206    1       63.000461381691     279.619999960257      50.000000000000
      7207    1       60.047314748957     284.734999969198      50.000000000000
      7208    1       63.000461381691     283.029999962573      50.000000000000
      7209    1       65.953608003491     274.504999962251      50.000000000000
      7210    1       68.906754636224     272.799999966560      50.000000000000
      7211    1       65.953608003491     277.914999964566      50.000000000000
      7212    1       68.906754636224     276.209999968876      50.000000000000
      7213    1       65.953608003491     281.324999966882      50.000000000000
      7214    1       68.906754636224     279.619999960257      50.000000000000
      7215    1       65.953608003491     284.734999969198      50.000000000000
      7216    1       68.906754636224     283.029999962573      50.000000000000
      7217    2       59.062932545335     272.799999966560      50.000000000000
      7218    2       62.016079167135     274.504999962251      50.000000000000
      7219    2       59.062932545335     276.209999968876      50.000000000000
      7220    2       62.016079167135     277.914999964566      50.000000000000
      7221    2       59.062932545335     279.619999960257      50.000000000000
      7222    2       62.016079167135     281.324999966882      50.000000000000
      7223    2       59.062932545335     283.029999962573      50.000000000000
      7224    2       62.016079167135     284.734999969198      50.000000000000
      7225    2       64.969225799869     272.799999966560      50.000000000000
      7226    2       67.922372421669     274.504999962251      50.000000000000
      7227    2       64.969225799869     276.209999968876      50.000000000000
      7228    2       67.922372421669     277.914999964566      50.000000000000
      7229    2       64.969225799869     279.619999960257      50.000000000000
      7230    2       67.922372421669     281.324999966882      50.000000000000
      7231    2       64.969225799869     283.029999962573      50.000000000000
      7232    2       67.922372421669     284.734999969198      50.000000000000
      7233    1       71.859901258024     274.504999962251      50.000000000000
      7234    1       74.813047890758     272.799999966560      50.000000000000
      7235    1       71.859901258024     277.914999964566      50.000000000000
      7236    1       74.813047890758     276.209999968876      50.000000000000
      7237    1       71.859901258024     281.324999966882      50.000000000000
      7238    1       74.813047890758     279.619999960257      50.000000000000
      7239    1       71.859901258024     284.734999969198      50.000000000000
      7240    1       74.813047890758     283.029999962573      50.000000000000
      7241    1       77.766194512558     274.504999962251      50.000000000000
      7242    1       80.719341145291     272.799999966560      50.000000000000
      7243    1       77.766194512558     277.914999964566      50.000000000000
      7244    1       80.719341145291     276.209999968876      50.000000000000
      7245    1       77.766194512558     281.324999966882      50.000000000000
      7246    1       80.719341145291     279.619999960257      50.000000000000
      7247    1       77.766194512558     284.734999969198      50.000000000000
      7248    1       80.719341145291     283.029999962573      50.000000000000
      7249    2       70.875519054402     272.799999966560      50.000000000000
      7250    2       73.828665676202     274.504999962251      50.000000000000
      7251    2       70.875519054402     276.209999968876      50.000000000000
      7252    2       73.828665676202     277.914999964566      50.000000000000
      7253    2       70.875519054402     279.619999960257      50.000000000000
      7254    2       73.828665676202     281.324999966882      50.000000000000
      7255    2       70.875519054402     283.029999962573      50.000000000000
      7256    2       73.828665676202     284.734999969198      50.000000000000
      7257    2       76.781812308936     272.799999966560      50.000000000000
      7258    2       79.734958930736     274.504999962251      50.000000000000
      7259    2       76.781812308936     276.209999968876      50.000000000000
      7260    2       79.734958930736     277.914999964566      50.000000000000
      7261    2       76.781812308936     279.619999960257      50.000000000000
      7262    2       79.734958930736     281.324999966882      50.000000000000
      7263    2       76.781812308936     283.029999962573      50.000000000000
      7264    2       79.734958930736     284.734999969198      50.000000000000
      7265    1       83.672487767091     274.504999962251      50.000000000000
      7266    1       86.625634399825     272.799999966560      50.000000000000
      7267    1       83.672487767091     277.914999964566      50.000000000000
      7268    1       86.625634399825     276.209999968876      50.000000000000
      7269    1       83.672487767091     281.324999966882      50.000000000000
      7270    1       86.625634399825     279.619999960257      50.000000000000
      7271    1       83.672487767091     284.734999969198      50.000000000000
      7272    1       86.625634399825     283.029999962573      50.000000000000
      7273    1       89.578781021625     274.504999962251      50.000000000000
      7274    1       92.531927654358     272.799999966560      50.000000000000
      7275    1       89.578781021625     277.914999964566      50.000000000000
      7276    1       92.531927654358     276.209999968876      50.000000000000
      7277    1       89.578781021625     281.324999966882      50.000000000000
      7278    1       92.531927654358     279.619999960257      50.000000000000
      7279    1       89.578781021625     284.734999969198      50.000000000000
      7280    1       92.531927654358     283.029999962573      50.000000000000
      7281    2       82.688105563469     272.799999966560      50.000000000000
      7282    2       85.641252185269     274.504999962251      50.000000000000
      7283    2       82.688105563469     276.209999968876      50.000000000000
      7284    2       85.641252185269     277.914999964566      50.000000000000
      7285    2       82.688105563469     279.619999960257      50.000000000000
      7286    2       85.641252185269     281.324999966882      50.000000000000
      7287    2       82.688105563469     283.029999962573      50.000000000000
      7288    2       85.641252185269     284.734999969198      50.000000000000
      7289    2       88.594398818003     272.799999966560      50.000000000000
      7290    2       91.547545439803     274.504999962251      50.000000000000
      7291    2       88.594398818003     276.209999968876      50.000000000000
      7292    2       91.547545439803     277.914999964566      50.000000000000
      7293    2       88.594398818003     279.619999960257      50.000000000000
      7294    2       91.547545439803     281.324999966882      50.000000000000
      7295    2       88.594398818003     283.029999962573      50.000000000000
      7296    2       91.547545439803     284.734999969198      50.000000000000
      7297    1       95.485074276158     274.504999962251      50.000000000000
      7298    1       98.438220908892     272.799999966560      50.000000000000
      7299    1       95.485074276158     277.914999964566      50.000000000000
      7300    1       98.438220908892     276.209999968876      50.000000000000
      7301    1       95.485074276158     281.324999966882      50.000000000000
      7302    1       98.438220908892     279.619999960257      50.000000000000
      7303    1       95.485074276158     284.734999969198      50.000000000000
      7304    1       98.438220908892     283.029999962573      50.000000000000
      7305    1      101.391367530692     274.504999962251      50.000000000000
      7306    1      104.344514163425     272.799999966560      50.000000000000
      7307    1      101.391367530692     277.914999964566      50.000000000000
      7308    1      104.344514163425     276.209999968876      50.000000000000
      7309    1      101.391367530692     281.324999966882      50.000000000000
      7310    1      104.344514163425     279.619999960257      50.000000000000
      7311    1      101.391367530692     284.734999969198      50.000000000000
      7312    1      104.344514163425     283.029999962573      50.000000000000
      7313    2       94.500692072536     272.799999966560      50.000000000000
      7314    2       97.453838694336     274.504999962251      50.000000000000
      7315    2       94.500692072536     276.209999968876      50.000000000000
      7316    2       97.453838694336     277.914999964566      50.000000000000
      7317    2       94.500692072536     279.619999960257      50.000000000000
      7318    2       97.453838694336     281.324999966882      50.000000000000
      7319    2       94.500692072536     283.029999962573      50.000000000000
      7320    2       97.453838694336     284.734999969198      50.000000000000
      7321    2      100.406985327070     272.799999966560      50.000000000000
      7322    2      103.360131948870     274.504999962251      50.000000000000
      7323    2      100.406985327070     276.209999968876      50.000000000000
      7324    2      103.360131948870     277.914999964566      50.000000000000
      7325    2      100.406985327070     279.619999960257      50.000000000000
      7326    2      103.360131948870     281.324999966882      50.000000000000
      7327    2      100.406985327070     283.029999962573      50.000000000000
      7328    2      103.360131948870     284.734999969198      50.000000000000
      7329    1      107.297660785225     274.504999962251      50.000000000000
      7330    1      110.250807417959     272.799999966560      50.000000000000
      7331    1      107.297660785225     277.914999964566      50.000000000000
      7332    1      110.250807417959     276.209999968876      50.000000000000
      7333    1      107.297660785225     281.324999966882      50.000000000000
      7334    1      110.250807417959     279.619999960257      50.000000000000
      7335    1      107.297660785225     284.734999969198      50.000000000000
      7336    1      110.250807417959     283.029999962573      50.000000000000
      7337    1      113.203954039759     274.504999962251      50.000000000000
      7338    1      116.157100672492     272.799999966560      50.000000000000
      7339    1      113.203954039759     277.914999964566      50.000000000000
      7340    1      116.157100672492     276.209999968876      50.000000000000
      7341    1      113.203954039759     281.324999966882      50.000000000000
      7342    1      116.157100672492     279.619999960257      50.000000000000
      7343    1      113.203954039759     284.734999969198      50.000000000000
      7344    1      116.157100672492     283.029999962573      50.000000000000
      7345    2      106.313278581603     272.799999966560      50.000000000000
      7346    2      109.266425203403     274.504999962251      50.000000000000
      7347    2      106.313278581603     276.209999968876      50.000000000000
      7348    2      109.266425203403     277.914999964566      50.000000000000
      7349    2      106.313278581603     279.619999960257      50.000000000000
      7350    2      109.266425203403     281.324999966882      50.000000000000
      7351    2      106.313278581603     283.029999962573      50.000000000000
      7352    2      109.266425203403     284.734999969198      50.000000000000
      7353    2      112.219571836137     272.799999966560      50.000000000000
      7354    2      115.172718457937     274.504999962251      50.000000000000
      7355    2      112.219571836137     276.209999968876      50.000000000000
      7356    2      115.172718457937     277.914999964566      50.000000000000
      7357    2      112.219571836137     279.619999960257      50.000000000000
      7358    2      115.172718457937     281.324999966882      50.000000000000
      7359    2      112.219571836137     283.029999962573      50.000000000000
      7360    2      115.172718457937     284.734999969198      50.000000000000
      7361    1      119.110247294292     274.504999962251      50.000000000000
      7362    1      122.063393927026     272.799999966560      50.000000000000
      7363    1      119.110247294292     277.914999964566      50.000000000000
      7364    1      122.063393927026     276.209999968876      50.000000000000
      7365    1      119.110247294292     281.324999966882      50.000000000000
      7366    1      122.063393927026     279.619999960257      50.000000000000
      7367    1      119.110247294292     284.734999969198      50.000000000000
      7368    1      122.063393927026     283.029999962573      50.000000000000
      7369    1      125.016540548826     274.504999962251      50.000000000000
      7370    1      127.969687181559     272.799999966560      50.000000000000
      7371    1      125.016540548826     277.914999964566      50.000000000000
      7372    1      127.969687181559     276.209999968876      50.000000000000
      7373    1      125.016540548826     281.324999966882      50.000000000000
      7374    1      127.969687181559     279.619999960257      50.000000000000
      7375    1      125.016540548826     284.734999969198      50.000000000000
      7376    1      127.969687181559     283.029999962573      50.000000000000
      7377    2      118.125865090670     272.799999966560      50.000000000000
      7378    2      121.079011712470     274.504999962251      50.000000000000
      7379    2      118.125865090670     276.209999968876      50.000000000000
      7380    2      121.079011712470     277.914999964566      50.000000000000
      7381    2      118.125865090670     279.619999960257      50.000000000000
      7382    2      121.079011712470     281.324999966882      50.000000000000
      7383    2      118.125865090670     283.029999962573      50.000000000000
      7384    2      121.079011712470     284.734999969198      50.000000000000
      7385    2      124.032158345204     272.799999966560      50.000000000000
      7386    2      126.985304967004     274.504999962251      50.000000000000
      7387    2      124.032158345204     276.209999968876      50.000000000000
      7388    2      126.985304967004     277.914999964566      50.000000000000
      7389    2      124.032158345204     279.619999960257      50.000000000000
      7390    2      126.985304967004     281.324999966882      50.000000000000
      7391    2      124.032158345204     283.029999962573      50.000000000000
      7392    2      126.985304967004     284.734999969198      50.000000000000
      7393    1        0.984382203622     288.144999960579      50.000000000000
      7394    1        3.937528836356     286.439999964888      50.000000000000
      7395    1        0.984382203622     291.554999962894      50.000000000000
      7396    1        3.937528836356     289.849999967204      50.000000000000
      7397    1        0.984382203622     294.964999965210      50.000000000000
      7398    1        3.937528836356     293.259999958585      50.000000000000
      7399    1        0.984382203622     298.374999967526      50.000000000000
      7400    1        3.937528836356     296.669999960901      50.000000000000
      7401    1        6.890675458156     288.144999960579      50.000000000000
      7402    1        9.843822090889     286.439999964888      50.000000000000
      7403    1        6.890675458156     291.554999962894      50.000000000000
      7404    1        9.843822090889     289.849999967204      50.000000000000
      7405    1        6.890675458156     294.964999965210      50.000000000000
      7406    1        9.843822090889     293.259999958585      50.000000000000
      7407    1        6.890675458156     298.374999967526      50.000000000000
      7408    1        9.843822090889     296.669999960901      50.000000000000
      7409    2        0.000000000000     286.439999964888      50.000000000000
      7410    2        2.953146621800     288.144999960579      50.000000000000
      7411    2        0.000000000000     289.849999967204      50.000000000000
      7412    2        2.953146621800     291.554999962894      50.000000000000
      7413    2        0.000000000000     293.259999958585      50.000000000000
      7414    2        2.953146621800     294.964999965210      50.000000000000
      7415    2        0.000000000000     296.669999960901      50.000000000000
      7416    2        2.953146621800     298.374999967526      50.000000000000
      7417    2        5.906293254534     286.439999964888      50.000000000000
      7418    2        8.859439876334     288.144999960579      50.000000000000
      7419    2        5.906293254534     289.849999967204      50.000000000000
      7420    2        8.859439876334     291.554999962894      50.000000000000
      7421    2        5.906293254534     293.259999958585      50.000000000000
      7422    2        8.859439876334     294.964999965210      50.000000000000
      7423    2        5.906293254534     296.669999960901      50.000000000000
      7424    2        8.859439876334     298.374999967526      50.000000000000
      7425    1       12.796968712689     288.144999960579      50.000000000000
      7426    1       15.750115345423     286.439999964888      50.000000000000
      7427    1       12.796968712689     291.554999962894      50.000000000000
      7428    1       15.750115345423     289.849999967204      50.000000000000
      7429    1       12.796968712689     294.964999965210      50.000000000000
      7430    1       15.750115345423     293.259999958585      50.000000000000
      7431    1       12.796968712689     298.374999967526      50.000000000000
      7432    1       15.750115345423     296.669999960901      50.000000000000
      7433    1       18.703261967223     288.144999960579      50.000000000000
      7434    1       21.656408599956     286.439999964888      50.000000000000
      7435    1       18.703261967223     291.554999962894      50.000000000000
      7436    1       21.656408599956     289.849999967204      50.000000000000
      7437    1       18.703261967223     294.964999965210      50.000000000000
      7438    1       21.656408599956     293.259999958585      50.000000000000
      7439    1       18.703261967223     298.374999967526      50.000000000000
      7440    1       21.656408599956     296.669999960901      50.000000000000
      7441    2       11.812586509067     286.439999964888      50.000000000000
      7442    2       14.765733130867     288.144999960579      50.000000000000
      7443    2       11.812586509067     289.849999967204      50.000000000000
      7444    2       14.765733130867     291.554999962894      50.000000000000
      7445    2       11.812586509067     293.259999958585      50.000000000000
      7446    2       14.765733130867     294.964999965210      50.000000000000
      7447    2       11.812586509067     296.669999960901      50.000000000000
      7448    2       14.765733130867     298.374999967526      50.000000000000
      7449    2       17.718879763601     286.439999964888      50.000000000000
      7450    2       20.672026385401     288.144999960579      50.000000000000
      7451    2       17.718879763601     289.849999967204      50.000000000000
      7452    2       20.672026385401     291.554999962894      50.000000000000
      7453    2       17.718879763601     293.259999958585      50.000000000000
      7454    2       20.672026385401     294.964999965210      50.000000000000
      7455    2       17.718879763601     296.669999960901      50.000000000000
      7456    2       20.672026385401     298.374999967526      50.000000000000
      7457    1       24.609555221756     288.144999960579      50.000000000000
      7458    1       27.562701854490     286.439999964888      50.000000000000
      7459    1       24.609555221756     291.554999962894      50.000000000000
      7460    1       27.562701854490     289.849999967204      50.000000000000
      7461    1       24.609555221756     294.964999965210      50.000000000000
      7462    1       27.562701854490     293.259999958585      50.000000000000
      7463    1       24.609555221756     298.374999967526      50.000000000000
      7464    1       27.562701854490     296.669999960901      50.000000000000
      7465    1       30.515848476290     288.144999960579      50.000000000000
      7466    1       33.468995109023     286.439999964888      50.000000000000
      7467    1       30.515848476290     291.554999962894      50.000000000000
      7468    1       33.468995109023     289.849999967204      50.000000000000
      7469    1       30.515848476290     294.964999965210      50.000000000000
      7470    1       33.468995109023     293.259999958585      50.000000000000
      7471    1       30.515848476290     298.374999967526      50.000000000000
      7472    1       33.468995109023     296.669999960901      50.000000000000
      7473    2       23.625173018134     286.439999964888      50.000000000000
      7474    2       26.578319639934     288.144999960579      50.000000000000
      7475    2       23.625173018134     289.849999967204      50.000000000000
      7476    2       26.578319639934     291.554999962894      50.000000000000
      7477    2       23.625173018134     293.259999958585      50.000000000000
      7478    2       26.578319639934     294.964999965210      50.000000000000
      7479    2       23.625173018134     296.669999960901      50.000000000000
      7480    2       26.578319639934     298.374999967526      50.000000000000
      7481    2       29.531466272668     286.439999964888      50.000000000000
      7482    2       32.484612894468     288.144999960579      50.000000000000
      7483    2       29.531466272668     289.849999967204      50.000000000000
      7484    2       32.484612894468     291.554999962894      50.000000000000
      7485    2       29.531466272668     293.259999958585      50.000000000000
      7486    2       32.484612894468     294.964999965210      50.000000000000
      7487    2       29.531466272668     296.669999960901      50.000000000000
      7488    2       32.484612894468     298.374999967526      50.000000000000
      7489    1       36.422141730823     288.144999960579      50.000000000000
      7490    1       39.375288363557     286.439999964888      50.000000000000
      7491    1       36.422141730823     291.554999962894      50.000000000000
      7492    1       39.375288363557     289.849999967204      50.000000000000
      7493    1       36.422141730823     294.964999965210      50.000000000000
      7494    1       39.375288363557     293.259999958585      50.000000000000
      7495    1       36.422141730823     298.374999967526      50.000000000000
      7496    1       39.375288363557     296.669999960901      50.000000000000
      7497    1       42.328434985357     288.144999960579      50.000000000000
      7498    1       45.281581618090     286.439999964888      50.000000000000
      7499    1       42.328434985357     291.554999962894      50.000000000000
      7500    1       45.281581618090     289.849999967204      50.000000000000
      7501    1       42.328434985357     294.964999965210      50.000000000000
      7502    1       45.281581618090     293.259999958585      50.000000000000
      7503    1       42.328434985357     298.374999967526      50.000000000000
      7504    1       45.281581618090     296.669999960901      50.000000000000
      7505    2       35.437759527201     286.439999964888      50.000000000000
      7506    2       38.390906149001     288.144999960579      50.000000000000
      7507    2       35.437759527201     289.849999967204      50.000000000000
      7508    2       38.390906149001     291.554999962894      50.000000000000
      7509    2       35.437759527201     293.259999958585      50.000000000000
      7510    2       38.390906149001     294.964999965210      50.000000000000
      7511    2       35.437759527201     296.669999960901      50.000000000000
      7512    2       38.390906149001     298.374999967526      50.000000000000
      7513    2       41.344052781735     286.439999964888      50.000000000000
      7514    2       44.297199403535     288.144999960579      50.000000000000
      7515    2       41.344052781735     289.849999967204      50.000000000000
      7516    2       44.297199403535     291.554999962894      50.000000000000
      7517    2       41.344052781735     293.259999958585      50.000000000000
      7518    2       44.297199403535     294.964999965210      50.000000000000
      7519    2       41.344052781735     296.669999960901      50.000000000000
      7520    2       44.297199403535     298.374999967526      50.000000000000
      7521    1       48.234728239890     288.144999960579      50.000000000000
      7522    1       51.187874872624     286.439999964888      50.000000000000
      7523    1       48.234728239890     291.554999962894      50.000000000000
      7524    1       51.187874872624     289.849999967204      50.000000000000
      7525    1       48.234728239890     294.964999965210      50.000000000000
      7526    1       51.187874872624     293.259999958585      50.000000000000
      7527    1       48.234728239890     298.374999967526      50.000000000000
      7528    1       51.187874872624     296.669999960901      50.000000000000
      7529    1       54.141021494424     288.144999960579      50.000000000000
      7530    1       57.094168127157     286.439999964888      50.000000000000
      7531    1       54.141021494424     291.554999962894      50.000000000000
      7532    1       57.094168127157     289.849999967204      50.000000000000
      7533    1       54.141021494424     294.964999965210      50.000000000000
      7534    1       57.094168127157     293.259999958585      50.000000000000
      7535    1       54.141021494424     298.374999967526      50.000000000000
      7536    1       57.094168127157     296.669999960901      50.000000000000
      7537    2       47.250346036268     286.439999964888      50.000000000000
      7538    2       50.203492658068     288.144999960579      50.000000000000
      7539    2       47.250346036268     289.849999967204      50.000000000000
      7540    2       50.203492658068     291.554999962894      50.000000000000
      7541    2       47.250346036268     293.259999958585      50.000000000000
      7542    2       50.203492658068     294.964999965210      50.000000000000
      7543    2       47.250346036268     296.669999960901      50.000000000000
      7544    2       50.203492658068     298.374999967526      50.000000000000
      7545    2       53.156639290802     286.439999964888      50.000000000000
      7546    2       56.109785912602     288.144999960579      50.000000000000
      7547    2       53.156639290802     289.849999967204      50.000000000000
      7548    2       56.109785912602     291.554999962894      50.000000000000
      7549    2       53.156639290802     293.259999958585      50.000000000000
      7550    2       56.109785912602     294.964999965210      50.000000000000
      7551    2       53.156639290802     296.669999960901      50.000000000000
      7552    2       56.109785912602     298.374999967526      50.000000000000
      7553    1       60.047314748957     288.144999960579      50.000000000000
      7554    1       63.000461381691     286.439999964888      50.000000000000
      7555    1       60.047314748957     291.554999962894      50.000000000000
      7556    1       63.000461381691     289.849999967204      50.000000000000
      7557    1       60.047314748957     294.964999965210      50.000000000000
      7558    1       63.000461381691     293.259999958585      50.000000000000
      7559    1       60.047314748957     298.374999967526      50.000000000000
      7560    1       63.000461381691     296.669999960901      50.000000000000
      7561    1       65.953608003491     288.144999960579      50.000000000000
      7562    1       68.906754636224     286.439999964888      50.000000000000
      7563    1       65.953608003491     291.554999962894      50.000000000000
      7564    1       68.906754636224     289.849999967204      50.000000000000
      7565    1       65.953608003491     294.964999965210      50.000000000000
      7566    1       68.906754636224     293.259999958585      50.000000000000
      7567    1       65.953608003491     298.374999967526      50.000000000000
      7568    1       68.906754636224     296.669999960901      50.000000000000
      7569    2       59.062932545335     286.439999964888      50.000000000000
      7570    2       62.016079167135     288.144999960579      50.000000000000
      7571    2       59.062932545335     289.849999967204      50.000000000000
      7572    2       62.016079167135     291.554999962894      50.000000000000
      7573    2       59.062932545335     293.259999958585      50.000000000000
      7574    2       62.016079167135     294.964999965210      50.000000000000
      7575    2       59.062932545335     296.669999960901      50.000000000000
      7576    2       62.016079167135     298.374999967526      50.000000000000
      7577    2       64.969225799869     286.439999964888      50.000000000000
      7578    2       67.922372421669     288.144999960579      50.000000000000
      7579    2       64.969225799869     289.849999967204      50.000000000000
      7580    2       67.922372421669     291.554999962894      50.000000000000
      7581    2       64.969225799869     293.259999958585      50.000000000000
      7582    2       67.922372421669     294.964999965210      50.000000000000
      7583    2       64.969225799869     296.669999960901      50.000000000000
      7584    2       67.922372421669     298.374999967526      50.000000000000
      7585    1       71.859901258024     288.144999960579      50.000000000000
      7586    1       74.813047890758     286.439999964888      50.000000000000
      7587    1       71.859901258024     291.554999962894      50.000000000000
      7588    1       74.813047890758     289.849999967204      50.000000000000
      7589    1       71.859901258024     294.964999965210      50.000000000000
      7590    1       74.813047890758     293.259999958585      50.000000000000
      7591    1       71.859901258024     298.374999967526      50.000000000000
      7592    1       74.813047890758     296.669999960901      50.000000000000
      7593    1       77.766194512558     288.144999960579      50.000000000000
      7594    1       80.719341145291     286.439999964888      50.000000000000
      7595    1       77.766194512558     291.554999962894      50.000000000000
      7596    1       80.719341145291     289.849999967204      50.000000000000
      7597    1       77.766194512558     294.964999965210      50.000000000000
      7598    1       80.719341145291     293.259999958585      50.000000000000
      7599    1       77.766194512558     298.374999967526      50.000000000000
      7600    1       80.719341145291     296.669999960901      50.000000000000
      7601    2       70.875519054402     286.439999964888      50.000000000000
      7602    2       73.828665676202     288.144999960579      50.000000000000
      7603    2       70.875519054402     289.849999967204      50.000000000000
      7604    2       73.828665676202     291.554999962894      50.000000000000
      7605    2       70.875519054402     293.259999958585      50.000000000000
      7606    2       73.828665676202     294.964999965210      50.000000000000
      7607    2       70.875519054402     296.669999960901      50.000000000000
      7608    2       73.828665676202     298.374999967526      50.000000000000
      7609    2       76.781812308936     286.439999964888      50.000000000000
      7610    2       79.734958930736     288.144999960579      50.000000000000
      7611    2       76.781812308936     289.849999967204      50.000000000000
      7612    2       79.734958930736     291.554999962894      50.000000000000
      7613    2       76.781812308936     293.259999958585      50.000000000000
      7614    2       79.734958930736     294.964999965210      50.000000000000
      7615    2       76.781812308936     296.669999960901      50.000000000000
      7616    2       79.734958930736     298.374999967526      50.000000000000
      7617    1       83.672487767091     288.144999960579      50.000000000000
      7618    1       86.625634399825     286.439999964888      50.000000000000
      7619    1       83.672487767091     291.554999962894      50.000000000000
      7620    1       86.625634399825     289.849999967204      50.000000000000
      7621    1       83.672487767091     294.964999965210      50.000000000000
      7622    1       86.625634399825     293.259999958585      50.000000000000
      7623    1       83.672487767091     298.374999967526      50.000000000000
      7624    1       86.625634399825     296.669999960901      50.000000000000
      7625    1       89.578781021625     288.144999960579      50.000000000000
      7626    1       92.531927654358     286.439999964888      50.000000000000
      7627    1       89.578781021625     291.554999962894      50.000000000000
      7628    1       92.531927654358     289.849999967204      50.000000000000
      7629    1       89.578781021625     294.964999965210      50.000000000000
      7630    1       92.531927654358     293.259999958585      50.000000000000
      7631    1       89.578781021625     298.374999967526      50.000000000000
      7632    1       92.531927654358     296.669999960901      50.000000000000
      7633    2       82.688105563469     286.439999964888      50.000000000000
      7634    2       85.641252185269     288.144999960579      50.000000000000
      7635    2       82.688105563469     289.849999967204      50.000000000000
      7636    2       85.641252185269     291.554999962894      50.000000000000
      7637    2       82.688105563469     293.259999958585      50.000000000000
      7638    2       85.641252185269     294.964999965210      50.000000000000
      7639    2       82.688105563469     296.669999960901      50.000000000000
      7640    2       85.641252185269     298.374999967526      50.000000000000
      7641    2       88.594398818003     286.439999964888      50.000000000000
      7642    2       91.547545439803     288.144999960579      50.000000000000
      7643    2       88.594398818003     289.849999967204      50.000000000000
      7644    2       91.547545439803     291.554999962894      50.000000000000
      7645    2       88.594398818003     293.259999958585      50.000000000000
      7646    2       91.547545439803     294.964999965210      50.000000000000
      7647    2       88.594398818003     296.669999960901      50.000000000000
      7648    2       91.547545439803     298.374999967526      50.000000000000
      7649    1       95.485074276158     288.144999960579      50.000000000000
      7650    1       98.438220908892     286.439999964888      50.000000000000
      7651    1       95.485074276158     291.554999962894      50.000000000000
      7652    1       98.438220908892     289.849999967204      50.000000000000
      7653    1       95.485074276158     294.964999965210      50.000000000000
      7654    1       98.438220908892     293.259999958585      50.000000000000
      7655    1       95.485074276158     298.374999967526      50.000000000000
      7656    1       98.438220908892     296.669999960901      50.000000000000
      7657    1      101.391367530692     288.144999960579      50.000000000000
      7658    1      104.344514163425     286.439999964888      50.000000000000
      7659    1      101.391367530692     291.554999962894      50.000000000000
      7660    1      104.344514163425     289.849999967204      50.000000000000
      7661    1      101.391367530692     294.964999965210      50.000000000000
      7662    1      104.344514163425     293.259999958585      50.000000000000
      7663    1      101.391367530692     298.374999967526      50.000000000000
      7664    1      104.344514163425     296.669999960901      50.000000000000
      7665    2       94.500692072536     286.439999964888      50.000000000000
      7666    2       97.453838694336     288.144999960579      50.000000000000
      7667    2       94.500692072536     289.849999967204      50.000000000000
      7668    2       97.453838694336     291.554999962894      50.000000000000
      7669    2       94.500692072536     293.259999958585      50.000000000000
      7670    2       97.453838694336     294.964999965210      50.000000000000
      7671    2       94.500692072536     296.669999960901      50.000000000000
      7672    2       97.453838694336     298.374999967526      50.000000000000
      7673    2      100.406985327070     286.439999964888      50.000000000000
      7674    2      103.360131948870     288.144999960579      50.000000000000
      7675    2      100.406985327070     289.849999967204      50.000000000000
      7676    2      103.360131948870     291.554999962894      50.000000000000
      7677    2      100.406985327070     293.259999958585      50.000000000000
      7678    2      103.360131948870     294.964999965210      50.000000000000
      7679    2      100.406985327070     296.669999960901      50.000000000000
      7680    2      103.360131948870     298.374999967526      50.000000000000
      7681    1      107.297660785225     288.144999960579      50.000000000000
      7682    1      110.250807417959     286.439999964888      50.000000000000
      7683    1      107.297660785225     291.554999962894      50.000000000000
      7684    1      110.250807417959     289.849999967204      50.000000000000
      7685    1      107.297660785225     294.964999965210      50.000000000000
      7686    1      110.250807417959     293.259999958585      50.000000000000
      7687    1      107.297660785225     298.374999967526      50.000000000000
      7688    1      110.250807417959     296.669999960901      50.000000000000
      7689    1      113.203954039759     288.144999960579      50.000000000000
      7690    1      116.157100672492     286.439999964888      50.000000000000
      7691    1      113.203954039759     291.554999962894      50.000000000000
      7692    1      116.157100672492     289.849999967204      50.000000000000
      7693    1      113.203954039759     294.964999965210      50.000000000000
      7694    1      116.157100672492     293.259999958585      50.000000000000
      7695    1      113.203954039759     298.374999967526      50.000000000000
      7696    1      116.157100672492     296.669999960901      50.000000000000
      7697    2      106.313278581603     286.439999964888      50.000000000000
      7698    2      109.266425203403     288.144999960579      50.000000000000
      7699    2      106.313278581603     289.849999967204      50.000000000000
      7700    2      109.266425203403     291.554999962894      50.000000000000
      7701    2      106.313278581603     293.259999958585      50.000000000000
      7702    2      109.266425203403     294.964999965210      50.000000000000
      7703    2      106.313278581603     296.669999960901      50.000000000000
      7704    2      109.266425203403     298.374999967526      50.000000000000
      7705    2      112.219571836137     286.439999964888      50.000000000000
      7706    2      115.172718457937     288.144999960579      50.000000000000
      7707    2      112.219571836137     289.849999967204      50.000000000000
      7708    2      115.172718457937     291.554999962894      50.000000000000
      7709    2      112.219571836137     293.259999958585      50.000000000000
      7710    2      115.172718457937     294.964999965210      50.000000000000
      7711    2      112.219571836137     296.669999960901      50.000000000000
      7712    2      115.172718457937     298.374999967526      50.000000000000
      7713    1      119.110247294292     288.144999960579      50.000000000000
      7714    1      122.063393927026     286.439999964888      50.000000000000
      7715    1      119.110247294292     291.554999962894      50.000000000000
      7716    1      122.063393927026     289.849999967204      50.000000000000
      7717    1      119.110247294292     294.964999965210      50.000000000000
      7718    1      122.063393927026     293.259999958585      50.000000000000
      7719    1      119.110247294292     298.374999967526      50.000000000000
      7720    1      122.063393927026     296.669999960901      50.000000000000
      7721    1      125.016540548826     288.144999960579      50.000000000000
      7722    1      127.969687181559     286.439999964888      50.000000000000
      7723    1      125.016540548826     291.554999962894      50.000000000000
      7724    1      127.969687181559     289.849999967204      50.000000000000
      7725    1      125.016540548826     294.964999965210      50.000000000000
      7726    1      127.969687181559     293.259999958585      50.000000000000
      7727    1      125.016540548826     298.374999967526      50.000000000000
      7728    1      127.969687181559     296.669999960901      50.000000000000
      7729    2      118.125865090670     286.439999964888      50.000000000000
      7730    2      121.079011712470     288.144999960579      50.000000000000
      7731    2      118.125865090670     289.849999967204      50.000000000000
      7732    2      121.079011712470     291.554999962894      50.000000000000
      7733    2      118.125865090670     293.259999958585      50.000000000000
      7734    2      121.079011712470     294.964999965210      50.000000000000
      7735    2      118.125865090670     296.669999960901      50.000000000000
      7736    2      121.079011712470     298.374999967526      50.000000000000
      7737    2      124.032158345204     286.439999964888      50.000000000000
      7738    2      126.985304967004     288.144999960579      50.000000000000
      7739    2      124.032158345204     289.849999967204      50.000000000000
      7740    2      126.985304967004     291.554999962894      50.000000000000
      7741    2      124.032158345204     293.259999958585      50.000000000000
      7742    2      126.985304967004     294.964999965210      50.000000000000
      7743    2      124.032158345204     296.669999960901      50.000000000000
      7744    2      126.985304967004     298.374999967526      50.000000000000
