LAMMPS (22 Jul 2025 - Update 3)
  using 16 OpenMP thread(s) per MPI task
package omp 16
using multi-threaded neighbor list subroutines
echo            both
units           metal
dimension       3
atom_style      atomic
neighbor        5.0 bin
neigh_modify    delay 0 every 1 check yes one 10000 page 100000

#2 structure

boundary        p p f
read_data       MoS2_AlN.lmp
Reading data file ...
  orthogonal box = (0 0 0) to (129.79164 149.87048 207.16877)
  1 by 1 by 1 MPI processor grid
  reading atoms ...
  10784 atoms
  read_data CPU = 0.013 seconds
replicate       1 2 1
Replication is creating a 1x2x1 = 2 times larger system...
  orthogonal box = (0 0 0) to (129.79164 299.74096 207.16877)
  1 by 1 by 1 MPI processor grid
  21568 atoms
  replicate CPU = 0.004 seconds
write_data      MoS2_AlN_big.lmp
System init for write_data ...
No /omp style for force computation currently active
WARNING: Communication cutoff is 0.0. No ghost atoms will be generated. Energies and forces may be wrong and atoms may get lost. (src/comm_brick.cpp:212)

#3 potentials

pair_style 		hybrid sw tersoff lj/cut 10.0

# --- MoS2 intralayer (types 1-12); exclude AlN types with NULL ---

pair_coeff 		* * sw h-mos2.sw S1 Mo1 S2 S3 Mo2 S4 S5 Mo3 S6 S7 Mo4 S8  NULL NULL

# --- AlN intralayer (types 13-14); exclude MoS2 types with NULL ---

pair_coeff 		* * tersoff XN.tersoff  NULL NULL NULL NULL NULL NULL NULL NULL NULL NULL NULL NULL  Al N

# --- Cross-layer UFF LJ (epsilon=eV, sigma=Å) ---
# S types (1,3,4,6,7,9,10,12) with Al(13) and N(14)
# S-Al: eps=0.0161306349, sig=3.795841767

pair_coeff  	1 13 lj/cut 0.0161306349 3.795841767  10.0
pair_coeff  	3 13 lj/cut 0.0161306349 3.795841767  10.0
pair_coeff  	4 13 lj/cut 0.0161306349 3.795841767  10.0
pair_coeff  	6 13 lj/cut 0.0161306349 3.795841767  10.0
pair_coeff  	7 13 lj/cut 0.0161306349 3.795841767  10.0
pair_coeff  	9 13 lj/cut 0.0161306349 3.795841767  10.0
pair_coeff 		10 13 lj/cut 0.0161306349 3.795841767 10.0
pair_coeff 		12 13 lj/cut 0.0161306349 3.795841767 10.0

# S-N: eps=0.0059625264, sig=3.423660138

pair_coeff  	1 14 lj/cut 0.0059625264 3.423660138  10.0
pair_coeff  	3 14 lj/cut 0.0059625264 3.423660138  10.0
pair_coeff  	4 14 lj/cut 0.0059625264 3.423660138  10.0
pair_coeff  	6 14 lj/cut 0.0059625264 3.423660138  10.0
pair_coeff  	7 14 lj/cut 0.0059625264 3.423660138  10.0
pair_coeff  	9 14 lj/cut 0.0059625264 3.423660138  10.0
pair_coeff 		10 14 lj/cut 0.0059625264 3.423660138  10.0
pair_coeff 		12 14 lj/cut 0.0059625264 3.423660138  10.0

# Mo types (2,5,8,11) with Al(13) and N(14)
# Mo-Al: eps=0.0072923951, sig=3.301251376

pair_coeff  	2 13 lj/cut 0.0072923951 3.301251376  10.0
pair_coeff  	5 13 lj/cut 0.0072923951 3.301251376  10.0
pair_coeff  	8 13 lj/cut 0.0072923951 3.301251376  10.0
pair_coeff 		11 13 lj/cut 0.0072923951 3.301251376  10.0

# Mo-N: eps=0.0026955603, sig=2.977564249

pair_coeff  	2 14 lj/cut 0.0026955603 2.977564249  10.0
pair_coeff  	5 14 lj/cut 0.0026955603 2.977564249  10.0
pair_coeff  	8 14 lj/cut 0.0026955603 2.977564249  10.0
pair_coeff 		11 14 lj/cut 0.0026955603 2.977564249  10.0

timestep        0.0005  # 0.5 fs timestep

# Define the regions for heat source and sinks

region       	hot block  INF INF  2 16.7870482090804  INF INF units box
region       	cold block  INF INF  282.9539159725276 297.740964181608  INF INF units box

##region for fixed end

region          A1 block  INF INF  INF 2  INF INF units box
region          A2 block  INF INF  297.740964181608 INF  INF INF units box
region          gFixed union 2 A1 A2

group            hot region hot
1000 atoms in group hot
group            cold region cold
1000 atoms in group cold
group            A1 region A1
232 atoms in group A1
group            A2 region A2
116 atoms in group A2
group            gFixed region gFixed
348 atoms in group gFixed
group            gMobile subtract all gFixed
21220 atoms in group gMobile

##Applying spring force to make the ends fixed

velocity         gFixed set 0.0 0.0 0.0
fix              fixEnds gFixed setforce 0.0 0.0 0.0

#4 optimize at 0 K

dump            1 all custom 50000 dump.minimization id type x y z
fix		        1 all box/relax x 0.0 y 0.0
min_style       cg
minimize        0.0 1.0e-8 1000000 1000000
Hybrid pair style last /omp style lj/cut
Last active /omp style is pair_style lj/cut
Neighbor list info ...
  update: every = 1 steps, delay = 0 steps, check = yes
  max neighbors/atom: 10000, page size: 100000
  master list distance cutoff = 15
  ghost atom cutoff = 15
  binsize = 7.5, bins = 18 40 28
  5 neighbor lists, perpetual/occasional/extra = 5 0 0
  (1) pair sw, perpetual, skip from (5)
      attributes: full, newton on, omp
      pair build: skip/omp
      stencil: none
      bin: none
  (2) pair tersoff, perpetual, skip from (5)
      attributes: full, newton on, omp
      pair build: skip/omp
      stencil: none
      bin: none
  (3) pair lj/cut, perpetual, skip from (4)
      attributes: half, newton on, omp
      pair build: skip/omp
      stencil: none
      bin: none
  (4) neighbor class addition, perpetual, half/full from (5)
      attributes: half, newton on, omp
      pair build: halffull/newton/omp
      stencil: none
      bin: none
  (5) neighbor class addition, perpetual
      attributes: full, newton on, omp
      pair build: full/bin/atomonly/omp
      stencil: full/bin/3d
      bin: standard
WARNING: Energy due to 3 extra global DOFs will be included in minimizer energies
 (src/min.cpp:222)
Per MPI rank memory allocation (min/avg/max) = 92.04 | 92.04 | 92.04 Mbytes
   Step          Temp          E_pair         E_mol          TotEng         Press          Volume    
         0   0             -66438.316      0             -66438.316      220.41244      8059667.5    
        62   0             -66452.002      0             -66452.002     -95.785423      8113692      
Loop time of 0.229344 on 16 procs for 62 steps with 21568 atoms

1579.6% CPU use with 1 MPI tasks x 16 OpenMP threads

Minimization stats:
  Stopping criterion = linesearch alpha is zero
  Energy initial, next-to-last, final = 
     -66438.3159600887  -66452.0023030298  -66452.0023030298
  Force two-norm initial, final = 3454.3118 66.69177
  Force max component initial, final = 2442.5654 47.759699
  Final line search alpha, max atom move = 1.9968181e-12 9.5367432e-11
  Iterations, force evaluations = 62 119

MPI task timing breakdown:
Section |  min time  |  avg time  |  max time  |%varavg| %total
---------------------------------------------------------------
Pair    | 0.1734     | 0.1734     | 0.1734     |   0.0 | 75.61
Neigh   | 0          | 0          | 0          |   0.0 |  0.00
Comm    | 0.0017148  | 0.0017148  | 0.0017148  |   0.0 |  0.75
Output  | 0          | 0          | 0          |   0.0 |  0.00
Modify  | 0.013269   | 0.013269   | 0.013269   |   0.0 |  5.79
Other   |            | 0.04096    |            |       | 17.86

Nlocal:          21568 ave       21568 max       21568 min
Histogram: 1 0 0 0 0 0 0 0 0 0
Nghost:           7624 ave        7624 max        7624 min
Histogram: 1 0 0 0 0 0 0 0 0 0
Neighs:              0 ave           0 max           0 min
Histogram: 1 0 0 0 0 0 0 0 0 0

Total # of neighbors = 0
Ave neighs/atom = 0
Neighbor list builds = 0
Dangerous builds = 0
undump          1
unfix			1

#5 optimize at 300K

compute         peratom all pe/atom
reset_timestep  0
timestep        0.0005

velocity        gMobile create 300 85233 rot yes mom yes dist gaussian

fix             3 gMobile npt temp 300 300 0.05 x 0.0 0.0 0.5 y 0.0 0.0 0.5 couple xy 				#iso 0.0 0.0 0.5
thermo          1000
thermo_style    custom step temp  lx ly lz pxx pyy pzz etotal
run             1000000
Hybrid pair style last /omp style lj/cut
Last active /omp style is pair_style lj/cut
Per MPI rank memory allocation (min/avg/max) = 102 | 102 | 102 Mbytes
   Step          Temp            Lx             Ly             Lz            Pxx            Pyy            Pzz           TotEng    
         0   295.15927      130.23769      300.71671      207.16877      99.319307      118.33035     -180.04388     -65629.171    
      1000   294.73199      130.33727      300.94664      207.16877     -100.75152     -95.503811     -350.05154     -64843.236    
      2000   296.18988      130.2312       300.70174      207.16877      54.169825      57.40355       467.00419     -64898.201    
      3000   310.08521      130.10161      300.40251      207.16877     -26.766997     -23.51741      -94.637429     -64763.003    
      4000   292.58185      130.18725      300.60025      207.16877      14.707666      24.778078     -102.73388     -64848.493    
      5000   295.56562      130.24576      300.73536      207.16877     -19.497913     -11.016202      5.0315023     -64859.019    
      6000   304.50508      130.19728      300.6234       207.16877      2.411389       26.710939      2.8176146     -64798.794    
      7000   299.1624       130.20855      300.64942      207.16877     -34.924758     -16.212293     -50.612056     -64837.611    
      8000   298.76147      130.16745      300.55454      207.16877      22.671183      56.865359      104.36243     -64841.48     
      9000   303.35529      130.21551      300.6655       207.16877     -36.186308     -39.721572     -85.617638     -64808.395    
     10000   300.17415      130.18964      300.60576      207.16877      39.67788       45.074296     -40.144791     -64827.487    
     11000   298.64483      130.2846       300.82502      207.16877     -57.484044     -41.087472     -41.676283     -64825.2      
     12000   298.99544      130.20094      300.63187      207.16877      43.328137      45.49217       88.422569     -64836.328    
     13000   295.72704      130.23881      300.71931      207.16877     -51.466221     -19.849069     -40.198235     -64842.665    
     14000   300.99102      130.18332      300.59117      207.16877      11.825932      29.904744      3.1250483     -64813.748    
     15000   299.1415       130.24742      300.73917      207.16877     -34.028889     -46.651413     -72.495383     -64835.779    
     16000   302.131        130.18926      300.60489      207.16877      32.99204       65.221782      25.804204     -64822.255    
     17000   299.89338      130.28194      300.81889      207.16877     -41.703931     -55.914282     -30.142763     -64840.458    
     18000   299.65882      130.19602      300.62049      207.16877      10.771436      78.012841      23.679532     -64836.153    
     19000   299.49633      130.23584      300.71244      207.16877     -36.725263     -33.780951     -29.954059     -64830.895    
     20000   300.55729      130.16107      300.53981      207.16877      42.1778        68.44684       4.4464146     -64838.616    
     21000   300.96205      130.28128      300.81735      207.16877     -63.641671     -55.596691     -31.469169     -64828.236    
     22000   301.97672      130.18839      300.60288      207.16877      49.489523      47.939498      3.407388      -64820.659    
     23000   299.20002      130.27586      300.80484      207.16877     -52.172377     -24.711463     -15.227973     -64825.75     
     24000   298.37776      130.20379      300.63843      207.16877      40.551113      39.877902      5.8978744     -64838.299    
     25000   302.34208      130.26172      300.77219      207.16877     -69.121001     -21.421368     -55.012875     -64822.038    
     26000   299.54978      130.18818      300.60239      207.16877      42.056763      28.450733      12.042368     -64833.848    
     27000   299.57838      130.28856      300.83417      207.16877     -66.302165     -55.85835      -14.647799     -64838.09     
     28000   300.11105      130.19381      300.61539      207.16877      55.201908      65.462728      30.08854      -64826.827    
     29000   302.13964      130.28809      300.8331       207.16877     -55.621237     -43.357269     -37.30426      -64830.458    
     30000   300.9517       130.20468      300.64049      207.16877      25.665887      58.718586      7.9986793     -64823.889    
     31000   296.56562      130.27703      300.80755      207.16877     -57.535649     -48.939858     -33.299984     -64836.895    
     32000   298.33638      130.1871       300.59989      207.16877      46.564905      60.547593      11.114945     -64834.434    
     33000   297.0509       130.27711      300.80774      207.16877     -51.951103     -56.848007     -34.817619     -64846.135    
     34000   299.29183      130.18952      300.60549      207.16877      58.887555      55.801442     -4.6186925     -64833.096    
     35000   301.51296      130.29062      300.83892      207.16877     -51.984347     -33.624881     -26.654013     -64823.604    
     36000   299.60257      130.21754      300.67019      207.16877      22.873584      36.771021      34.356329     -64833.081    
     37000   300.57641      130.27136      300.79447      207.16877     -34.302443     -11.458918     -16.949123     -64825.861    
     38000   300.56931      130.2284       300.69525      207.16877      25.021722      23.590432      9.6703611     -64841.255    
     39000   299.69283      130.28118      300.81712      207.16877     -35.910578     -55.802123     -39.439016     -64821.938    
     40000   297.68215      130.20536      300.64207      207.16877      45.129297      62.239776      18.729378     -64836.283    
     41000   297.03789      130.30527      300.87276      207.16877     -52.1848       -62.435321     -11.106799     -64843.181    
     42000   300.33884      130.20846      300.64923      207.16877      25.09342       67.16929       29.7202       -64831.305    
     43000   295.99405      130.27146      300.79469      207.16877     -29.341985     -28.656232     -59.843219     -64848.129    
     44000   299.77544      130.22228      300.68114      207.16877      24.360089      24.897912      9.9795769     -64825.795    
     45000   300.02453      130.2533       300.75276      207.16877     -23.199703     -13.136762     -53.690341     -64832.153    
     46000   300.57347      130.25883      300.76552      207.16877      3.6867244      4.1156383      44.811496     -64826.196    
     47000   299.44441      130.23448      300.7093       207.16877     -13.983331      19.395695     -55.711884     -64837.001    
     48000   299.2802       130.24134      300.72515      207.16877     -0.12516072     18.225718      27.016387     -64826.487    
     49000   300.07282      130.25392      300.75419      207.16877      2.0376703     -7.2008967     -47.492857     -64841.478    
     50000   298.83029      130.25528      300.75734      207.16877     -12.119392     -9.7630649      13.7581       -64826.035    
     51000   302.77599      130.23143      300.70226      207.16877      26.693972      10.129282     -26.912071     -64831.245    
     52000   297.79957      130.27231      300.79665      207.16877     -43.294647     -12.639792      17.114766     -64844.125    
     53000   297.66446      130.20321      300.6371       207.16877      33.105386      40.849338     -6.2021637     -64839.412    
     54000   300.70425      130.29396      300.84664      207.16877     -60.863477     -34.217364     -20.055511     -64828.137    
     55000   299.33189      130.20208      300.63449      207.16877      35.341082      66.860598     -8.2559315     -64828.163    
     56000   298.26098      130.2799       300.81418      207.16877     -39.847496     -47.990809     -30.985934     -64840.103    
     57000   299.33026      130.22069      300.67745      207.16877      12.502388      40.122053      18.822654     -64832.783    
     58000   300.11304      130.26464      300.77895      207.16877     -43.173724     -21.103885     -47.052409     -64826.187    
     59000   299.88299      130.21017      300.65316      207.16877      32.005877      42.011848      9.1366536     -64833.951    
     60000   299.91307      130.2883       300.83357      207.16877     -53.552626     -17.473371     -39.919492     -64825.698    
     61000   301.78949      130.2344       300.70912      207.16877      36.905421      20.035053      9.5305751     -64826.704    
     62000   298.64685      130.29044      300.83851      207.16877     -47.173484     -45.263686     -0.10985006    -64832.572    
     63000   298.64528      130.21986      300.67553      207.16877      33.445612      42.339852      20.014493     -64838.046    
     64000   299.12378      130.27454      300.80179      207.16877     -32.479016     -38.519287     -46.610279     -64826.085    
     65000   300.50139      130.22764      300.69351      207.16877      6.5062254      45.376226      5.0452896     -64817.063    
     66000   297.84678      130.28385      300.8233       207.16877     -27.811845     -25.663916     -48.452327     -64836.205    
     67000   302.80118      130.237        300.71513      207.16877      23.066885      20.656295      23.161565     -64832.364    
     68000   301.22834      130.26899      300.78898      207.16877     -41.660361     -6.2259989     -36.729098     -64827.63     
     69000   301.47255      130.20914      300.65079      207.16877      61.57064       26.544999      19.189292     -64833.049    
     70000   298.94378      130.27375      300.79998      207.16877     -68.398259     -14.093585     -45.532016     -64837.006    
     71000   300.62972      130.23234      300.70437      207.16877      25.21316       25.545991      20.441742     -64832.651    
     72000   298.22704      130.27126      300.79422      207.16877     -10.473772     -9.0577782     -36.15937      -64832.719    
     73000   299.5593       130.2407       300.72365      207.16877     -0.87251662     15.430587     -19.599294     -64830.007    
     74000   297.56033      130.24128      300.72501      207.16877      21.929762     -6.5881613     -10.464493     -64833.17     
     75000   298.69459      130.24229      300.72733      207.16877     -16.138502      13.988675     -8.695321      -64835.333    
     76000   297.96809      130.25702      300.76135      207.16877     -15.188555     -1.1935383      1.323131      -64834.072    
     77000   301.63388      130.25872      300.76527      207.16877     -0.89685702     1.1596839     -10.829964     -64827.083    
     78000   297.74518      130.2617       300.77216      207.16877     -3.1897365      5.3003747     -16.458603     -64845.158    
     79000   300.54769      130.25209      300.74996      207.16877      9.3938254     -6.3177202     -18.200965     -64825.736    
     80000   299.51133      130.23978      300.72154      207.16877      1.076885       11.303321      1.5141357     -64828.715    
     81000   298.80312      130.24939      300.74373      207.16877     -10.941824      1.7197601     -24.928016     -64835.503    
     82000   302.81646      130.25418      300.75479      207.16877     -6.5112674      3.0284637      18.044168     -64825.841    
     83000   298.60861      130.24017      300.72243      207.16877     -3.1119179      16.928739     -42.153022     -64832.275    
     84000   301.4337       130.26493      300.77961      207.16877      7.6857307     -6.1865063      40.343908     -64824.887    
     85000   298.18906      130.24715      300.73856      207.16877     -14.994975      16.448264     -61.211927     -64847.474    
     86000   298.33954      130.27217      300.79632      207.16877     -8.7748014     -20.094229      51.560422     -64831.416    
     87000   298.07526      130.24318      300.72938      207.16877     -4.9118891      24.253309     -68.82346      -64840.673    
     88000   302.43846      130.26573      300.78145      207.16877     -1.914173       1.8389459      35.519751     -64829.138    
     89000   301.02249      130.26506      300.77991      207.16877     -8.2424116     -5.8955204     -51.883705     -64832.719    
     90000   301.38406      130.26188      300.77257      207.16877     -2.5859822      14.637092      10.345971     -64831.364    
     91000   297.44403      130.26507      300.77994      207.16877     -10.075953     -2.6338136     -24.917881     -64843.065    
     92000   302.65535      130.2535       300.75321      207.16877     -2.1785911      3.8398404      7.043128      -64825.941    
     93000   300.57584      130.2581       300.76384      207.16877     -20.35576       7.3432027     -34.736894     -64827.062    
     94000   300.24756      130.24335      300.72978      207.16877      10.48208       14.520002      11.547583     -64835.529    
     95000   299.95115      130.26564      300.78125      207.16877     -12.256967      2.010562      -30.567392     -64837.185    
     96000   300.83997      130.25013      300.74543      207.16877      14.716883      33.791546      33.89053      -64827.47     
     97000   300.14728      130.27886      300.81178      207.16877     -32.529997     -17.354155     -38.723001     -64831.23     
     98000   298.91043      130.24801      300.74054      207.16877     -2.9929029      6.7365204     -1.6068989     -64832.956    
     99000   298.80273      130.25339      300.75297      207.16877     -13.081441      13.767079     -44.641827     -64832.654    
    100000   301.51926      130.26696      300.78429      207.16877      3.3963177      2.6467325      10.379656     -64830.34     
    101000   302.01729      130.27404      300.80064      207.16877     -20.496369     -3.5057109     -23.851611     -64823.484    
    102000   299.0389       130.27026      300.79192      207.16877     -7.3144101     -1.7342477      32.299203     -64834.225    
    103000   302.26521      130.2485       300.74168      207.16877     -2.645732      -1.7612426     -22.863718     -64825.211    
    104000   297.61805      130.25151      300.74863      207.16877     -21.378046      5.5570119      2.5039358     -64836.709    
    105000   301.11184      130.25617      300.75939      207.16877      1.1722464     -3.851629      -16.45248      -64827.097    
    106000   298.86599      130.26473      300.77914      207.16877     -5.5035274      6.3099118      1.6830861     -64841.217    
    107000   299.34389      130.27073      300.79299      207.16877     -0.25726375    -4.3574772     -21.104782     -64828.552    
    108000   297.85032      130.28388      300.82337      207.16877     -33.207685     -11.944738     -10.325846     -64842.101    
    109000   299.73662      130.23646      300.71388      207.16877      15.304219      16.754681     -4.0571489     -64826.444    
    110000   299.25334      130.26217      300.77324      207.16877     -15.276725     -3.0109214     -8.3928645     -64843.806    
    111000   301.50073      130.25971      300.76757      207.16877      5.3745451      28.993626      1.1792702     -64832.541    
    112000   300.40841      130.28024      300.81497      207.16877     -12.501818     -13.028839     -19.182559     -64833.024    
    113000   303.05276      130.23066      300.70048      207.16877      24.462029      46.719164     -24.021099     -64819.753    
    114000   296.93477      130.29274      300.84381      207.16877     -48.160511     -37.613904     -21.285892     -64846.037    
    115000   300.1044       130.21466      300.66354      207.16877      28.186487      44.996031      8.7026419     -64823.032    
    116000   301.14344      130.27622      300.80567      207.16877     -27.949293     -23.339319     -10.775572     -64838.912    
    117000   299.23264      130.25889      300.76566      207.16877      21.544739      19.475825      13.316062     -64835.814    
    118000   299.56879      130.28046      300.81548      207.16877     -38.944099      7.4990549     -7.7908604     -64836.363    
    119000   300.85618      130.24419      300.73171      207.16877      36.785602      8.6270918     -19.822801     -64827.822    
    120000   302.15443      130.29176      300.84156      207.16877     -45.233244     -5.6385958     -9.8411842     -64825.692    
    121000   297.71144      130.21601      300.66665      207.16877      35.012075      37.791702     -15.766725     -64838.998    
    122000   300.75456      130.31226      300.8889       207.16877     -43.148783     -35.108021      18.912393     -64825.731    
    123000   300.4079       130.24593      300.73573      207.16877      21.103968      35.835915     -14.886829     -64831.157    
    124000   298.83342      130.30324      300.86806      207.16877     -35.03814      -30.320734      2.9129124     -64827.05     
    125000   297.64053      130.25878      300.76541      207.16877      8.6153636      17.233317     -29.176095     -64834.345    
    126000   298.7486       130.28862      300.8343       207.16877     -34.226069     -16.781572      25.556298     -64827.865    
    127000   301.1503       130.21892      300.67337      207.16877      41.75527       42.755294     -35.873034     -64826.674    
    128000   301.97512      130.31369      300.8922       207.16877     -49.396044     -32.630428      19.29466      -64831.042    
    129000   299.62536      130.24446      300.73235      207.16877      21.954596      38.268741     -32.842966     -64828.997    
    130000   300.51705      130.28198      300.81897      207.16877     -21.336568     -15.892548      0.60677979    -64824.039    
    131000   297.85429      130.25357      300.75338      207.16877      2.031202       19.055878     -32.843624     -64831.578    
    132000   299.12816      130.31016      300.88404      207.16877     -38.735096     -32.331732      59.186167     -64835.659    
    133000   300.42617      130.24352      300.73017      207.16877      9.2244992      33.067842     -41.457354     -64823.574    
    134000   300.91191      130.28113      300.81702      207.16877      5.9342481     -11.372701      30.483148     -64832.265    
    135000   298.12577      130.26513      300.78007      207.16877     -3.1384597      20.269691     -32.268823     -64838.87     
    136000   298.97368      130.28504      300.82605      207.16877     -12.093113     -8.3418091      0.13371292    -64819.654    
    137000   298.65726      130.25626      300.75958      207.16877      19.371787      18.743841     -21.354029     -64842.63     
    138000   302.18391      130.27697      300.80742      207.16877     -27.651811     -4.6711427      11.731776     -64824.793    
    139000   300.71217      130.24694      300.73808      207.16877      17.289248      22.717224     -26.806246     -64836.858    
    140000   301.80425      130.29909      300.85848      207.16877     -31.00059      -19.881713      33.695299     -64824.455    
    141000   297.53168      130.25526      300.75727      207.16877      6.3359257      13.529503     -33.586154     -64849.951    
    142000   299.96067      130.27544      300.80387      207.16877     -14.954746     -6.8442788      2.4637784     -64832.583    
    143000   303.54417      130.24834      300.7413       207.16877     -0.97125591     26.431228      5.5745429     -64824.59     
    144000   298.09543      130.25546      300.75774      207.16877      1.8316099      2.8728879     -6.787991      -64832.064    
    145000   298.94002      130.25996      300.76814      207.16877     -2.5333309      15.734516      8.6170967     -64830.984    
    146000   301.0809       130.26997      300.79125      207.16877     -3.1099027     -3.4118397     -42.880284     -64831.594    
    147000   299.81033      130.26902      300.78904      207.16877     -1.8469166      6.9313165      2.9970784     -64827.613    
    148000   300.79282      130.26265      300.77434      207.16877     -5.1700464      14.05284      -9.1981736     -64824.763    
    149000   297.19622      130.27809      300.81         207.16877     -5.7297855     -11.008997      17.762504     -64839.243    
    150000   298.97884      130.2534       300.75299      207.16877     -6.2937799      26.601797      8.098667      -64840.661    
    151000   299.20559      130.2853       300.82665      207.16877     -16.357476     -28.411855     -13.92164      -64834.171    
    152000   300.36592      130.25247      300.75085      207.16877      6.9053141      31.012031     -42.1263       -64830.414    
    153000   302.03474      130.27701      300.8075       207.16877     -10.535578      3.7843797      20.544947     -64822.267    
    154000   300.67039      130.25342      300.75304      207.16877     -2.897593       13.151206     -41.095779     -64816.268    
    155000   299.2554       130.26271      300.77449      207.16877     -8.9201924      18.043375      33.28599      -64834.291    
    156000   300.64512      130.24867      300.74207      207.16877      6.9356001      13.195689     -40.040217     -64820.548    
    157000   299.43854      130.29599      300.85133      207.16877     -39.862196     -17.853195      19.785001     -64837.295    
    158000   300.99585      130.23509      300.7107       207.16877      29.498033      39.918164     -64.643721     -64817.105    
    159000   300.32531      130.297        300.85365      207.16877     -10.388644     -10.717759      14.872287     -64829.132    
    160000   299.35106      130.24802      300.74056      207.16877      2.9009534      34.607864     -23.236881     -64840.787    
    161000   300.76454      130.29669      300.85294      207.16877     -31.187066     -41.275732     -6.7038976     -64832.075    
    162000   298.26251      130.22471      300.68674      207.16877      27.990846      47.381621     -22.867898     -64837.127    
    163000   301.76411      130.30036      300.86143      207.16877     -46.522133     -49.364267     -10.332222     -64829.139    
    164000   302.92992      130.23774      300.71683      207.16877      27.477812      40.327478     -14.488616     -64815.633    
    165000   301.34431      130.304        300.86981      207.16877     -40.783596     -23.81224      -13.945927     -64832.865    
    166000   301.78962      130.21933      300.67432      207.16877      41.358884      35.864892      3.8501156     -64832.475    
    167000   301.88422      130.29042      300.83846      207.16877     -50.077291     -18.584121     -21.911851     -64821.692    
    168000   301.62751      130.23962      300.72116      207.16877      28.16665       14.063421     -45.826955     -64830.474    
    169000   296.99238      130.29         300.8375       207.16877     -39.408061     -18.261309      20.099812     -64836.728    
    170000   299.90252      130.25955      300.76718      207.16877      5.1164356      14.307913     -18.013596     -64835.587    
    171000   300.30149      130.2849       300.82572      207.16877     -17.222953     -18.907533      4.6480529     -64821.68     
    172000   297.82515      130.23915      300.72008      207.16877     -0.38933481     34.672225     -28.73992      -64836.308    
    173000   299.83298      130.29595      300.85124      207.16877     -17.152749     -41.542311      9.943398      -64839.967    
    174000   300.92528      130.24724      300.73877      207.16877      5.4165041      33.13156      -14.758406     -64829.431    
    175000   299.28793      130.29634      300.85214      207.16877     -23.0365       -35.141998      2.7494349     -64827.864    
    176000   304.65588      130.24614      300.73623      207.16877      28.050556      31.949939      9.278949      -64823.618    
    177000   299.22528      130.29706      300.85379      207.16877     -68.728409     -25.638903     -15.451092     -64837.076    
    178000   303.22242      130.24807      300.74067      207.16877      19.597046      15.617024      6.054164      -64812.346    
    179000   299.63073      130.27617      300.80556      207.16877     -32.864354      11.427602     -21.638113     -64838.576    
    180000   300.89717      130.24872      300.74218      207.16877      13.473138      4.3223219     -6.003352      -64827.727    
    181000   298.63394      130.27291      300.79803      207.16877     -20.65219      -8.2447054     -31.391796     -64840.767    
    182000   300.93465      130.25525      300.75726      207.16877     -6.3604949      28.861911      13.335429     -64826.121    
    183000   303.59811      130.26455      300.77874      207.16877     -3.4587368     -13.664125     -35.775571     -64827.323    
    184000   305.24023      130.25869      300.7652       207.16877     -5.6386124      41.254256      37.401674     -64814.804    
    185000   296.47945      130.26211      300.7731       207.16877      1.310508      -8.2289721     -38.20258      -64842.568    
    186000   300.79448      130.24552      300.73479      207.16877      21.097948      19.435405      21.427196     -64834.434    
    187000   302.09486      130.2692       300.78947      207.16877     -27.993618     -1.503437      -60.614702     -64814.033    
    188000   299.09127      130.26997      300.79124      207.16877     -5.8443645      7.0387462      54.79532      -64837.478    
    189000   300.66645      130.25753      300.76252      207.16877     -32.535651      9.0326707     -62.68529      -64826.731    
    190000   302.34777      130.24964      300.74431      207.16877      9.2698229      16.987337      23.246173     -64824.368    
    191000   297.82174      130.25         300.74514      207.16877     -8.8665467      12.05103      -43.474575     -64844.119    
    192000   299.24898      130.2668       300.78393      207.16877     -14.995394     -2.6101862      15.642728     -64828.441    
    193000   300.50932      130.22417      300.68549      207.16877      26.895174      17.763093     -36.445739     -64835.847    
    194000   302.37694      130.28272      300.82068      207.16877     -47.803626     -6.7158695      35.349657     -64826.272    
    195000   300.71832      130.23701      300.71514      207.16877      22.525579      8.7764505     -45.217574     -64825.859    
    196000   300.73967      130.26576      300.78152      207.16877     -15.157269      6.7374259      12.326566     -64835.589    
    197000   297.29854      130.25486      300.75635      207.16877      6.6495464      13.724434     -25.034674     -64841.412    
    198000   301.37821      130.26342      300.77613      207.16877      8.4665594     -3.711312       7.2229341     -64832.047    
    199000   299.5774       130.25992      300.76803      207.16877     -27.451401      12.191914     -16.452016     -64829.737    
    200000   305.04663      130.25427      300.755        207.16877      17.569651     -2.7696091      20.443284     -64820.481    
    201000   298.2364       130.26153      300.77176      207.16877     -26.109451      6.7125173     -40.257634     -64840.884    
    202000   300.45185      130.25057      300.74646      207.16877      23.926359      13.97074       24.463473     -64829.499    
    203000   300.02428      130.2736       300.79964      207.16877     -4.353755      -18.899357     -50.179922     -64826.476    
    204000   296.10316      130.26574      300.78147      207.16877     -16.17353       14.392964      10.18713      -64843.769    
    205000   301.21522      130.26833      300.78747      207.16877      14.06875      -37.947387     -29.617469     -64828.134    
    206000   301.1253       130.27572      300.80453      207.16877     -35.174326      14.758353      20.362471     -64839.268    
    207000   301.77384      130.26057      300.76954      207.16877      16.469197     -7.3273405     -45.448377     -64826.218    
    208000   301.87491      130.26465      300.77896      207.16877      11.816512      8.3455395      36.815222     -64832.179    
    209000   301.15802      130.26766      300.78591      207.16877     -3.6604553      2.0681476     -26.933626     -64824.04     
    210000   300.21341      130.25986      300.7679       207.16877      16.705181     -5.6291574     -11.532763     -64836.715    
    211000   301.33891      130.26588      300.78181      207.16877     -22.840695      0.2160994     -16.029973     -64827.85     
    212000   296.68891      130.26423      300.778        207.16877      7.1206438      1.3978953      3.5678        -64834.989    
    213000   298.2262       130.26269      300.77443      207.16877     -4.0195976      1.5620291     -12.632906     -64832.679    
    214000   303.06829      130.27166      300.79514      207.16877     -12.509597      12.005567      0.24358371    -64821.47     
    215000   299.864        130.26669      300.78368      207.16877     -4.8187196      2.6119494     -20.226049     -64832.961    
    216000   301.63228      130.26039      300.76912      207.16877     -4.9903517     -4.6645216      6.429415      -64831.09     
    217000   300.32401      130.25596      300.7589       207.16877     -9.9812636      1.0616609     -29.34846      -64834.346    
    218000   303.19824      130.26531      300.78048      207.16877     -0.091096468    0.92152238     0.96725723    -64813.79     
    219000   301.37258      130.25908      300.7661       207.16877     -1.0724641      12.056984     -10.640402     -64830.489    
    220000   298.16122      130.28405      300.82376      207.16877     -15.819882     -23.460804     -8.0712976     -64839.712    
    221000   302.00266      130.24195      300.72655      207.16877      27.273271      39.377087      11.576367     -64831.785    
    222000   297.8349       130.28193      300.81886      207.16877     -35.997755     -14.274366     -34.807125     -64836.49     
    223000   303.67633      130.25165      300.74894      207.16877      8.3366608      17.631523      17.232945     -64821.72     
    224000   301.49001      130.28489      300.82569      207.16877     -24.492176     -20.213623     -33.177521     -64827.327    
    225000   299.00795      130.25038      300.74601      207.16877      18.436725      36.797288      22.951838     -64832.286    
    226000   301.36925      130.29065      300.83901      207.16877     -31.911738     -30.019946     -41.817872     -64824.69     
    227000   297.51228      130.24776      300.73995      207.16877      8.3749539      39.205307      30.403671     -64836.523    
    228000   301.92103      130.2758       300.80471      207.16877     -14.300941     -24.726405     -15.061633     -64826.309    
    229000   300.45448      130.24953      300.74405      207.16877      7.3006082      44.731861      6.0557349     -64831.941    
    230000   297.84832      130.2788       300.81164      207.16877     -9.923196      -10.87058      -34.932066     -64842.048    
    231000   299.30334      130.26605      300.78219      207.16877      2.6069134      16.636229      6.3085238     -64824.798    
    232000   298.07036      130.26113      300.77083      207.16877     -4.9021128      20.117342     -13.295279     -64836.395    
    233000   299.98538      130.26377      300.77694      207.16877      8.7928233     -7.5581279      25.597052     -64829.406    
    234000   302.37913      130.249        300.74284      207.16877     -10.558408      23.545553     -18.186726     -64833.263    
    235000   299.64637      130.26561      300.78117      207.16877      0.66791166    -2.3969869     -4.7793064     -64828.107    
    236000   300.04983      130.27246      300.79701      207.16877     -11.802763      10.374767     -20.530066     -64826.812    
    237000   299.01534      130.27867      300.81133      207.16877     -8.7420361      9.5592357     -1.0916168     -64835.102    
    238000   301.47075      130.25901      300.76595      207.16877      15.408637     -3.4174608     -19.644263     -64819.957    
    239000   301.37113      130.27535      300.80368      207.16877     -36.248525      0.41530476     4.8573357     -64830.589    
    240000   299.70731      130.22096      300.67808      207.16877      42.588968      26.800171     -20.339912     -64835.892    
    241000   302.93693      130.29965      300.85978      207.16877     -41.69315      -21.750685      33.185317     -64820.89     
    242000   298.77738      130.23127      300.70188      207.16877      49.660731      35.003439     -33.66708      -64833.455    
    243000   299.84794      130.29214      300.84245      207.16877     -35.003614     -4.1181104     -10.075727     -64832.907    
    244000   299.23718      130.25047      300.74622      207.16877      18.591666      20.573645     -19.109855     -64834.984    
    245000   301.84058      130.28913      300.83549      207.16877     -27.47839      -18.776141      13.044227     -64827.554    
    246000   298.60549      130.23066      300.70049      207.16877      35.091699      37.980841     -39.911595     -64841.56     
    247000   299.64934      130.29851      300.85715      207.16877     -23.460654     -21.663639      26.939546     -64831.439    
    248000   301.12283      130.25599      300.75896      207.16877      19.821744      19.074111      2.0261675     -64827.645    
    249000   299.10696      130.28365      300.82284      207.16877     -10.813769     -9.297426      -28.389777     -64846.24     
    250000   299.53158      130.25361      300.75347      207.16877      1.7393918      20.741314      5.7954671     -64829.537    
    251000   298.11298      130.25778      300.7631       207.16877     -6.8970609     -5.9225038     -24.90124      -64833.787    
    252000   304.11143      130.26171      300.77219      207.16877     -11.285115     -3.9239051     -31.168799     -64824.601    
    253000   298.21845      130.27057      300.79264      207.16877     -4.7161086     -5.7736317     -6.4850313     -64833.071    
    254000   300.14688      130.26122      300.77105      207.16877      5.6511808      2.3242525     -14.272699     -64822.892    
    255000   298.59931      130.27234      300.79671      207.16877     -7.9933138      7.1328548      13.248224     -64844.159    
    256000   299.02458      130.26466      300.77898      207.16877     -10.507494      0.90215923    -27.566573     -64836.355    
    257000   299.92521      130.25458      300.75572      207.16877      3.8472987      11.109258      8.7570785     -64840.371    
    258000   298.56277      130.27483      300.80246      207.16877     -20.333056     -8.0285522     -21.047673     -64832.572    
    259000   302.88192      130.26244      300.77386      207.16877      8.217867       11.336224     -3.7612249     -64827.185    
    260000   296.52059      130.29262      300.84354      207.16877     -16.696327     -31.599774     -31.5103       -64834.761    
    261000   300.30502      130.25365      300.75357      207.16877      5.6878501      35.231027      0.5697667     -64831.507    
    262000   300.11423      130.27827      300.81042      207.16877     -27.994433     -31.784119     -26.10864      -64835.242    
    263000   302.376        130.23013      300.69926      207.16877      16.645386      32.772955      2.0246081     -64815.566    
    264000   298.24003      130.26234      300.77363      207.16877     -5.3360647     -11.087363     -0.41591479    -64834.016    
    265000   296.49886      130.25734      300.76209      207.16877      7.7557837      5.7867414      5.5899259     -64838.352    
    266000   299.63856      130.28232      300.81977      207.16877     -31.173153     -13.381774     -25.726675     -64830.566    
    267000   304.24375      130.22714      300.69236      207.16877      41.483442      44.800348     -3.5308048     -64825.333    
    268000   297.91016      130.29141      300.84076      207.16877     -54.192308     -19.879377     -18.41029      -64838.802    
    269000   302.50655      130.23865      300.71894      207.16877      35.089824      26.678571     -4.014754      -64821.75     
    270000   298.17187      130.29058      300.83883      207.16877     -30.430296     -17.821699     -15.039533     -64836.412    
    271000   303.85102      130.27636      300.80601      207.16877     -7.4298434      4.0572996     -18.287667     -64825.412    
    272000   299.55611      130.27762      300.80892      207.16877     -10.926337      2.0840738      12.950841     -64839.227    
    273000   299.7094       130.25816      300.76397      207.16877     -14.470284      25.804542     -17.698256     -64827.257    
    274000   297.25143      130.27326      300.79883      207.16877     -17.346435     -14.866561      9.8853005     -64844.628    
    275000   300.69675      130.22576      300.68917      207.16877      19.407219      43.467282     -38.123294     -64827.683    
    276000   302.25887      130.29466      300.84826      207.16877     -25.045354     -19.267438     -27.287466     -64815.56     
    277000   300.23824      130.25699      300.76127      207.16877      10.905578      32.584612     -4.8657069     -64832.809    
    278000   300.34945      130.2811       300.81695      207.16877     -21.437457     -4.0972527     -1.9099436     -64831.124    
    279000   297.87293      130.24173      300.72605      207.16877      15.166041      30.147676      0.12703965    -64831.163    
    280000   299.60735      130.29282      300.84402      207.16877     -39.869225     -13.49362       1.6436518     -64839.827    
    281000   300.8759       130.23308      300.70607      207.16877      43.518166      20.199209      0.00096913744 -64820.563    
    282000   297.92941      130.28401      300.82367      207.16877     -38.557512     -1.1480106     -24.914578     -64833.085    
    283000   300.74791      130.2721       300.79617      207.16877      18.236418      4.9105095     -17.615814     -64829.323    
    284000   301.3915       130.27656      300.80645      207.16877     -11.386807      8.4785996     -9.3340978     -64827.604    
    285000   300.24773      130.27383      300.80015      207.16877     -22.911094      11.922427     -8.7219474     -64827.649    
    286000   300.73486      130.28135      300.81753      207.16877     -18.220367     -11.754914     -16.585249     -64826.984    
    287000   298.82931      130.25006      300.74528      207.16877      16.20047       25.024457     -30.51967      -64833.764    
    288000   299.07362      130.30862      300.8805       207.16877     -36.202666     -34.945155      15.661022     -64831.007    
    289000   298.22345      130.25156      300.74874      207.16877      6.6443121      34.772654     -18.195433     -64848.448    
    290000   298.41117      130.27382      300.80014      207.16877     -13.860201      9.8617188      16.675997     -64840.335    
    291000   301.86515      130.25957      300.76723      207.16877     -4.4548461      24.535116     -20.284995     -64824.368    
    292000   301.40978      130.30034      300.86137      207.16877     -36.520377     -22.509151     -10.356627     -64829.182    
    293000   299.57821      130.22895      300.69654      207.16877      41.491027      39.950184     -11.536735     -64835.478    
    294000   296.29779      130.31111      300.88624      207.16877     -37.005945     -43.054186     -9.0668463     -64851.191    
    295000   302.31471      130.24458      300.73262      207.16877      18.427547      42.111723     -7.9953478     -64825.8      
    296000   298.13185      130.27221      300.79641      207.16877      1.3561654     -7.5719036     -13.204899     -64836.696    
    297000   301.66944      130.2587       300.76521      207.16877     -8.0360482      29.987962     -7.5180032     -64828.702    
    298000   296.78732      130.28756      300.83187      207.16877     -18.765184     -21.384016     -11.03339      -64841.418    
    299000   300.52521      130.24412      300.73156      207.16877      14.054721      29.703332      4.5648306     -64819.864    
    300000   299.26619      130.28266      300.82055      207.16877     -20.800635     -27.057691     -16.116397     -64835.831    
    301000   301.6839       130.24852      300.74173      207.16877      5.7686339      29.990164     -13.951718     -64831.452    
    302000   300.71291      130.27982      300.814        207.16877     -35.880593     -10.324454     -19.987143     -64826.536    
    303000   298.73301      130.23741      300.71607      207.16877      38.342263      34.82327      -2.3153125     -64832.197    
    304000   298.22669      130.29068      300.83907      207.16877     -52.752012      3.1726168     -6.1107344     -64838.491    
    305000   301.40414      130.22845      300.69538      207.16877      58.132919      19.626411      6.2591614     -64827.311    
    306000   299.18672      130.30712      300.87702      207.16877     -67.385172     -20.983237     -8.82681       -64830.321    
    307000   296.91628      130.22841      300.69528      207.16877      38.869044      27.536543      12.725505     -64841.547    
    308000   300.1589       130.28187      300.81873      207.16877     -31.498389      3.1876539     -14.883173     -64830.034    
    309000   300.46779      130.25997      300.76816      207.16877      12.423805      24.689621     -0.71936571    -64821.327    
    310000   300.58728      130.27988      300.81414      207.16877     -10.130088     -12.310621      7.0153554     -64831.886    
    311000   302.60884      130.24729      300.73888      207.16877      6.2450804      23.256137     -41.131362     -64820.921    
    312000   299.94371      130.2782       300.81025      207.16877     -19.564494     -17.515442      9.0468749     -64834.43     
    313000   299.15122      130.25671      300.76063      207.16877     -13.691899      35.388868     -21.202952     -64835.315    
    314000   301.94723      130.29116      300.84018      207.16877     -0.71230581    -12.350196      37.47829      -64825.205    
    315000   300.17557      130.26689      300.78413      207.16877     -18.477598      17.978251     -55.450376     -64823.811    
    316000   301.0052       130.28537      300.8268       207.16877     -3.2572653     -20.513956      36.627892     -64829.715    
    317000   300.02815      130.25118      300.74786      207.16877     -11.325345      19.926488     -53.432318     -64827.985    
    318000   299.36945      130.27157      300.79494      207.16877      7.4044288     -17.67471       27.164918     -64838.023    
    319000   300.61882      130.2732       300.7987       207.16877     -30.773014      16.407342     -48.156401     -64831.597    
    320000   298.29584      130.27847      300.81086      207.16877      13.171135      7.5023243      30.138381     -64837.51     
    321000   301.58454      130.29493      300.84888      207.16877     -25.206472      7.4413983     -53.89479      -64822.038    
    322000   300.73646      130.27701      300.8075       207.16877     -2.0209997      13.483901      31.341408     -64841.312    
    323000   300.64397      130.26725      300.78496      207.16877      1.0000606     -17.878634     -38.172296     -64827.036    
    324000   300.45145      130.27076      300.79307      207.16877     -27.949435      14.622835      19.17423      -64840.976    
    325000   298.10579      130.27945      300.81315      207.16877     -7.63407       -16.042585     -23.12001      -64836.854    
    326000   301.04989      130.28948      300.8363       207.16877     -15.370971      7.2184783      12.215388     -64821.517    
    327000   300.34658      130.26466      300.779        207.16877     -1.4181891      22.776934     -34.693462     -64832.608    
    328000   301.40658      130.2711       300.79385      207.16877      8.502702      -10.878222      5.900214      -64823.358    
    329000   299.75276      130.2577       300.76293      207.16877     -11.139199      15.12896      -34.829965     -64822.492    
    330000   300.03908      130.26113      300.77084      207.16877      15.910808      1.6482328      40.288859     -64837.889    
    331000   300.92705      130.27664      300.80664      207.16877     -21.039219      6.5101831     -38.111127     -64827.638    
    332000   297.5057       130.27762      300.80891      207.16877      8.6481322      3.6746719      11.246714     -64845.473    
    333000   302.82431      130.28253      300.82025      207.16877     -27.926325      0.85622716    -68.04973      -64825.403    
    334000   301.83992      130.25827      300.76424      207.16877      14.648184      6.1404402      7.0790816     -64833.644    
    335000   300.49448      130.25565      300.75818      207.16877     -6.6702247      6.0098865     -28.981956     -64826.678    
    336000   302.27207      130.27731      300.80819      207.16877     -15.367843     -1.6320423      37.834324     -64827.475    
    337000   297.64066      130.26035      300.76904      207.16877     -5.6299372      19.077718     -67.47859      -64833.721    
    338000   301.55657      130.29503      300.8491       207.16877     -15.180422     -27.109204      56.76262      -64828.159    
    339000   299.08358      130.23319      300.70633      207.16877      17.452072      32.083076     -63.158482     -64840.168    
    340000   301.27923      130.26729      300.78507      207.16877     -6.7392645     -2.6226228      15.327277     -64824.844    
    341000   299.19268      130.24953      300.74404      207.16877     -3.0052682      5.5735126     -40.648247     -64832.293    
    342000   302.87796      130.28462      300.82506      207.16877     -20.452252      6.0849104      31.340273     -64822.915    
    343000   299.13138      130.26415      300.7778       207.16877      23.994678      5.0610782     -40.135478     -64836.73     
    344000   298.50838      130.30407      300.86998      207.16877     -46.352591     -5.9950786      18.206038     -64837.015    
    345000   296.25812      130.24001      300.72208      207.16877      38.955439      12.037213     -28.348213     -64838.972    
    346000   300.8471       130.29486      300.84873      207.16877     -48.294215     -34.063485      13.173234     -64828.482    
    347000   300.661        130.21548      300.66543      207.16877      39.109987      38.869081     -39.205416     -64832.784    
    348000   298.98606      130.29381      300.8463       207.16877     -23.896391     -19.764252      3.9838664     -64839.25     
    349000   298.50313      130.2754       300.80378      207.16877      0.51749776     14.575539     -11.114358     -64831.118    
    350000   301.64679      130.29993      300.86042      207.16877     -21.724025     -8.3866951     -3.2481028     -64828.696    
    351000   298.13708      130.24467      300.73284      207.16877      31.048129      20.648596     -46.108505     -64832.063    
    352000   297.48549      130.28746      300.83162      207.16877     -37.993419     -5.2543549      37.242359     -64841.135    
    353000   299.81883      130.2311       300.70149      207.16877      28.536525      11.693227     -55.180898     -64835.883    
    354000   302.21254      130.30587      300.87413      207.16877     -30.918937     -18.803432      13.2474       -64827.483    
    355000   299.78818      130.26309      300.77536      207.16877      7.5874023      22.543056     -34.066095     -64838.671    
    356000   301.92099      130.29893      300.85811      207.16877     -15.937649     -21.668439      0.042272238   -64823.439    
    357000   296.51173      130.23854      300.71867      207.16877      10.267988      55.776317     -31.865942     -64840.401    
    358000   297.33408      130.29554      300.85029      207.16877     -14.230261     -39.431919      30.355273     -64839.853    
    359000   300.61448      130.23937      300.7206       207.16877      2.4096846      45.211088     -28.857383     -64828.703    
    360000   301.47349      130.28845      300.83392      207.16877     -6.5387491     -29.377061     -5.1668525     -64834.94     
    361000   301.20329      130.25567      300.75822      207.16877      2.6952836      36.407532     -31.873909     -64817.744    
    362000   301.49964      130.30073      300.86228      207.16877     -16.593561     -10.470357      0.79802853    -64825.06     
    363000   299.1619       130.2525       300.75091      207.16877      22.458409      24.99225      -18.798596     -64834.185    
    364000   301.26035      130.2876       300.83195      207.16877     -40.627367     -5.3231163      17.118142     -64825.864    
    365000   300.56075      130.25292      300.75187      207.16877      18.123856      0.47989271    -20.550103     -64834.167    
    366000   301.13882      130.28684      300.8302       207.16877     -37.228277      6.8705027     -14.522118     -64829.181    
    367000   300.46577      130.27183      300.79554      207.16877      23.786469     -2.0192113      4.9507094     -64836.114    
    368000   297.70169      130.28198      300.81898      207.16877     -30.523091      18.024218      5.6800892     -64837.3      
    369000   300.46499      130.26237      300.77369      207.16877      7.9824418      8.0030021     -13.031696     -64816.757    
    370000   299.89792      130.28096      300.81662      207.16877     -16.007618     -4.5231511     -22.668287     -64837.136    
    371000   302.51045      130.27412      300.80083      207.16877     -4.2097543      3.7424063     -5.5541258     -64820.159    
    372000   298.45603      130.28075      300.81613      207.16877     -6.6928946     -1.9957798     -0.6754945     -64839.094    
    373000   299.15005      130.27467      300.80211      207.16877      2.5465746      9.6311279     -10.297384     -64829.432    
    374000   300.04092      130.28272      300.82069      207.16877     -19.130534     -0.78340176    -11.615435     -64833.129    
    375000   299.1944       130.25729      300.76198      207.16877      10.054114      7.3588519     -25.613659     -64837.396    
    376000   301.65786      130.26115      300.77089      207.16877     -7.8395029      5.893463      -1.5076245     -64826.515    
    377000   302.71969      130.26552      300.78097      207.16877      0.43882614     5.521225      -15.434184     -64822.755    
    378000   299.01805      130.27362      300.79968      207.16877      5.9400281     -2.0690829      14.917611     -64836.865    
    379000   301.94991      130.27839      300.81068      207.16877     -21.623672      18.19798      -10.472301     -64822.218    
    380000   299.76732      130.25429      300.75505      207.16877      29.023479      11.829449      0.91220959    -64825.251    
    381000   300.06097      130.26886      300.78869      207.16877     -15.618963      5.7110738     -36.226083     -64834.732    
    382000   299.16353      130.25461      300.75577      207.16877     -2.1424435      12.472445     -2.3149199     -64823.42     
    383000   299.77658      130.27809      300.80999      207.16877     -1.1152073     -25.142719     -9.0273446     -64837.6      
    384000   300.52674      130.24126      300.72496      207.16877      3.4472853      48.720372      4.7008534     -64832.645    
    385000   297.39671      130.29718      300.85407      207.16877     -18.110076     -36.640376     -10.549187     -64843.963    
    386000   298.81993      130.24256      300.72795      207.16877      12.451822      46.51341      -23.053785     -64829.162    
    387000   298.75659      130.29847      300.85705      207.16877     -34.189113     -33.730949     -14.966861     -64834.5      
    388000   299.42791      130.2399       300.72181      207.16877      31.254797      17.774909     -3.7787178     -64832.378    
    389000   299.86011      130.31677      300.8993       207.16877     -70.991593     -32.552315      24.894176     -64834.932    
    390000   300.06601      130.22937      300.69749      207.16877      52.146821      32.914227     -19.944634     -64833.246    
    391000   299.57102      130.30506      300.87226      207.16877     -49.684702     -27.28357      -23.455591     -64837.369    
    392000   302.14748      130.2411       300.72459      207.16877      25.762149      36.808361      1.5519809     -64823.3      
    393000   298.537        130.31196      300.8882       207.16877     -50.61417      -47.278228      6.864553      -64836.615    
    394000   299.88466      130.2151       300.66456      207.16877      54.133024      65.976837      13.983414     -64839.324    
    395000   303.8112       130.29704      300.85375      207.16877     -31.226124     -40.022845     -2.5157558     -64815.768    
    396000   302.00263      130.24227      300.72729      207.16877      21.687791      38.955621     -28.65352      -64833.018    
    397000   298.92594      130.2969       300.85342      207.16877     -42.060931     -29.063084     -27.566918     -64828.795    
    398000   298.75433      130.20274      300.636        207.16877      60.628756      78.160523     -18.264472     -64837.839    
    399000   300.413        130.31202      300.88834      207.16877     -45.065858     -37.678293      20.291246     -64830.665    
    400000   299.68661      130.22434      300.68588      207.16877      36.523658      36.009556     -22.019623     -64838.636    
    401000   300.42475      130.26455      300.77874      207.16877     -22.658534      2.3730961     -9.6916934     -64828.474    
    402000   298.44893      130.23878      300.71922      207.16877      25.972788      18.575383     -14.733982     -64845.755    
    403000   298.1484       130.27808      300.80998      207.16877     -35.293475     -0.31054201    -5.0541634     -64830.167    
    404000   301.23627      130.26139      300.77143      207.16877      12.756342      11.788726      10.221691     -64821.172    
    405000   296.27093      130.28226      300.81962      207.16877     -18.257422     -10.694801     -23.546268     -64844.52     
    406000   303.64808      130.25548      300.75778      207.16877     -1.1161636      21.314805     -22.858858     -64823.257    
    407000   296.81274      130.27841      300.81073      207.16877     -0.048702999   -24.30379      -10.247778     -64844.705    
    408000   301.83126      130.26947      300.79009      207.16877     -21.442274      22.585701     -13.185071     -64819.474    
    409000   301.22062      130.27899      300.81208      207.16877      4.8912266      2.958812       10.243284     -64835.166    
    410000   301.12964      130.2765       300.80632      207.16877     -1.2137034      19.876348     -18.914759     -64822.945    
    411000   300.89274      130.28499      300.82592      207.16877     -9.1458567     -5.133748       17.704177     -64834.775    
    412000   300.01493      130.24744      300.73923      207.16877      22.818087      17.484563     -37.512076     -64831.71     
    413000   296.52933      130.29415      300.84709      207.16877     -31.777332     -22.640209      22.247917     -64840.604    
    414000   301.44819      130.24331      300.7297       207.16877      24.092019      22.136965     -36.169426     -64825.036    
    415000   298.07833      130.3074       300.87768      207.16877     -52.405547     -25.251221      13.194277     -64845.779    
    416000   300.80858      130.23967      300.72129      207.16877      47.936407      37.484651     -43.283532     -64831.598    
    417000   301.04296      130.29723      300.8542       207.16877     -34.941199     -8.145145       7.3324228     -64832.212    
    418000   299.49664      130.24939      300.74374      207.16877      23.582169      13.269397     -22.208602     -64836.186    
    419000   300.9776       130.2791       300.81234      207.16877     -15.094244     -12.780289     -11.164139     -64832.486    
    420000   301.57154      130.25612      300.75927      207.16877      4.949161       32.088923      16.364395     -64817.591    
    421000   298.79859      130.27846      300.81085      207.16877      3.205486      -18.810599     -39.699878     -64835.524    
    422000   302.16306      130.26865      300.7882       207.16877     -16.318723      33.885869      14.258691     -64818.011    
    423000   300.68237      130.27428      300.8012       207.16877      2.9724266     -15.001113     -14.125003     -64833.099    
    424000   302.83729      130.26365      300.77665      207.16877     -20.486176     -0.98032426     5.9977106     -64816.072    
    425000   297.17144      130.24593      300.73573      207.16877      19.655311      3.592999      -29.590924     -64831.446    
    426000   300.30469      130.29531      300.84976      207.16877     -45.076893     -16.772408     -18.726004     -64825.24     
    427000   297.90911      130.24353      300.7302       207.16877      21.108522      39.146189      12.346863     -64845.117    
    428000   299.42034      130.3142       300.89337      207.16877     -42.814179     -34.881903     -21.264128     -64832.044    
    429000   299.43737      130.23225      300.70416      207.16877      34.832819      58.276579      21.445778     -64829.848    
    430000   303.53051      130.31154      300.88723      207.16877     -51.345332     -55.43857      -56.455766     -64824.232    
    431000   301.35521      130.21807      300.6714       207.16877      48.704838      64.051842      26.072902     -64820.11     
    432000   299.73321      130.32082      300.90865      207.16877     -67.680214     -38.772409     -32.275838     -64833.181    
    433000   302.30412      130.24294      300.72883      207.16877      54.952658      24.930692      15.839957     -64827.604    
    434000   299.72434      130.30393      300.86966      207.16877     -63.918091     -7.5077096     -35.229391     -64833.163    
    435000   299.46247      130.2171       300.66916      207.16877      77.290507      30.956701     -6.7904805     -64834.611    
    436000   297.38336      130.31769      300.90144      207.16877     -80.787824     -39.558962     -5.6481261     -64843.159    
    437000   299.79681      130.21984      300.67549      207.16877      46.249316      36.187516      5.8514521     -64830.804    
    438000   298.53043      130.30097      300.86282      207.16877     -40.578169     -43.301826     -14.277862     -64843.628    
    439000   300.90605      130.2205       300.67703      207.16877      29.232977      68.062055     -0.65223223    -64833.731    
    440000   301.06235      130.34339      300.96077      207.16877     -61.044728     -87.514482     -10.004875     -64829.013    
    441000   303.97886      130.22359      300.68416      207.16877      37.490563      63.91194      -2.2069733     -64826.479    
    442000   300.57712      130.29439      300.84764      207.16877     -34.762523     -33.183534     -26.831436     -64826.076    
    443000   297.94484      130.23417      300.70859      207.16877      25.633887      39.398315      12.346477     -64839.903    
    444000   297.37309      130.32717      300.92331      207.16877     -56.118515     -58.995919      4.4243511     -64838.256    
    445000   299.84398      130.24005      300.72217      207.16877      40.80687       44.358686     -4.041167      -64834.459    
    446000   298.76066      130.28972      300.83686      207.16877     -29.832342     -31.84509      -21.26334      -64831.963    
    447000   300.2836       130.25609      300.75919      207.16877      10.392092      30.926422      15.170268     -64827.244    
    448000   300.9285       130.29804      300.85606      207.16877     -32.241361     -42.313919     -38.596906     -64831.032    
    449000   301.66412      130.23294      300.70576      207.16877      31.334745      65.423043      7.4044139     -64820.791    
    450000   299.30519      130.32291      300.91349      207.16877     -44.736041     -64.384246     -40.966216     -64835.447    
    451000   301.44989      130.23397      300.70813      207.16877      36.309679      65.842765      11.756219     -64825.064    
    452000   298.72175      130.30342      300.86848      207.16877     -41.09841      -18.465657     -30.948757     -64834.499    
    453000   300.22089      130.25442      300.75534      207.16877      35.855101      13.064702      38.068745     -64835.063    
    454000   300.43233      130.31065      300.88517      207.16877     -70.731416     -16.017282     -52.953992     -64838.132    
    455000   300.42648      130.25268      300.75132      207.16877      40.431817      25.73032       34.975099     -64834.969    
    456000   299.28326      130.30954      300.88261      207.16877     -49.086977     -33.316153     -81.671836     -64832.171    
    457000   302.34682      130.26037      300.76907      207.16877      20.420292      48.353731      59.090969     -64821.988    
    458000   299.25381      130.30241      300.86615      207.16877     -37.724332     -37.51112      -93.001725     -64833.845    
    459000   302.00231      130.26008      300.76841      207.16877     -0.41157813     42.370876      72.819779     -64822.074    
    460000   298.28067      130.27873      300.81146      207.16877     -26.820318     -15.427695     -81.637143     -64836.082    
    461000   299.45042      130.26401      300.77748      207.16877      2.8577221      15.046073      39.495841     -64834.788    
    462000   302.01512      130.29089      300.83955      207.16877     -48.483005     -7.05623       -57.427782     -64828.018    
    463000   298.94072      130.24059      300.7234       207.16877      47.720928      37.733583      54.048834     -64834.617    
    464000   296.84154      130.29233      300.84287      207.16877     -52.550197     -18.09478      -67.411025     -64839.859    
    465000   301.5036       130.22567      300.68895      207.16877      39.103799      61.117425      68.117906     -64825.537    
    466000   298.99984      130.28998      300.83745      207.16877     -42.681668     -32.606227     -92.520582     -64828.176    
    467000   299.90223      130.25368      300.75364      207.16877      10.770467      35.919203      58.862325     -64829.408    
    468000   300.44122      130.28181      300.81859      207.16877     -9.2034335     -23.996198     -54.666473     -64820.293    
    469000   299.02338      130.26713      300.7847       207.16877     -8.1800179      30.552872      60.114189     -64833.682    
    470000   301.47087      130.27936      300.81293      207.16877     -17.534999     -14.390746     -73.619065     -64819.817    
    471000   300.45803      130.26601      300.78211      207.16877     -7.8854074      19.347179      74.604568     -64836.198    
    472000   301.4389       130.26143      300.77152      207.16877     -23.63953      -0.28066863    -90.492423     -64821.514    
    473000   297.92398      130.25199      300.74973      207.16877      16.733044      21.701716      46.482127     -64845.184    
    474000   302.43965      130.27212      300.79621      207.16877     -16.166333     -0.51558196    -46.932835     -64827.433    
    475000   299.97207      130.25889      300.76567      207.16877      0.57036366     18.265759      18.354055     -64828.302    
    476000   297.97094      130.26147      300.77162      207.16877      5.2653755      5.8006606     -28.743223     -64835.523    
    477000   303.89662      130.28545      300.827        207.16877     -23.640055     -10.168803      23.387371     -64815.906    
    478000   298.21833      130.25066      300.74667      207.16877      14.14333       18.451194     -24.216025     -64833.564    
    479000   298.92097      130.28845      300.83391      207.16877     -17.384417     -23.27962      -18.59176      -64829.345    
    480000   300.22353      130.24037      300.72291      207.16877      9.7123912      35.104899     -22.583954     -64833.85     
    481000   299.00796      130.29151      300.84099      207.16877     -22.352261     -29.126648      3.1947944     -64837.203    
    482000   302.47025      130.25587      300.75868      207.16877     -5.7063801      18.753968     -0.77764674    -64823.972    
    483000   295.81663      130.27054      300.79255      207.16877     -12.671006     -12.874611      3.8109925     -64848.743    
    484000   300.80165      130.25021      300.74561      207.16877      20.84621       8.7929938     -17.77746      -64827.885    
    485000   299.79853      130.29289      300.84417      207.16877     -34.938474     -12.927768     -5.5150506     -64827.569    
    486000   303.75052      130.23687      300.71483      207.16877      25.115169      34.566783     -16.733784     -64820.132    
    487000   298.99037      130.30478      300.87162      207.16877     -51.486102     -37.169088      14.141689     -64834.077    
    488000   300.35743      130.22409      300.68531      207.16877      34.264339      55.648113     -19.101872     -64831.973    
    489000   301.74647      130.31185      300.88794      207.16877     -32.30147      -54.558057      7.5211996     -64823.862    
    490000   297.67583      130.24183      300.72627      207.16877      24.981903      40.656544     -18.652282     -64843.394    
    491000   301.33002      130.28894      300.83505      207.16877     -1.1529724     -26.704417      2.0610229     -64832.224    
    492000   299.98847      130.25007      300.74529      207.16877      5.6393793      31.554319     -11.422668     -64826.096    
    493000   300.12557      130.30068      300.86216      207.16877     -32.353816     -24.916851      8.0438503     -64833.824    
    494000   300.34975      130.24071      300.7237       207.16877      38.69912       37.3994       -30.03324      -64825.799    
    495000   296.29982      130.30527      300.87276      207.16877     -39.959834     -29.974343      2.7560255     -64835.481    
    496000   301.30997      130.23218      300.70399      207.16877      28.016274      35.708969     -24.083546     -64829.486    
    497000   299.48923      130.28653      300.82947      207.16877     -27.416058     -16.22909       4.5294037     -64835.566    
    498000   301.27424      130.24993      300.74497      207.16877      0.67380356     33.346088     -9.0009674     -64828.743    
    499000   298.47369      130.2773       300.80817      207.16877     -16.003523     -19.073744     -35.285806     -64834.69     
    500000   304.67686      130.23936      300.72056      207.16877      32.067081      50.867438      22.046789     -64816.667    
    501000   297.27114      130.3007       300.86221      207.16877     -41.530728     -29.996414     -47.783368     -64840.952    
    502000   297.57752      130.24902      300.74287      207.16877      26.183114      19.477112      20.064399     -64830.78     
    503000   298.80749      130.27148      300.79474      207.16877     -29.493473     -0.0033018239  -42.836        -64836.953    
    504000   300.36927      130.25297      300.752        207.16877      10.242609      19.989652     -9.4771847     -64827.903    
    505000   298.86387      130.29996      300.8605       207.16877     -39.156383     -17.284771     -15.13932      -64837.216    
    506000   300.02492      130.25586      300.75867      207.16877      3.8199509      31.526071     -11.89302      -64837.664    
    507000   299.30428      130.28281      300.8209       207.16877     -11.614006     -18.064775     -20.790609     -64830.859    
    508000   301.69181      130.25681      300.76086      207.16877     -9.9070726      35.079521      4.1672268     -64830.66     
    509000   296.09687      130.27162      300.79507      207.16877     -0.64646273    -23.3622       -22.756665     -64844.295    
    510000   299.37861      130.24766      300.73972      207.16877     -6.0337654      52.017298      6.6606181     -64829.486    
    511000   298.41602      130.28301      300.82137      207.16877     -9.1168857     -24.170092     -26.829854     -64835.652    
    512000   301.1658       130.26217      300.77323      207.16877     -3.5269705      23.753558     -20.197373     -64822.006    
    513000   301.968        130.28235      300.81984      207.16877     -22.157988     -14.115611     -4.7411585     -64827.026    
    514000   300.81462      130.26032      300.76896      207.16877     -3.5234382      3.1236418     -4.7310362     -64827.516    
    515000   299.49729      130.27102      300.79368      207.16877     -12.823169      3.4597649      9.944088      -64833.321    
    516000   300.24332      130.28044      300.81542      207.16877     -13.728767     -11.15079      -19.256605     -64830.12     
    517000   297.34786      130.25786      300.76328      207.16877      15.132133      24.917416     -12.813226     -64841.54     
    518000   299.87112      130.27582      300.80474      207.16877     -3.0312196     -8.0451369     -12.938749     -64829.531    
    519000   300.21144      130.27195      300.79583      207.16877     -20.444439      15.478754     -18.683053     -64827.51     
    520000   297.40699      130.26793      300.78654      207.16877     -0.36795553    -16.313774      1.7037661     -64834.551    
    521000   302.46994      130.25257      300.75108      207.16877     -15.284522      35.738733     -22.212648     -64826.517    
    522000   298.62061      130.27944      300.81312      207.16877      4.2828351     -18.778984      5.2063003     -64832.956    
    523000   297.69454      130.25046      300.74621      207.16877      11.795328      20.923218     -37.863564     -64834.118    
    524000   301.62859      130.29555      300.85031      207.16877     -19.012019      0.79630347     16.524364     -64826.742    
    525000   302.01471      130.2557       300.75829      207.16877      24.083133      12.422976     -26.242872     -64825.174    
    526000   299.03841      130.30177      300.86467      207.16877     -47.490659     -6.7254186      38.059336     -64840.177    
    527000   296.26242      130.24982      300.74472      207.16877      34.551208      12.106025     -53.41937      -64843.443    
    528000   301.97267      130.29835      300.85678      207.16877     -23.449622      4.4909958      9.2280007     -64828.225    
    529000   298.81118      130.26706      300.78452      207.16877      4.7499855      21.272983     -29.762301     -64823.726    
    530000   299.6137       130.30268      300.86677      207.16877     -16.915416     -20.725161      23.612447     -64830.857    
    531000   301.1446       130.24331      300.72968      207.16877      18.819587      56.089548     -34.412256     -64830.792    
    532000   298.58258      130.30552      300.87332      207.16877     -32.554322     -45.110677      32.193554     -64842.431    
    533000   299.58984      130.21993      300.6757       207.16877      34.0781        61.099781     -16.65054      -64830.916    
    534000   297.1943       130.29773      300.85535      207.16877     -29.787405     -20.488756     -17.78364      -64841.44     
    535000   301.34028      130.26317      300.77554      207.16877      14.634089      15.960836     -7.2956497     -64826.748    
    536000   298.10339      130.29277      300.84389      207.16877     -36.567178     -9.3087018     -30.339578     -64834.037    
    537000   301.28679      130.23379      300.7077       207.16877      38.359876      32.910203      23.527147     -64832.139    
    538000   299.13259      130.29159      300.84117      207.16877     -51.10755      -26.150912     -23.996244     -64832.608    
    539000   300.46991      130.22603      300.68979      207.16877      44.465824      61.122419      4.551242      -64830.98     
    540000   298.60352      130.32977      300.92932      207.16877     -61.793083     -56.260038     -26.455224     -64828.919    
    541000   301.44236      130.24856      300.74182      207.16877      20.792052      42.338894      9.0648566     -64833.334    
    542000   299.23749      130.29644      300.85237      207.16877     -25.405293     -14.410233     -0.62341747    -64829.832    
    543000   301.01299      130.25637      300.75984      207.16877      5.4188329      19.146826      0.41711259    -64831.402    
    544000   300.65991      130.27186      300.7956       207.16877     -21.62669       5.7876348     -11.999925     -64827.957    
    545000   301.76657      130.24821      300.741        207.16877      32.10494       22.589294     -26.013312     -64821.538    
    546000   298.19027      130.309        300.88136      207.16877     -66.716372      0.058163807   -12.306423     -64836.923    
    547000   299.68987      130.24284      300.72859      207.16877      46.675927      25.271082     -0.060998222   -64835.893    
    548000   298.71833      130.29694      300.85352      207.16877     -47.757103     -5.1385978      2.362019      -64839.72     
    549000   298.6318       130.25809      300.76382      207.16877     -3.5259316      26.049954     -11.644914     -64836.386    
    550000   300.60253      130.28661      300.82967      207.16877     -5.6682756     -6.1513377      2.6607666     -64837.127    
    551000   300.64722      130.26865      300.7882       207.16877     -8.2566359      23.023798     -47.276051     -64827.365    
    552000   298.07855      130.30578      300.87394      207.16877     -25.422781     -17.544518      25.916753     -64833.386    
    553000   303.65829      130.25025      300.74571      207.16877      32.034821      29.323849     -30.592929     -64825.476    
    554000   300.63731      130.31026      300.88427      207.16877     -59.618252     -12.060648      10.092266     -64834.774    
    555000   299.81646      130.25031      300.74586      207.16877      26.843507      11.230365     -16.051763     -64827.443    
    556000   297.81527      130.30122      300.8634       207.16877     -38.089336     -9.1028831     -4.9171916     -64845.438    
    557000   299.44814      130.2469       300.73797      207.16877      17.454375      53.088426     -30.988095     -64836.157    
    558000   301.25652      130.32263      300.91285      207.16877     -34.154738     -56.472032      20.118198     -64826.061    
    559000   301.78733      130.24224      300.72723      207.16877      5.5254261      55.036521     -21.615047     -64825.533    
    560000   298.71934      130.2816       300.81811      207.16877     -14.430531     -6.1305573      17.13437      -64831.408    
    561000   298.70402      130.26334      300.77594      207.16877     -5.6080096      10.002504     -44.263642     -64835.964    
    562000   301.62784      130.2893       300.83588      207.16877     -22.716472      0.35888834     21.534559     -64819.27     
    563000   299.2866       130.25424      300.75493      207.16877      23.043776      15.710399     -55.741039     -64830.763    
    564000   301.59322      130.30732      300.8775       207.16877     -52.964891     -16.499448      22.238945     -64830.979    
    565000   301.31644      130.25358      300.75341      207.16877      24.431807      1.9872379     -35.335507     -64824.146    
    566000   302.35868      130.28222      300.81952      207.16877     -25.029735     -2.027941      -5.0999371     -64831.798    
    567000   300.3775       130.25691      300.76108      207.16877      17.943934      17.902851     -2.834279      -64833.1      
    568000   300.06463      130.31195      300.88818      207.16877     -36.638107     -36.68104       9.1393291     -64827.615    
    569000   301.04795      130.22533      300.68817      207.16877      45.258838      63.812998     -28.225879     -64819.877    
    570000   303.23531      130.31954      300.9057       207.16877     -44.782258     -38.68317      -8.1023823     -64824.605    
    571000   300.63615      130.24126      300.72496      207.16877      32.585016      42.694018     -12.31163      -64829.992    
    572000   298.56165      130.30096      300.86281      207.16877     -41.146324     -20.718737     -13.896871     -64835.253    
    573000   299.18503      130.2253       300.6881       207.16877      54.537813      36.795664     -19.756644     -64838.984    
    574000   300.28189      130.33905      300.95075      207.16877     -79.73731      -51.555544     -4.0425217     -64832.052    
    575000   303.75809      130.23655      300.71409      207.16877      49.838244      41.887925      17.643961     -64812.269    
    576000   300.34904      130.30615      300.87479      207.16877     -34.715404     -26.21966      -21.040527     -64832.312    
    577000   299.1054       130.23782      300.717        207.16877      31.574397      46.365914      6.898172      -64831.29     
    578000   300.11554      130.31486      300.89489      207.16877     -49.995382     -50.417168     -8.3498509     -64831.658    
    579000   297.51675      130.22093      300.67801      207.16877      40.415473      56.305202     -16.070866     -64839.461    
    580000   300.76587      130.29281      300.84398      207.16877     -23.172243     -15.191817     -3.9377956     -64818.733    
    581000   299.80524      130.26518      300.78019      207.16877      12.933466      21.116569     -15.524751     -64833.676    
    582000   301.88893      130.30204      300.8653       207.16877     -38.576925     -11.538885     -16.280515     -64822.739    
    583000   298.14243      130.23698      300.71508      207.16877      36.361888      39.610013     -14.243492     -64837.301    
    584000   301.41184      130.31191      300.88808      207.16877     -47.872653     -31.962693      25.148613     -64829.465    
    585000   296.24213      130.24041      300.72299      207.16877      33.497127      39.765648     -21.506121     -64845.799    
    586000   301.42976      130.30185      300.86486      207.16877     -20.385469     -36.585659     -3.0686519     -64827.911    
    587000   300.50362      130.24818      300.74094      207.16877      10.791645      55.0168       -46.17857      -64827.659    
    588000   297.55892      130.30838      300.87994      207.16877     -14.873816     -37.360258      23.975969     -64836.319    
    589000   297.79078      130.25871      300.76525      207.16877     -0.35496797     39.693753     -35.481221     -64842.718    
    590000   301.70458      130.29751      300.85483      207.16877     -10.296867     -13.935633      34.815274     -64829.52     
    591000   300.53781      130.26994      300.79117      207.16877      2.4672892      5.599242      -46.627878     -64828.774    
    592000   300.62572      130.29884      300.85791      207.16877     -31.736585      2.7637308      21.061295     -64834.364    
    593000   299.39948      130.24388      300.73101      207.16877      51.095673      32.663949     -60.443341     -64835.749    
    594000   300.12627      130.33195      300.93436      207.16877     -63.251085     -30.740235      44.761209     -64833.428    
    595000   300.48855      130.26266      300.77437      207.16877      1.9649077      24.760839     -34.581542     -64820.537    
    596000   300.39346      130.29625      300.85193      207.16877     -7.9373977     -30.760226      1.7374095     -64832.68     
    597000   302.52374      130.24488      300.73332      207.16877      9.168139       59.502782     -48.851711     -64809.782    
    598000   302.91395      130.328        300.92523      207.16877     -42.757073     -52.167605      15.815239     -64825.14     
    599000   302.90158      130.25725      300.76188      207.16877      17.8192        39.891411      5.5699842     -64825.213    
    600000   298.57301      130.29422      300.84724      207.16877     -18.912598     -17.77809       13.696951     -64835.829    
    601000   300.00234      130.2645       300.77861      207.16877      9.1598938      26.582893     -16.564462     -64824.86     
    602000   298.7555       130.31726      300.90044      207.16877     -45.118719     -29.325821     -13.31728      -64832.187    
    603000   298.04289      130.22415      300.68544      207.16877      62.590322      55.699633     -33.270392     -64829.45     
    604000   302.14636      130.32647      300.9217       207.16877     -58.737087     -34.70729       3.9663548     -64826.899    
    605000   300.59356      130.25212      300.75004      207.16877      32.984161      37.125885     -7.5177699     -64832.518    
    606000   299.16165      130.31574      300.89693      207.16877     -39.03674      -34.327805     -17.357949     -64827.38     
    607000   299.43097      130.22017      300.67626      207.16877      46.601739      68.129368     -28.696126     -64830.685    
    608000   300.70401      130.33834      300.94912      207.16877     -61.195964     -59.088217      19.50499      -64832.812    
    609000   301.51172      130.24076      300.7238       207.16877      33.378717      44.368999      7.8900975     -64830.954    
    610000   300.31186      130.29619      300.85179      207.16877     -37.875632     -16.208257     -4.4652319     -64838.398    
    611000   298.50219      130.24026      300.72265      207.16877      39.057666      38.503673     -11.676235     -64834.577    
    612000   302.58406      130.3146       300.8943       207.16877     -66.822271     -31.466875     -43.898569     -64818.776    
    613000   300.81077      130.22687      300.69174      207.16877      61.185686      47.753494     -6.4590496     -64826.663    
    614000   296.50578      130.30301      300.86754      207.16877     -42.565764     -20.079252     -2.2190759     -64841.406    
    615000   301.26327      130.251        300.74745      207.16877      32.966585      21.537381      37.704995     -64832.376    
    616000   298.75122      130.28223      300.81955      207.16877     -23.051793     -19.697675     -21.462474     -64830.636    
    617000   296.44493      130.23833      300.7182       207.16877      14.851751      46.32277      -4.8494204     -64843.58     
    618000   300.17542      130.30337      300.86836      207.16877     -26.980651     -36.841246     -13.211424     -64829.987    
    619000   299.6999       130.23396      300.7081       207.16877      30.596586      63.403631      1.9313501     -64833.545    
    620000   298.95706      130.31956      300.90574      207.16877     -44.574501     -61.525057      8.8744109     -64833.961    
    621000   300.10603      130.23052      300.70015      207.16877      32.457588      56.923202     -4.1943428     -64833.988    
    622000   299.41656      130.3179       300.90191      207.16877     -53.481263     -44.469708     -61.863226     -64834.757    
    623000   302.30881      130.25053      300.74635      207.16877      22.442879      37.856081      6.8468205     -64819.588    
    624000   298.86577      130.28998      300.83745      207.16877     -8.9676067     -15.06519      -41.60951      -64839.103    
    625000   299.42251      130.2775       300.80863      207.16877     -5.8178818      25.645709      25.627773     -64831.671    
    626000   300.59472      130.28156      300.818        207.16877      3.719528      -12.348744     -24.894989     -64836.01     
    627000   302.11853      130.28569      300.82755      207.16877     -20.923486      8.0842966      13.982487     -64822.239    
    628000   298.83227      130.26931      300.78972      207.16877      5.3627408     -0.40780287    -20.919555     -64837.24     
    629000   301.55644      130.2758       300.80472      207.16877      3.7499737      10.439912     -7.2210372     -64823.235    
    630000   299.24138      130.29361      300.84583      207.16877     -23.590618     -5.4157367     -19.440193     -64832.77     
    631000   298.52219      130.25435      300.75517      207.16877      26.560519      8.0398209     -5.7941846     -64834.674    
    632000   298.67508      130.28048      300.81553      207.16877     -19.063286      5.7335719      11.831829     -64822.966    
    633000   300.3237       130.245        300.7336       207.16877      15.105288      22.507281     -44.73514      -64827.666    
    634000   299.70838      130.30349      300.86863      207.16877     -28.682097     -28.689273      28.060287     -64843.376    
    635000   302.14581      130.24617      300.7363       207.16877      13.201935      39.64668      -33.190817     -64827.452    
    636000   300.21587      130.30582      300.87403      207.16877     -13.464679     -28.1195        47.543904     -64837.726    
    637000   300.9561       130.25984      300.76787      207.16877     -0.19773378     25.143917     -41.265219     -64830.671    
    638000   300.09428      130.28318      300.82175      207.16877     -8.23563       -0.44874642     23.885808     -64827.662    
    639000   302.92207      130.25673      300.76068      207.16877      8.5005388      9.9330705     -57.984227     -64832.769    
    640000   296.26067      130.30946      300.88244      207.16877     -40.694476     -17.340238      32.97822      -64837.829    
    641000   296.44104      130.25445      300.75542      207.16877      26.552131      19.11255      -49.534144     -64843.388    
    642000   300.35296      130.29329      300.84509      207.16877     -17.761109      4.7824112      27.902559     -64829.229    
    643000   299.12817      130.26679      300.7839       207.16877     -3.6870839      35.438597     -35.266987     -64836.613    
    644000   299.47013      130.28282      300.82091      207.16877      5.1879148     -13.156775      3.1300615     -64831.155    
    645000   297.61105      130.27694      300.80735      207.16877     -30.481461      24.330288     -32.387722     -64847.814    
    646000   301.73184      130.27759      300.80884      207.16877      15.168301     -3.8702217      12.339817     -64824.173    
    647000   298.0948       130.27973      300.81378      207.16877     -16.153741      35.427339     -24.2841       -64843.992    
    648000   299.17438      130.31427      300.89354      207.16877     -25.416812     -23.463222      0.98533264    -64831.825    
    649000   299.30108      130.27709      300.80768      207.16877      16.236496      12.982192     -5.2715847     -64828.357    
    650000   299.26683      130.28347      300.82241      207.16877     -30.706487      17.118146     -15.836356     -64833.428    
    651000   301.10543      130.27398      300.8005       207.16877      14.952438     -9.461132       12.713999     -64828.899    
    652000   300.67546      130.28129      300.81738      207.16877     -16.587847      14.940115     -34.443823     -64823.907    
    653000   299.26958      130.29278      300.84392      207.16877     -7.4113722     -8.3099496      29.134881     -64833.046    
    654000   299.9079       130.26377      300.77694      207.16877      7.4916038      14.353809     -47.260764     -64831.695    
    655000   301.16868      130.28633      300.82903      207.16877     -21.643807     -1.9014946      11.673183     -64825.679    
    656000   300.6083       130.25934      300.76671      207.16877      15.762548      1.6556085     -25.353833     -64831.163    
    657000   300.82173      130.2882       300.83334      207.16877     -14.312401     -9.6071979     -3.7342314     -64828.349    
    658000   300.63811      130.23285      300.70554      207.16877      29.774494      60.70772      -37.997344     -64830.879    
    659000   301.14724      130.31406      300.89305      207.16877     -21.604199     -35.484619      36.932853     -64824.112    
    660000   297.1502       130.24507      300.73375      207.16877      14.738868      54.589481     -20.014734     -64836.851    
    661000   299.63359      130.2981       300.85619      207.16877     -18.740966     -37.877926     -0.0050267074  -64836.026    
    662000   301.06902      130.23714      300.71544      207.16877      24.514985      39.279767     -48.63538      -64833.409    
    663000   301.13504      130.31542      300.89618      207.16877     -47.081361     -32.424569      21.2119       -64827.174    
    664000   300.28957      130.24324      300.72952      207.16877      37.206378      28.093889     -34.374022     -64837.697    
    665000   296.49613      130.2969       300.85343      207.16877     -45.464166     -9.2728566      5.6830767     -64848.882    
    666000   298.81855      130.24494      300.73345      207.16877      32.409707      17.127643     -23.904715     -64830.231    
    667000   298.84754      130.30105      300.863        207.16877     -33.094629     -18.468954      20.843867     -64832.332    
    668000   299.7061       130.23985      300.72171      207.16877      24.889079      28.061281     -41.605218     -64829.127    
    669000   298.28762      130.30255      300.86648      207.16877     -26.032858     -27.670093      21.353641     -64832.066    
    670000   296.90105      130.24189      300.72641      207.16877      23.403621      44.11075      -37.409276     -64845.575    
    671000   300.36951      130.33061      300.93125      207.16877     -50.40945      -53.059251      25.810668     -64829.588    
    672000   298.89101      130.24498      300.73354      207.16877      19.732747      27.059437     -28.004754     -64837.775    
    673000   300.64001      130.29301      300.84445      207.16877     -29.444633     -7.9298659      28.304057     -64827.17     
    674000   301.03362      130.26459      300.77883      207.16877      10.640058      8.002907      -31.092781     -64830.378    
    675000   301.57265      130.31882      300.90405      207.16877     -45.051927     -39.943775      9.385029      -64831.062    
    676000   300.61239      130.24215      300.72702      207.16877      26.998112      38.403097     -37.876673     -64819.551    
    677000   301.55992      130.30251      300.86638      207.16877     -25.538822     -26.6081        23.361573     -64830.488    
    678000   297.86609      130.24864      300.74201      207.16877      9.4623671      35.288302     -21.815644     -64840.403    
    679000   302.48795      130.291        300.83979      207.16877     -22.041198     -15.562364     -11.124011     -64827.843    
    680000   296.53433      130.24748      300.73931      207.16877      22.2639        21.734551     -20.421001     -64838.9      
    681000   302.17207      130.30516      300.87249      207.16877     -46.010267     -19.169944     -4.2865071     -64817.507    
    682000   298.47277      130.23992      300.72187      207.16877      48.421368      27.457879     -31.610697     -64836.689    
    683000   300.37921      130.32309      300.91391      207.16877     -68.403002     -10.315215      32.564473     -64830.568    
    684000   295.98877      130.24443      300.73227      207.16877      37.604996      22.572878     -19.449268     -64848.198    
    685000   299.2443       130.29299      300.84441      207.16877     -34.565096     -4.5694923     -4.632968      -64829.932    
    686000   298.04831      130.25931      300.76663      207.16877      4.8782252      9.0148708     -21.935974     -64836.347    
    687000   299.99342      130.30536      300.87296      207.16877     -34.211039     -13.323204      0.74655718    -64822.046    
    688000   299.56359      130.2424       300.7276       207.16877      40.181895      43.683514     -22.547168     -64833.014    
    689000   297.63294      130.3219       300.91115      207.16877     -60.539899     -26.203129     -9.4303945     -64846.22     
    690000   299.13544      130.2711       300.79385      207.16877      18.030827      2.2431889     -18.744805     -64830.928    
    691000   299.87329      130.28889      300.83494      207.16877     -27.134096      17.774465     -7.3471396     -64831.818    
    692000   301.8227       130.28572      300.82762      207.16877      2.7245431     -12.220811     -15.278772     -64831.581    
    693000   301.46872      130.29136      300.84064      207.16877     -21.084719      5.969088       15.771517     -64832.021    
    694000   299.13076      130.28746      300.83163      207.16877     -12.412638      1.2594588     -15.111117     -64828.782    
    695000   300.85216      130.26121      300.77102      207.16877      13.779804      8.2213153     -0.53223038    -64830.149    
    696000   300.41527      130.27026      300.79192      207.16877     -34.654362      22.553982     -26.074738     -64834.085    
    697000   300.22403      130.26167      300.77209      207.16877      32.817337     -9.1720696     -13.507165     -64830.591    
    698000   302.32426      130.26506      300.77991      207.16877     -16.310149      24.900766      1.7469339     -64822.702    
    699000   301.02357      130.27476      300.8023       207.16877      15.572021     -4.8692008      5.760765      -64832.457    
    700000   299.21323      130.27862      300.81122      207.16877     -12.929745      4.4918772      12.626219     -64833.405    
    701000   298.05821      130.26738      300.78527      207.16877     -2.5330157      6.8372897     -37.020605     -64828.808    
    702000   301.23888      130.27943      300.81309      207.16877     -11.826109     -4.2038188     -20.841409     -64834.555    
    703000   299.6836       130.26577      300.78154      207.16877      8.5959529      14.458311     -23.096205     -64829.873    
    704000   297.59599      130.29393      300.84657      207.16877     -22.388629     -9.1872409      10.017041     -64839.173    
    705000   296.72751      130.25003      300.74521      207.16877      28.345168      24.579527     -17.47114      -64832.945    
    706000   299.5914       130.29105      300.83993      207.16877     -21.971657     -6.9749311      13.495513     -64834.323    
    707000   299.6699       130.25685      300.76096      207.16877      18.144581      15.922944     -31.16287      -64830.999    
    708000   298.88587      130.29153      300.84102      207.16877     -28.31663      -0.42910522     16.254482     -64833.35     
    709000   297.81512      130.24025      300.72262      207.16877      32.179379      31.766487     -31.090293     -64843.845    
    710000   299.22344      130.3239       300.91576      207.16877     -54.937677     -45.576167      25.847456     -64833.629    
    711000   300.651        130.23959      300.72111      207.16877      13.133889      38.932649     -51.320536     -64823.664    
    712000   300.48456      130.29107      300.83996      207.16877     -5.2001405     -21.552083      20.562143     -64834.697    
    713000   299.45615      130.24961      300.74424      207.16877      0.081954385    41.98355      -28.290205     -64834.737    
    714000   300.28904      130.30181      300.86477      207.16877     -9.3370955     -31.830139      29.159254     -64838.665    
    715000   299.41636      130.25092      300.74726      207.16877      10.320113      33.002933     -46.556189     -64824.23     
    716000   300.15338      130.2867       300.82987      207.16877     -7.4951196     -6.365187       28.466576     -64833.982    
    717000   301.59283      130.25385      300.75404      207.16877      7.3347978      6.6824354     -67.105266     -64823.573    
    718000   301.13059      130.28089      300.81645      207.16877     -27.79189       6.5437947      42.44674      -64837.918    
    719000   302.3163       130.25054      300.74638      207.16877      17.599753      6.1650373     -47.988404     -64827.842    
    720000   299.17597      130.30395      300.86972      207.16877     -37.985312     -16.213484      59.634957     -64839.471    
    721000   300.95177      130.25043      300.74612      207.16877      13.547266      18.186977     -71.176032     -64832.03     
    722000   297.18679      130.27248      300.79704      207.16877     -5.1434257     -3.4207773      29.065941     -64837.017    
    723000   299.3173       130.26889      300.78875      207.16877     -19.953362      9.9878886     -59.360437     -64829.661    
    724000   300.09986      130.28255      300.8203       207.16877     -5.3519883     -5.3202953      41.223565     -64843.006    
    725000   297.79777      130.26834      300.78748      207.16877     -8.2798981      12.730353     -64.055967     -64833.487    
    726000   299.53821      130.28485      300.8256       207.16877     -6.0290578      6.2360391      49.977679     -64830.922    
    727000   297.53681      130.26706      300.78452      207.16877     -0.0064740881   6.5594738     -36.531126     -64842.467    
    728000   301.38545      130.27095      300.79351      207.16877      2.7036231      12.339912      0.28292169    -64829.132    
    729000   299.92369      130.28406      300.82378      207.16877     -22.140775     -6.4955907     -35.439532     -64827.423    
    730000   300.54392      130.264        300.77747      207.16877      16.790311      24.631947      11.100019     -64837.01     
    731000   300.55154      130.31371      300.89225      207.16877     -48.217838     -26.597415     -17.422927     -64827.154    
    732000   299.9867       130.24834      300.74131      207.16877      25.359428      33.042745     -2.9925965     -64834.567    
    733000   298.70509      130.29858      300.85731      207.16877     -32.202994     -24.986177     -21.579344     -64832.211    
    734000   297.84151      130.25182      300.74933      207.16877      22.606412      29.901998      6.2661323     -64839.181    
    735000   302.0213       130.29344      300.84544      207.16877     -35.795157     -9.6767181     -11.034338     -64824.497    
    736000   302.57601      130.26175      300.77226      207.16877      27.76067       15.636043     -5.8529346     -64818.699    
    737000   298.5228       130.30048      300.8617       207.16877     -42.24998      -16.330687      1.0124556     -64834.399    
    738000   301.23828      130.25977      300.76769      207.16877      8.6682003      21.398641     -31.385567     -64823.357    
    739000   297.84856      130.31809      300.90235      207.16877     -49.112257     -47.400855      24.507318     -64842.897    
    740000   301.13894      130.24156      300.72566      207.16877      11.547911      48.052383     -9.9450413     -64826.691    
    741000   299.1753       130.29887      300.85799      207.16877     -13.097049     -24.495131      4.9698989     -64834.652    
    742000   296.53208      130.26464      300.77894      207.16877      0.51489311     26.161045      4.2815262     -64841.081    
    743000   300.81147      130.29661      300.85276      207.16877     -24.152902     -15.64199      -2.6775367     -64827.441    
    744000   299.92128      130.25128      300.7481       207.16877      21.888634      27.763769     -23.8258       -64831.256    
    745000   299.47049      130.30567      300.87368      207.16877     -39.13826      -28.401296     -2.0791238     -64830.613    
    746000   300.49207      130.24061      300.72345      207.16877      22.70797       41.68637      -11.661578     -64830.476    
    747000   298.1619       130.28757      300.83189      207.16877     -9.3371603     -0.64258562     6.3716779     -64838.716    
    748000   298.8555       130.2723       300.79662      207.16877     -7.0131853      6.8389655     -26.036577     -64829.455    
    749000   299.00468      130.27831      300.8105       207.16877      1.8235294     -17.002093      15.110125     -64836.197    
    750000   298.42798      130.25923      300.76644      207.16877      0.45173876     29.322247     -27.036683     -64835.511    
    751000   299.88035      130.2819       300.81879      207.16877     -10.889646     -15.167755     -9.4176452     -64823.264    
    752000   301.05139      130.25437      300.75522      207.16877      3.153829       35.334653     -14.275158     -64824.272    
    753000   301.07755      130.30628      300.87508      207.16877     -34.309171     -40.393924      0.7895867     -64828.834    
    754000   300.66795      130.25243      300.75074      207.16877      6.9145679      25.889574     -36.984369     -64838.286    
    755000   302.05055      130.28079      300.81623      207.16877     -3.4269239     -3.9221942      10.325933     -64828.354    
    756000   297.10013      130.26345      300.77619      207.16877     -8.6802915     -0.29753592    -31.953017     -64839.29     
    757000   302.70011      130.25186      300.74943      207.16877      4.7455809      21.496244      25.926834     -64826.066    
    758000   297.27199      130.2607       300.76984      207.16877     -2.801495       2.9627931     -36.464081     -64843.852    
    759000   302.5987       130.28787      300.83258      207.16877     -28.919396     -11.360817      3.0412422     -64826.029    
    760000   297.33765      130.24038      300.72293      207.16877      28.032219      25.354511     -24.041408     -64845.427    
    761000   300.78279      130.29848      300.85708      207.16877     -29.397679     -13.781254      29.026967     -64828.465    
    762000   300.04223      130.24323      300.72951      207.16877      18.147343      36.547163     -31.487185     -64837.878    
    763000   301.1781       130.31993      300.90661      207.16877     -50.5033       -45.881967      17.734264     -64829.182    
    764000   298.3784       130.21576      300.66609      207.16877      48.508489      52.823225     -33.865245     -64832.698    
    765000   301.01333      130.30195      300.8651       207.16877     -35.489762     -20.56145       2.7903283     -64820.549    
    766000   296.75397      130.24532      300.73433      207.16877      32.524302      32.566127      1.0804543     -64839.579    
    767000   300.12528      130.30029      300.86125      207.16877     -39.40431      -27.68664      -12.845885     -64825.421    
    768000   299.06686      130.21689      300.66868      207.16877      50.03945       61.242876     -11.472185     -64832.733    
    769000   302.59685      130.32271      300.91302      207.16877     -58.481165     -46.689646     -8.6859594     -64818.812    
    770000   300.3984       130.23682      300.7147       207.16877      32.999561      39.668682     -12.463127     -64822.797    
    771000   299.50747      130.29108      300.84         207.16877     -12.328241     -14.272696      4.8523578     -64837.422    
    772000   302.24879      130.24874      300.74223      207.16877      18.811175      33.415876     -23.965155     -64819.926    
    773000   301.00919      130.32181      300.91093      207.16877     -65.837894     -36.396212      16.225293     -64831.798    
    774000   295.7874       130.22765      300.69354      207.16877      40.35051       41.157367     -33.104297     -64843.59     
    775000   299.01037      130.29769      300.85525      207.16877     -33.749122     -13.990629      18.503406     -64834.549    
    776000   300.41505      130.26244      300.77385      207.16877      15.167619      16.283426     -14.973791     -64834.999    
    777000   299.7214       130.30882      300.88095      207.16877     -39.861107     -20.33          11.756611     -64843.582    
    778000   301.35111      130.23605      300.71292      207.16877      40.119814      47.095205     -16.693834     -64827.21     
    779000   300.80399      130.31535      300.89602      207.16877     -55.327944     -33.764193      22.997068     -64830.875    
    780000   299.76194      130.25482      300.75626      207.16877      19.814363      21.831943     -27.641053     -64830.044    
    781000   297.29319      130.29472      300.84839      207.16877     -27.877258     -1.0748792     -2.8944957     -64844.743    
    782000   298.84378      130.24921      300.74331      207.16877      18.561417      21.592478     -14.511673     -64831.366    
    783000   302.743        130.30453      300.87105      207.16877     -44.203065     -18.0022        3.8735864     -64821.229    
    784000   296.9895       130.23369      300.70748      207.16877      38.790552      48.895154     -12.515321     -64834.66     
    785000   297.05587      130.31343      300.8916       207.16877     -49.263813     -36.83616      -7.0425749     -64846.622    
    786000   300.01188      130.24232      300.72741      207.16877      31.331819      47.312409     -20.213267     -64830.418    
    787000   300.52458      130.3326       300.93586      207.16877     -68.385023     -49.463728     -17.924174     -64831.165    
    788000   301.72172      130.24757      300.73953      207.16877      36.15674       38.756996      12.549056     -64817.723    
    789000   301.11308      130.31357      300.89193      207.16877     -48.89316      -21.933985     -3.2125155     -64829.392    
    790000   299.03061      130.25797      300.76354      207.16877      19.274473      25.745981      20.21091      -64839.296    
    791000   300.38672      130.30139      300.8638       207.16877     -53.665779     -3.3353233     -17.326752     -64827.654    
    792000   300.59179      130.2526       300.75113      207.16877      36.29444       12.539181     -10.693251     -64825.337    
    793000   298.17108      130.28687      300.83026      207.16877     -35.187158     -4.0277077     -18.520744     -64834.191    
    794000   299.66972      130.25613      300.7593       207.16877      18.532358      16.777149     -1.2318923     -64831.745    
    795000   300.57014      130.26953      300.79023      207.16877      8.4607289     -3.2435323     -21.898821     -64839.908    
    796000   301.70493      130.27755      300.80874      207.16877     -30.53787       16.549184     -7.5184747     -64828.493    
    797000   300.54987      130.26081      300.77009      207.16877      16.502145      14.544857     -11.156618     -64830.741    
    798000   300.59373      130.28151      300.8179       207.16877     -6.2090412      9.426318       5.2488972     -64833.712    
    799000   301.74773      130.26846      300.78776      207.16877     -3.6692492      9.2304839     -13.174796     -64821.521    
    800000   300.6636       130.2738       300.80009      207.16877     -5.1863894     -7.8594862      19.779445     -64827.617    
    801000   298.18582      130.25946      300.76699      207.16877      7.0482265      8.2406314     -38.387383     -64836.761    
    802000   300.9045       130.29116      300.84018      207.16877     -25.526572      0.44993911     9.4548307     -64836.869    
    803000   298.71274      130.26001      300.76826      207.16877      17.948927     -0.97679235    -32.361029     -64831.728    
    804000   298.63222      130.29368      300.84598      207.16877     -25.149319      1.6464769      17.513208     -64851.947    
    805000   302.69039      130.24876      300.74228      207.16877      30.571353      31.687297     -19.07701      -64815.485    
    806000   297.32336      130.29547      300.85013      207.16877     -14.906211     -16.453898     -7.5807243     -64841.074    
    807000   301.72411      130.23743      300.71611      207.16877      25.001804      50.8132       -0.1352333     -64824.964    
    808000   301.02049      130.31237      300.88915      207.16877     -33.285542     -49.336873     -8.9339045     -64834.154    
    809000   301.29641      130.25633      300.75974      207.16877      8.870105       42.780673     -0.60628323    -64829.996    
    810000   300.76282      130.30727      300.87737      207.16877     -21.76076      -34.662513     -19.583893     -64826.323    
    811000   297.04086      130.25871      300.76525      207.16877      7.4797953      29.835723     -17.503461     -64843.755    
    812000   301.74529      130.29878      300.85776      207.16877     -26.168635     -25.042786      13.272021     -64825.673    
    813000   299.61507      130.23402      300.70823      207.16877      35.788306      44.667097     -9.6935756     -64831.41     
    814000   299.93558      130.31988      300.90649      207.16877     -40.133273     -43.086646      3.3496905     -64839.569    
    815000   300.56402      130.24427      300.73191      207.16877      36.961528      34.598927     -4.7286217     -64823.974    
    816000   296.88799      130.31104      300.88607      207.16877     -26.472247     -39.425408     -8.487906      -64839.791    
    817000   299.86821      130.23025      300.69954      207.16877      40.69848       49.119007     -29.133513     -64825.403    
    818000   302.4341       130.32165      300.91057      207.16877     -45.121833     -51.154626      23.224566     -64819.543    
    819000   297.58767      130.24244      300.72768      207.16877      23.025932      31.765585     -34.374982     -64830.054    
    820000   296.95083      130.30972      300.88302      207.16877     -43.640518     -27.804402      8.9192478     -64842.077    
    821000   300.8494       130.25866      300.76513      207.16877      22.028054      13.019056     -40.677835     -64823.81     
    822000   302.36916      130.31097      300.88591      207.16877     -43.362503     -15.232738      37.193548     -64824.06     
    823000   298.3082       130.24763      300.73965      207.16877      35.459718      24.555371     -50.806071     -64836.711    
    824000   296.91845      130.29259      300.84349      207.16877     -26.568839     -3.217597       23.399308     -64844.3      
    825000   298.6687       130.26127      300.77117      207.16877      32.262403      8.4067164     -17.412121     -64829.709    
    826000   298.51322      130.30421      300.87031      207.16877     -30.794297     -18.100305     -1.686645      -64832.999    
    827000   300.71431      130.25201      300.74977      207.16877      28.902144      36.141058     -14.379424     -64832.35     
    828000   298.72298      130.30732      300.87748      207.16877     -30.693149     -30.55824      -8.9353913     -64836.569    
    829000   301.4567       130.25708      300.7615       207.16877      23.534786      32.825017     -15.777925     -64834.466    
    830000   301.10236      130.31942      300.90544      207.16877     -45.376609     -29.574932      8.8191754     -64828.921    
    831000   298.45595      130.22204      300.68057      207.16877      57.157414      60.589402     -2.6503197     -64837.901    
    832000   302.57337      130.32467      300.91754      207.16877     -56.183745     -35.157365     -19.53142      -64821.197    
    833000   298.72823      130.24441      300.73222      207.16877      45.442131      46.955197     -8.0492938     -64838.151    
    834000   300.8047       130.31491      300.89502      207.16877     -44.308983     -29.522919      3.0212798     -64832.366    
    835000   302.45485      130.24828      300.74117      207.16877      32.989288      28.360864     -4.0073684     -64824.754    
    836000   299.38504      130.32155      300.91035      207.16877     -45.830179     -46.201702      17.49261      -64839.977    
    837000   301.35754      130.23686      300.7148       207.16877      23.160984      54.802101     -47.445492     -64826.049    
    838000   298.27347      130.31544      300.89623      207.16877     -18.892216     -44.414873      2.0948969     -64834.538    
    839000   299.8806       130.26325      300.77572      207.16877      0.81543952     37.005615     -30.743703     -64831.436    
    840000   301.99017      130.30863      300.88052      207.16877     -23.346054     -23.017009      39.069515     -64820.195    
    841000   300.85414      130.21989      300.67562      207.16877      55.600336      49.830375     -50.283754     -64830.868    
    842000   300.81656      130.30162      300.86433      207.16877     -43.90862      -4.6810541      16.081186     -64828.405    
    843000   301.20442      130.25229      300.75044      207.16877      43.409871      19.61442      -8.3120961     -64828.842    
    844000   298.25801      130.287        300.83058      207.16877     -24.888595     -7.8960046     -20.529895     -64843.914    
    845000   298.46658      130.24298      300.72892      207.16877      19.916287      38.103769     -22.59499      -64834.353    
    846000   298.61689      130.30582      300.87403      207.16877     -39.138066     -38.56948       9.979979      -64837.409    
    847000   297.39051      130.24689      300.73796      207.16877      15.797688      32.187026     -24.801631     -64842.553    
    848000   301.05443      130.30101      300.86291      207.16877     -22.849213     -18.38557       17.198428     -64832.481    
    849000   298.99214      130.27501      300.80289      207.16877      2.8190563      3.0060403     -27.817936     -64838.121    
    850000   302.12504      130.28578      300.82775      207.16877     -20.602912      2.6187705     -11.767531     -64822.089    
    851000   302.99298      130.25261      300.75116      207.16877      34.230557      22.685812     -10.956099     -64828.927    
    852000   299.43012      130.30473      300.8715       207.16877     -43.013596     -28.750503      15.594629     -64834.223    
    853000   299.25922      130.24917      300.74322      207.16877      20.541599      19.609554     -19.387838     -64830.44     
    854000   304.22128      130.28422      300.82414      207.16877     -15.04977      -2.7341513     -5.9187175     -64816.648    
    855000   297.37548      130.26397      300.77738      207.16877     -4.891022       14.857791     -31.20193      -64839.266    
    856000   297.25384      130.26659      300.78345      207.16877      19.498798     -4.7670299      10.860731     -64840.698    
    857000   300.16708      130.26161      300.77193      207.16877     -11.683536      21.412483     -33.153407     -64835.79     
    858000   299.64511      130.27784      300.80942      207.16877      5.7488998     -16.344841      43.035393     -64833.35     
    859000   299.31923      130.25331      300.75278      207.16877      8.7283522      13.389626     -28.13861      -64830.708    
    860000   299.16751      130.27302      300.79829      207.16877     -3.6368761      16.053629      31.077859     -64834.786    
    861000   300.21875      130.27383      300.80015      207.16877      17.282391     -16.413576     -54.636022     -64833.136    
    862000   301.86716      130.27478      300.80235      207.16877     -14.912884      27.176355      59.944813     -64825.394    
    863000   298.46522      130.27731      300.80819      207.16877      3.8065638     -28.192146     -59.022718     -64835.596    
    864000   300.04572      130.25909      300.76613      207.16877      15.210092      36.054372      41.938903     -64833.966    
    865000   298.48556      130.29472      300.84841      207.16877     -40.553474     -11.081312     -60.887886     -64840.728    
    866000   299.11601      130.25756      300.7626       207.16877      42.202774      4.4310551      34.006942     -64822.563    
    867000   298.52536      130.28918      300.8356       207.16877     -51.096479      17.127908     -42.476684     -64837.473    
    868000   301.83996      130.2713       300.79432      207.16877      34.810637     -6.2848644      38.581286     -64833.474    
    869000   298.84926      130.28583      300.82787      207.16877     -32.771337      7.9288045     -47.297706     -64834.306    
    870000   299.94599      130.2527       300.75138      207.16877      24.809067      33.647362      33.518205     -64828.389    
    871000   300.93449      130.30435      300.87063      207.16877     -32.391212     -47.772896     -75.626054     -64826.968    
    872000   300.16126      130.26236      300.77367      207.16877     -0.025243885    35.181036      14.35746      -64826.667    
    873000   299.89918      130.29442      300.84769      207.16877     -9.5469485     -22.267634     -12.531779     -64830.672    
    874000   301.75822      130.26653      300.78332      207.16877      6.5708017      23.202312     -9.4471088     -64828.852    
    875000   299.57083      130.31381      300.89247      207.16877     -46.798084     -25.453164     -4.3436577     -64825.93     
    876000   297.71776      130.24179      300.72619      207.16877      46.338623      35.383429     -31.553859     -64833.102    
    877000   300.73171      130.30771      300.87839      207.16877     -37.605971     -22.398543      6.4001494     -64833.319    
    878000   299.18035      130.2584       300.76452      207.16877      18.219888      28.518986     -16.845717     -64823.687    
    879000   301.50484      130.27919      300.81253      207.16877      3.1257382      2.5598605      4.2007809     -64821.629    
    880000   301.2849       130.27803      300.80985      207.16877     -3.9754889      7.741254      -33.594566     -64829.807    
    881000   301.68634      130.28951      300.83638      207.16877     -19.599864     -3.2901034     -7.6223372     -64820.984    
    882000   303.05919      130.2691       300.78923      207.16877      6.3470854      13.557103     -26.250497     -64824.161    
    883000   300.20888      130.30328      300.86816      207.16877     -27.032419     -15.849246      21.656327     -64832.092    
    884000   299.95253      130.24412      300.73155      207.16877      37.884969      40.31309      -24.37505      -64838.445    
    885000   299.86795      130.31472      300.89458      207.16877     -40.50186      -25.716566      11.932895     -64835.46     
    886000   298.4886       130.26229      300.77351      207.16877      19.015849      16.984448     -11.645769     -64830.444    
    887000   298.01405      130.2896       300.83657      207.16877     -17.114544     -5.5799362     -9.2323651     -64833.58     
    888000   300.12892      130.24809      300.74072      207.16877      29.15281       27.242945     -23.87531      -64837.172    
    889000   299.94653      130.30788      300.87879      207.16877     -37.206454     -35.862251     -2.6210018     -64830.089    
    890000   298.83689      130.25446      300.75544      207.16877      10.819972      28.868735     -21.660663     -64832.512    
    891000   301.31612      130.28418      300.82405      207.16877     -9.4379257     -22.548687      1.1885845     -64828.101    
    892000   300.60936      130.25399      300.75436      207.16877      5.804107       27.16802      -11.426459     -64838.014    
    893000   298.17438      130.27921      300.81257      207.16877     -5.860171      -15.798217      17.167447     -64835.189    
    894000   301.23333      130.26725      300.78497      207.16877     -1.5735036      13.990969     -15.991149     -64826.354    
    895000   299.69099      130.27939      300.813        207.16877     -11.054518      5.3467528     -26.872131     -64831.007    
    896000   299.33976      130.27963      300.81354      207.16877     -5.6092003     -12.884476     -16.845056     -64837.657    
    897000   300.09807      130.28652      300.82946      207.16877     -13.858293     -1.9983354     -1.8860754     -64826.732    
    898000   299.04202      130.26634      300.78287      207.16877      1.6974145      7.9704459     -49.545179     -64837.348    
    899000   301.48825      130.28606      300.82841      207.16877     -6.7710177     -6.4024316      36.132184     -64820.188    
    900000   297.34152      130.25146      300.74851      207.16877      2.1893504      23.79597      -61.518        -64837.032    
    901000   300.29121      130.27284      300.79787      207.16877      14.503836     -0.0086471272   77.721141     -64829.399    
    902000   299.27795      130.26646      300.78315      207.16877     -6.3021437     -1.7605311     -85.792126     -64838.531    
    903000   301.87476      130.28507      300.82612      207.16877     -7.3470353      5.8279003      78.664255     -64826.035    
    904000   299.96761      130.28281      300.8209       207.16877     -4.9993813     -7.9360683     -65.621558     -64830.562    
    905000   299.08424      130.26975      300.79074      207.16877     -1.1248988      30.436783      40.780858     -64836.469    
    906000   298.39323      130.28473      300.82533      207.16877      1.7598653     -24.970269     -62.664428     -64842.712    
    907000   300.63903      130.27049      300.79244      207.16877      8.6229405      25.377438      54.048535     -64827.094    
    908000   301.25868      130.28501      300.82598      207.16877     -17.559046     -13.043095     -71.272231     -64828.728    
    909000   299.73338      130.27063      300.79276      207.16877      8.2128674      18.51081       57.615123     -64832.715    
    910000   297.86731      130.28045      300.81544      207.16877     -20.521743      0.77063668    -67.227813     -64839.013    
    911000   299.50669      130.27055      300.79259      207.16877      18.068854      22.655153      69.370061     -64830.669    
    912000   298.13972      130.29625      300.85193      207.16877     -26.020238     -36.543444     -88.933355     -64832.731    
    913000   301.70448      130.26102      300.77059      207.16877      5.5428937      40.362098      73.298792     -64827.89     
    914000   302.35151      130.29071      300.83913      207.16877     -21.633442     -34.966163     -99.084067     -64830.63     
    915000   297.90013      130.25523      300.75722      207.16877      11.94798       38.388661      45.128215     -64840.213    
    916000   297.07068      130.29788      300.85568      207.16877     -24.182215     -23.715045     -46.634358     -64831.905    
    917000   297.87646      130.24997      300.74506      207.16877      27.144635      26.313002      32.114166     -64837.859    
    918000   298.88237      130.28465      300.82513      207.16877     -13.812957     -18.314113     -49.772424     -64827.293    
    919000   299.27849      130.25453      300.7556       207.16877      22.208449      34.097828      30.260188     -64836.467    
    920000   303.52489      130.30599      300.87442      207.16877     -30.886598     -33.61984      -35.036766     -64822.647    
    921000   297.87286      130.25461      300.75578      207.16877      28.574979      45.278261      35.488198     -64835.721    
    922000   300.6766       130.30192      300.86503      207.16877     -27.994624     -30.096609     -67.58232      -64825.366    
    923000   300.87058      130.25981      300.76779      207.16877      23.724583      35.030437      27.872789     -64837.025    
    924000   298.73088      130.3012       300.86336      207.16877     -34.882375     -14.696326     -37.282714     -64838.052    
    925000   299.24893      130.27493      300.8027       207.16877      24.950046      3.4804579      15.007644     -64829.18     
    926000   301.93609      130.29044      300.83852      207.16877     -37.673455      7.0905633     -18.643542     -64824.599    
    927000   300.56061      130.2638       300.77701      207.16877      20.262559      17.225263      3.2377004     -64836.616    
    928000   298.68325      130.31083      300.8856       207.16877     -37.960579     -20.89204      -14.527067     -64830.841    
    929000   302.5906       130.24811      300.74078      207.16877      19.764747      39.462177     -1.3987303     -64819.015    
    930000   296.6613       130.30024      300.86113      207.16877     -33.962135     -18.48787      -29.257264     -64837.666    
    931000   300.67572      130.26168      300.77211      207.16877      23.665142      17.70133       5.6465414     -64831.732    
    932000   298.92349      130.27423      300.80108      207.16877     -13.174358      12.356153     -3.9683286     -64841.979    
    933000   302.49294      130.28281      300.8209       207.16877     -8.2594666     -8.2605686     -16.363147     -64820.686    
    934000   300.90648      130.28322      300.82184      207.16877     -10.276739      4.8268241      5.7673368     -64827.748    
    935000   302.24215      130.28553      300.82718      207.16877     -19.352437      3.4662924     -23.217827     -64835.187    
    936000   299.69784      130.26857      300.78801      207.16877      15.557643     -5.133949      -3.5935188     -64830.893    
    937000   299.82552      130.26631      300.78281      207.16877     -20.569084      23.781339     -24.455849     -64832.562    
    938000   300.51077      130.27933      300.81286      207.16877      14.898743     -21.94171       27.572544     -64825.461    
    939000   301.16903      130.27724      300.80802      207.16877     -23.024727      9.763615      -64.646052     -64825.726    
    940000   299.16704      130.27758      300.80881      207.16877      9.8345878     -0.3001746      23.535336     -64835.427    
    941000   298.72375      130.29026      300.83809      207.16877     -20.048123      2.3381706     -36.60771      -64849.31     
    942000   300.37402      130.29665      300.85285      207.16877     -15.189466     -9.3976616      21.302139     -64825.214    
    943000   299.3221       130.2748       300.80239      207.16877      3.2010589     -2.4516085     -51.4197       -64834.644    
    944000   298.08094      130.27472      300.80221      207.16877     -11.126667      15.965741      16.817638     -64837.896    
    945000   299.40659      130.26475      300.77919      207.16877      11.037274      7.5774281     -41.353399     -64832.219    
    946000   298.3953       130.29518      300.84946      207.16877     -16.113634      2.0425229      41.299479     -64831.752    
    947000   296.93768      130.25681      300.76086      207.16877      11.554677      24.738408     -89.716255     -64838.513    
    948000   300.97764      130.30154      300.86414      207.16877     -10.708402     -15.118912      41.267531     -64827.608    
    949000   299.44157      130.27025      300.79189      207.16877      7.2298086      8.5854525     -37.441416     -64838.107    
    950000   297.76915      130.30655      300.87572      207.16877     -33.877804     -11.90929       28.576561     -64840.629    
    951000   299.6542       130.24642      300.73688      207.16877      32.286645      24.361244     -46.570539     -64830.763    
    952000   295.71629      130.32857      300.92655      207.16877     -59.768325     -38.415152      16.65157      -64841.292    
    953000   302.63963      130.23914      300.72007      207.16877      40.787561      27.347664     -23.413784     -64825.308    
    954000   298.18326      130.30043      300.86159      207.16877     -28.397979     -10.356861      16.316534     -64843.885    
    955000   300.10943      130.26478      300.77926      207.16877      12.741494      12.295882     -8.594483      -64828.605    
    956000   298.13459      130.30971      300.883        207.16877     -34.482975     -31.902659      17.580417     -64835.341    
    957000   301.00886      130.22909      300.69685      207.16877      34.704817      51.372777     -24.801987     -64828.805    
    958000   298.55897      130.31437      300.89376      207.16877     -48.665724     -44.527901     -14.562478     -64832.358    
    959000   298.83257      130.22435      300.6859       207.16877      50.132972      60.246323     -14.145852     -64830.123    
    960000   300.43234      130.32456      300.91729      207.16877     -47.12162      -45.89668       23.570225     -64835.847    
    961000   300.94306      130.2481       300.74075      207.16877      11.957577      40.406956     -23.34851      -64819.982    
    962000   299.05117      130.28857      300.8342       207.16877     -7.1940615     -4.3061808      7.0225173     -64840.333    
    963000   299.75781      130.27074      300.79303      207.16877      5.4201785      11.376951     -15.218375     -64830.571    
    964000   297.83635      130.28397      300.82358      207.16877      1.736973      -3.7544596      6.8167406     -64835.068    
    965000   297.62488      130.29906      300.85841      207.16877     -21.412087     -10.016409     -26.903756     -64839.371    
    966000   300.80063      130.27666      300.80668      207.16877     -1.6374044      14.870301     -9.9530097     -64827.599    
    967000   297.53104      130.27086      300.79331      207.16877     -2.2218347      5.4003256     -34.67134      -64843.962    
    968000   300.96643      130.27318      300.79866      207.16877      2.8019156      11.294712      2.7830756     -64831.81     
    969000   299.99738      130.2872       300.83104      207.16877     -13.392192     -6.7197533     -13.58531      -64833.889    
    970000   301.02548      130.29358      300.84576      207.16877     -13.843566     -7.6753536     -8.2414347     -64826.449    
    971000   302.46595      130.27363      300.79969      207.16877      5.2054982      13.89993       0.63379473    -64827.183    
    972000   300.61962      130.27485      300.80252      207.16877     -4.1886555      0.37433629    -28.306438     -64830.361    
    973000   300.71102      130.28004      300.8145       207.16877     -9.5529435     -5.3246113     -3.9667725     -64832.77     
    974000   297.97166      130.25433      300.75513      207.16877      16.84112       27.075863     -8.4598685     -64834.646    
    975000   300.55718      130.29924      300.85883      207.16877     -14.236916     -28.311134      12.36341      -64836.977    
    976000   299.26682      130.26619      300.78251      207.16877      1.2246349      12.805913     -28.961906     -64833.857    
    977000   298.86994      130.2833       300.82202      207.16877     -11.988234     -10.607438     -2.735383      -64830.723    
    978000   298.74973      130.26565      300.78127      207.16877      14.134725     -4.429796      -26.810035     -64834.951    
    979000   299.70757      130.28239      300.81991      207.16877     -24.000139      5.5867577      12.690141     -64839.149    
    980000   298.31188      130.25345      300.75309      207.16877      28.349979      16.227109     -51.283174     -64838.184    
    981000   300.67898      130.31846      300.90322      207.16877     -41.556885     -36.812965      31.267594     -64824.839    
    982000   301.83963      130.26667      300.78364      207.16877      12.435548      16.502672     -30.495668     -64827.668    
    983000   297.17224      130.29679      300.85317      207.16877     -16.134122     -17.972847      7.7911306     -64845.686    
    984000   300.43812      130.25793      300.76346      207.16877      12.299796      33.229967     -43.740376     -64829.831    
    985000   298.43562      130.32436      300.91684      207.16877     -30.877412     -38.663575      28.592633     -64834.916    
    986000   301.91249      130.24197      300.72661      207.16877      35.219119      41.893494     -47.586833     -64828.336    
    987000   300.26231      130.30188      300.86494      207.16877     -8.4419286     -23.203601      22.398612     -64815.405    
    988000   296.7615       130.26326      300.77575      207.16877      5.4183022      23.571619     -40.966018     -64838.732    
    989000   300.3019       130.30175      300.86464      207.16877     -25.168199     -21.115068      36.806889     -64834.328    
    990000   299.436        130.23937      300.72058      207.16877      42.00998       47.291862     -34.152343     -64833.516    
    991000   302.79477      130.31302      300.89064      207.16877     -29.953628     -33.759708      19.227        -64816.138    
    992000   300.31347      130.24123      300.7249       207.16877      22.228877      49.155505     -20.504261     -64832.771    
    993000   301.61449      130.32146      300.91014      207.16877     -37.398053     -51.642127     -19.806117     -64818.063    
    994000   299.81629      130.22514      300.68773      207.16877      39.36002       70.103766     -17.204171     -64834.621    
    995000   299.41082      130.31552      300.89642      207.16877     -46.706492     -38.34079       0.091594917   -64825.934    
    996000   303.0751       130.24221      300.72716      207.16877      34.939376      40.191503      2.6708631     -64817.345    
    997000   301.83025      130.30324      300.86807      207.16877     -27.644861     -17.575351      0.51245224    -64832.234    
    998000   301.97419      130.25827      300.76424      207.16877      21.77093       14.326869     -29.509582     -64820.166    
    999000   298.31657      130.30845      300.88009      207.16877     -29.663323     -20.441488      35.376628     -64842.612    
   1000000   299.84404      130.23155      300.70254      207.16877      39.287735      39.944136     -52.403597     -64832.73     
Loop time of 2397.25 on 16 procs for 1000000 steps with 21568 atoms

Performance: 18.021 ns/day, 1.332 hours/ns, 417.145 timesteps/s, 8.997 Matom-step/s
1516.9% CPU use with 1 MPI tasks x 16 OpenMP threads

MPI task timing breakdown:
Section |  min time  |  avg time  |  max time  |%varavg| %total
---------------------------------------------------------------
Pair    | 1957.6     | 1957.6     | 1957.6     |   0.0 | 81.66
Neigh   | 0.8115     | 0.8115     | 0.8115     |   0.0 |  0.03
Comm    | 21.739     | 21.739     | 21.739     |   0.0 |  0.91
Output  | 0.16879    | 0.16879    | 0.16879    |   0.0 |  0.01
Modify  | 397.68     | 397.68     | 397.68     |   0.0 | 16.59
Other   |            | 19.27      |            |       |  0.80

Nlocal:          21568 ave       21568 max       21568 min
Histogram: 1 0 0 0 0 0 0 0 0 0
Nghost:           7624 ave        7624 max        7624 min
Histogram: 1 0 0 0 0 0 0 0 0 0
Neighs:              0 ave           0 max           0 min
Histogram: 1 0 0 0 0 0 0 0 0 0

Total # of neighbors = 0
Ave neighs/atom = 0
Neighbor list builds = 63
Dangerous builds = 0
unfix           3

fix             4 gMobile nvt temp 300 300 0.05
thermo          1000
thermo_style    custom step temp  lx ly lz pxx pyy pzz etotal
run             1000000
Hybrid pair style last /omp style lj/cut
Last active /omp style is pair_style lj/cut
Per MPI rank memory allocation (min/avg/max) = 103.6 | 103.6 | 103.6 Mbytes
   Step          Temp            Lx             Ly             Lz            Pxx            Pyy            Pzz           TotEng    
   1000000   299.84404      130.23155      300.70254      207.16877      39.287735      39.944136     -52.403597     -64832.73     
   1001000   295.12665      130.23155      300.70254      207.16877      51.175638      48.740571     -15.660846     -64860.075    
   1002000   294.29268      130.23155      300.70254      207.16877      43.927974      51.87548       35.551087     -64862.883    
   1003000   297.13419      130.23155      300.70254      207.16877      40.267166      58.436952     -8.7183502     -64846.234    
   1004000   293.41166      130.23155      300.70254      207.16877      37.894588      33.626764     -83.814613     -64863.254    
   1005000   298.3933       130.23155      300.70254      207.16877      36.017953      64.497721      21.915477     -64847.319    
   1006000   296.15628      130.23155      300.70254      207.16877      54.080524      53.692028      42.856037     -64861.122    
   1007000   296.9703       130.23155      300.70254      207.16877      34.479586      49.837178     -64.384655     -64854.263    
   1008000   294.56826      130.23155      300.70254      207.16877      32.689772      51.609637     -55.248921     -64862.456    
   1009000   293.85146      130.23155      300.70254      207.16877      58.520218      46.784239      53.686847     -64854.82     
   1010000   296.51351      130.23155      300.70254      207.16877      27.185311      61.920401     -8.4616075     -64864.097    
   1011000   295.58973      130.23155      300.70254      207.16877      43.311525      26.085116     -64.295555     -64855.377    
   1012000   295.22428      130.23155      300.70254      207.16877      36.685264      49.937531      9.7246326     -64857.639    
   1013000   296.39702      130.23155      300.70254      207.16877      54.384042      64.473977      44.521208     -64854.281    
   1014000   293.99874      130.23155      300.70254      207.16877      59.443201      43.515413     -13.405201     -64862.77     
   1015000   292.74882      130.23155      300.70254      207.16877      16.626357      65.184914     -20.013978     -64864.494    
   1016000   298.91209      130.23155      300.70254      207.16877      52.261506      34.11316       10.920434     -64842.566    
   1017000   292.8473       130.23155      300.70254      207.16877      33.654754      65.984193      31.259522     -64864.224    
   1018000   294.0763       130.23155      300.70254      207.16877      33.951558      35.97652      -67.797049     -64867.751    
   1019000   293.95108      130.23155      300.70254      207.16877      53.556545      52.550835     -4.9201644     -64861.302    
   1020000   296.7983       130.23155      300.70254      207.16877      41.680812      75.655503      60.573961     -64852.19     
   1021000   294.85854      130.23155      300.70254      207.16877      34.053518      42.080805     -51.898977     -64863.124    
   1022000   294.03962      130.23155      300.70254      207.16877      41.102347      53.793362     -31.382354     -64860.336    
   1023000   293.16707      130.23155      300.70254      207.16877      40.097498      68.442196      26.357266     -64856.053    
   1024000   294.61147      130.23155      300.70254      207.16877      65.90225       35.522722     -38.468422     -64864.174    
   1025000   299.14347      130.23155      300.70254      207.16877      41.154654      68.139314     -36.108598     -64849.839    
   1026000   295.42039      130.23155      300.70254      207.16877      54.766025      71.236385      10.112406     -64863.343    
   1027000   295.25089      130.23155      300.70254      207.16877      62.39331       58.337262      18.579942     -64857.896    
   1028000   295.02102      130.23155      300.70254      207.16877      37.523109      62.715812     -9.2947313     -64858.468    
   1029000   295.01252      130.23155      300.70254      207.16877      40.602115      56.509078     -12.774343     -64864.282    
   1030000   299.06206      130.23155      300.70254      207.16877      53.626291      50.249489     -5.6079569     -64847.281    
   1031000   294.29908      130.23155      300.70254      207.16877      29.246672      64.251465     -9.8891529     -64859.007    
   1032000   294.26382      130.23155      300.70254      207.16877      50.295261      43.88974      -5.8001194     -64864.497    
   1033000   295.74872      130.23155      300.70254      207.16877      33.872748      49.567406     -2.9706669     -64856.242    
   1034000   294.6336       130.23155      300.70254      207.16877      45.012882      54.547535      11.933556     -64865.6      
   1035000   293.8032       130.23155      300.70254      207.16877      38.62352       46.437492     -38.670087     -64859.177    
   1036000   295.24745      130.23155      300.70254      207.16877      41.777198      49.669552      21.671028     -64854.433    
   1037000   292.19259      130.23155      300.70254      207.16877      47.595902      47.112966      19.107148     -64874.351    
   1038000   295.48644      130.23155      300.70254      207.16877      40.506232      40.685518     -26.720328     -64856.433    
   1039000   296.26351      130.23155      300.70254      207.16877      27.041541      44.127925     -30.743938     -64852.705    
   1040000   293.56247      130.23155      300.70254      207.16877      39.028833      42.443757      2.5858037     -64863.484    
   1041000   296.47177      130.23155      300.70254      207.16877      33.030828      45.700296     -7.4004587     -64842.291    
   1042000   292.56804      130.23155      300.70254      207.16877      42.83319       49.813705     -1.0443661     -64875.022    
   1043000   295.66178      130.23155      300.70254      207.16877      52.707994      46.998018      19.741422     -64863.221    
   1044000   294.49564      130.23155      300.70254      207.16877      35.018441      50.976899     -25.184424     -64862.152    
   1045000   296.55117      130.23155      300.70254      207.16877      38.847106      55.637303     -38.035898     -64856.53     
   1046000   294.64503      130.23155      300.70254      207.16877      52.603867      49.172451      37.569707     -64852.178    
   1047000   291.94807      130.23155      300.70254      207.16877      43.156632      58.510265     -10.219948     -64868.821    
   1048000   295.76775      130.23155      300.70254      207.16877      42.339432      47.974209     -38.921083     -64853.853    
   1049000   293.82385      130.23155      300.70254      207.16877      45.75479       59.781218      16.946135     -64868.134    
   1050000   296.61312      130.23155      300.70254      207.16877      40.891557      40.773681     -9.7703625     -64851.301    
   1051000   294.82477      130.23155      300.70254      207.16877      17.330357      48.85539      -56.345258     -64866.543    
   1052000   294.23568      130.23155      300.70254      207.16877      53.491437      49.809889      33.487768     -64864.728    
   1053000   294.41063      130.23155      300.70254      207.16877      38.165554      55.466816      24.270887     -64860.368    
   1054000   293.80842      130.23155      300.70254      207.16877      31.205041      44.321872     -53.954568     -64862.953    
   1055000   297.5902       130.23155      300.70254      207.16877      25.554382      60.110627     -14.142203     -64855.578    
   1056000   290.8354       130.23155      300.70254      207.16877      53.621636      41.671433      21.772517     -64876.404    
   1057000   297.9361       130.23155      300.70254      207.16877      28.279469      57.664478     -37.411058     -64852.262    
   1058000   296.25192      130.23155      300.70254      207.16877      46.748616      34.058671     -12.200781     -64862.303    
   1059000   294.1111       130.23155      300.70254      207.16877      34.947201      56.283746      31.217652     -64861.054    
   1060000   291.84808      130.23155      300.70254      207.16877      38.20522       47.944752     -11.443046     -64866.571    
   1061000   294.9338       130.23155      300.70254      207.16877      50.462683      25.638177     -39.99379      -64863.397    
   1062000   298.01941      130.23155      300.70254      207.16877      31.955148      73.349747      7.2530224     -64845.635    
   1063000   296.08835      130.23155      300.70254      207.16877      72.782554      35.001168      22.474976     -64862.568    
   1064000   297.73892      130.23155      300.70254      207.16877      35.761674      67.240692     -32.667304     -64850.071    
   1065000   295.47589      130.23155      300.70254      207.16877      48.18934       47.021347     -36.346653     -64859.268    
   1066000   295.11241      130.23155      300.70254      207.16877      41.034116      57.754394      22.084946     -64867.476    
   1067000   297.6356       130.23155      300.70254      207.16877      46.285499      45.797863     -5.6897755     -64854.792    
   1068000   294.47617      130.23155      300.70254      207.16877      44.075222      48.121683     -36.044343     -64858.666    
   1069000   294.79219      130.23155      300.70254      207.16877      50.779588      50.229266     -4.3467151     -64856.427    
   1070000   295.27924      130.23155      300.70254      207.16877      53.110259      54.701619      1.7234244     -64865.002    
   1071000   296.35752      130.23155      300.70254      207.16877      38.950975      52.178464     -22.840641     -64841.423    
   1072000   292.49223      130.23155      300.70254      207.16877      50.608578      58.961879     -9.9965981     -64868.798    
   1073000   298.16338      130.23155      300.70254      207.16877      46.404325      50.683788      8.1144594     -64854.514    
   1074000   294.70048      130.23155      300.70254      207.16877      36.455002      57.602115     -9.8571222     -64866.612    
   1075000   297.518        130.23155      300.70254      207.16877      49.35428       37.306514     -10.558434     -64851.336    
   1076000   293.5459       130.23155      300.70254      207.16877      31.35379       36.007817     -21.464375     -64859.301    
   1077000   291.45768      130.23155      300.70254      207.16877      37.742397      54.188334      17.652432     -64861.109    
   1078000   293.52814      130.23155      300.70254      207.16877      59.877532      43.680297      21.014311     -64863.705    
   1079000   295.68328      130.23155      300.70254      207.16877      23.491636      55.301678     -39.756132     -64859.473    
   1080000   295.02492      130.23155      300.70254      207.16877      40.648703      40.634109     -9.632602      -64861.349    
   1081000   294.45469      130.23155      300.70254      207.16877      33.194955      40.572773      7.293378      -64854.74     
   1082000   295.46535      130.23155      300.70254      207.16877      30.039407      61.38784      -20.908507     -64858.155    
   1083000   294.60967      130.23155      300.70254      207.16877      50.87289       46.602918     -3.321214      -64856.32     
   1084000   293.44252      130.23155      300.70254      207.16877      49.577218      52.35884       33.687608     -64868.414    
   1085000   298.9818       130.23155      300.70254      207.16877      26.668952      54.104854     -37.801924     -64851.411    
   1086000   295.63658      130.23155      300.70254      207.16877      31.122283      34.631986     -55.970711     -64861.604    
   1087000   294.29911      130.23155      300.70254      207.16877      37.672285      57.893022      34.772256     -64857.137    
   1088000   296.71452      130.23155      300.70254      207.16877      40.194456      50.921626      11.9712       -64864.775    
   1089000   294.9634       130.23155      300.70254      207.16877      32.043451      44.957611     -56.420834     -64856.568    
   1090000   297.57026      130.23155      300.70254      207.16877      30.830957      52.467789     -12.502182     -64848.908    
   1091000   294.00753      130.23155      300.70254      207.16877      41.49685       64.827393     -7.8100259     -64865.781    
   1092000   298.74345      130.23155      300.70254      207.16877      57.351361      43.636826     -22.152428     -64844.304    
   1093000   292.26624      130.23155      300.70254      207.16877      38.935257      78.553445     -6.2295718     -64867.778    
   1094000   295.49558      130.23155      300.70254      207.16877      52.795772      58.565108      4.4991352     -64858.992    
   1095000   295.92093      130.23155      300.70254      207.16877      55.47051       50.234737      25.659615     -64855.007    
   1096000   295.89217      130.23155      300.70254      207.16877      32.13632       56.9533       -0.56317353    -64856.301    
   1097000   294.65932      130.23155      300.70254      207.16877      40.126717      38.452834     -53.139093     -64863.391    
   1098000   293.09037      130.23155      300.70254      207.16877      38.206354      71.342057      42.524165     -64859.772    
   1099000   298.40267      130.23155      300.70254      207.16877      67.732037      55.099678      8.6009161     -64847.645    
   1100000   295.42967      130.23155      300.70254      207.16877      30.821937      61.791948     -59.461657     -64853.991    
   1101000   293.59185      130.23155      300.70254      207.16877      52.366532      55.673022     -11.796428     -64860.645    
   1102000   297.14305      130.23155      300.70254      207.16877      42.572081      65.526022      7.9197428     -64854.903    
   1103000   293.6394       130.23155      300.70254      207.16877      45.187885      39.621148     -22.70719      -64860.249    
   1104000   297.75248      130.23155      300.70254      207.16877      36.759392      63.092523     -11.700813     -64853.712    
   1105000   294.28563      130.23155      300.70254      207.16877      39.034253      56.679946      5.187484      -64857.781    
   1106000   294.32935      130.23155      300.70254      207.16877      47.944054      23.511627     -38.791805     -64867.398    
   1107000   296.89665      130.23155      300.70254      207.16877      20.847558      90.351346     -4.880533      -64862.185    
   1108000   296.45066      130.23155      300.70254      207.16877      77.029108      41.323785      44.682421     -64854.856    
   1109000   295.84203      130.23155      300.70254      207.16877      15.15187       76.805075     -36.3825       -64862.67     
   1110000   295.35527      130.23155      300.70254      207.16877      57.190256      28.306657     -30.361848     -64847.768    
   1111000   296.87064      130.23155      300.70254      207.16877      38.480077      62.173675      22.481805     -64852.53     
   1112000   296.62142      130.23155      300.70254      207.16877      41.101668      62.585013      16.661538     -64857.972    
   1113000   296.90804      130.23155      300.70254      207.16877      39.528808      41.460875     -61.425709     -64854.477    
   1114000   296.36215      130.23155      300.70254      207.16877      34.870322      62.032057     -21.224135     -64852.909    
   1115000   295.2516       130.23155      300.70254      207.16877      45.506802      65.483288      19.668215     -64857.314    
   1116000   292.64643      130.23155      300.70254      207.16877      45.482678      40.455177     -17.245586     -64865.551    
   1117000   295.74746      130.23155      300.70254      207.16877      46.398595      65.057123     -3.3904787     -64854.298    
   1118000   294.73075      130.23155      300.70254      207.16877      47.100916      62.296286      28.468968     -64867.958    
   1119000   295.63417      130.23155      300.70254      207.16877      55.57052       41.536296     -14.703171     -64862.115    
   1120000   293.26789      130.23155      300.70254      207.16877      25.914897      60.132771     -29.830861     -64868.506    
   1121000   294.87782      130.23155      300.70254      207.16877      55.662038      36.422741     -12.037644     -64861.175    
   1122000   295.69612      130.23155      300.70254      207.16877      38.542575      64.802147      27.809138     -64861.108    
   1123000   296.69869      130.23155      300.70254      207.16877      54.496169      42.78457      -11.845433     -64849.822    
   1124000   295.23504      130.23155      300.70254      207.16877      25.452479      47.809946     -52.795829     -64861.827    
   1125000   296.27042      130.23155      300.70254      207.16877      47.475599      54.585896      0.92050424    -64848.554    
   1126000   294.83976      130.23155      300.70254      207.16877      38.336894      57.800957      17.744296     -64855.201    
   1127000   295.25893      130.23155      300.70254      207.16877      46.514327      62.553343     -2.0895746     -64858.342    
   1128000   293.22031      130.23155      300.70254      207.16877      43.56064       60.570198     -5.1319877     -64869.485    
   1129000   296.75938      130.23155      300.70254      207.16877      52.631638      65.564235      20.387712     -64855.156    
   1130000   294.32376      130.23155      300.70254      207.16877      42.86157       55.681514     -25.803309     -64859.906    
   1131000   296.61134      130.23155      300.70254      207.16877      32.142959      57.550037     -51.668004     -64845.092    
   1132000   295.65536      130.23155      300.70254      207.16877      49.097318      45.192223      1.8134618     -64862.342    
   1133000   296.12057      130.23155      300.70254      207.16877      40.19044       73.93198       35.720076     -64856.476    
   1134000   294.07995      130.23155      300.70254      207.16877      43.283239      33.428139     -37.974434     -64858.807    
   1135000   294.11719      130.23155      300.70254      207.16877      33.933626      58.014284      4.3290244     -64867.313    
   1136000   294.57817      130.23155      300.70254      207.16877      36.103384      60.262868     -3.599486      -64858.144    
   1137000   296.47291      130.23155      300.70254      207.16877      48.644557      38.29741      -33.52222      -64860.482    
   1138000   296.53981      130.23155      300.70254      207.16877      35.393148      62.39785       19.228481     -64849.667    
   1139000   293.32142      130.23155      300.70254      207.16877      46.377851      45.435749      17.118526     -64862.558    
   1140000   295.06076      130.23155      300.70254      207.16877      22.989493      54.394631     -40.335337     -64857.85     
   1141000   294.55759      130.23155      300.70254      207.16877      47.817923      43.164176      5.0528286     -64860.089    
   1142000   295.18142      130.23155      300.70254      207.16877      33.033829      53.412078     -15.603635     -64851.386    
   1143000   296.51752      130.23155      300.70254      207.16877      37.216077      56.042378     -33.209802     -64855.79     
   1144000   292.93723      130.23155      300.70254      207.16877      34.347112      54.905518      29.95567      -64862.788    
   1145000   295.40068      130.23155      300.70254      207.16877      51.958033      31.398926     -39.594894     -64867.393    
   1146000   292.95746      130.23155      300.70254      207.16877      12.714491      74.620366     -43.238948     -64860.01     
   1147000   296.89227      130.23155      300.70254      207.16877      67.871717      32.833224     -14.305287     -64848.162    
   1148000   298.98129      130.23155      300.70254      207.16877      32.854678      73.315479      10.508219     -64854.213    
   1149000   293.38125      130.23155      300.70254      207.16877      39.169955      48.216986     -3.403985      -64863.518    
   1150000   294.22299      130.23155      300.70254      207.16877      43.352319      47.236082     -18.010561     -64857.941    
   1151000   294.41518      130.23155      300.70254      207.16877      41.187042      65.076923      14.872279     -64862.015    
   1152000   296.68313      130.23155      300.70254      207.16877      52.58626       47.83145      -24.997529     -64851.671    
   1153000   293.2525       130.23155      300.70254      207.16877      33.041053      50.233657     -45.984064     -64865.407    
   1154000   294.88505      130.23155      300.70254      207.16877      49.902014      39.349638     -3.7956253     -64860.253    
   1155000   296.63098      130.23155      300.70254      207.16877      31.651134      68.408092      16.673623     -64858.587    
   1156000   293.96427      130.23155      300.70254      207.16877      54.833268      39.106763     -25.437567     -64864.284    
   1157000   297.22411      130.23155      300.70254      207.16877      38.244434      57.943448     -29.238809     -64853.22     
   1158000   293.75354      130.23155      300.70254      207.16877      47.233496      56.320249     -6.7307173     -64863.674    
   1159000   295.09412      130.23155      300.70254      207.16877      36.26943       49.022008     -8.5039894     -64857.649    
   1160000   293.95071      130.23155      300.70254      207.16877      49.305414      38.68569      -13.421916     -64866.756    
   1161000   297.36262      130.23155      300.70254      207.16877      19.581723      61.69361      -22.86086      -64850.595    
   1162000   295.95564      130.23155      300.70254      207.16877      48.632957      19.75727      -3.2082689     -64853.896    
   1163000   295.53793      130.23155      300.70254      207.16877      21.73895       69.85136       3.9822975     -64868.617    
   1164000   295.42818      130.23155      300.70254      207.16877      50.079382      28.136068     -35.678039     -64863.952    
   1165000   294.99048      130.23155      300.70254      207.16877      27.169101      57.682936     -10.476194     -64852.472    
   1166000   295.10984      130.23155      300.70254      207.16877      42.666159      48.410945      6.7876918     -64865.012    
   1167000   295.40044      130.23155      300.70254      207.16877      49.4496        46.057633     -15.821451     -64856.433    
   1168000   292.00635      130.23155      300.70254      207.16877      34.110847      70.394982     -9.6921275     -64860.706    
   1169000   300.48229      130.23155      300.70254      207.16877      52.837667      41.152157     -32.816013     -64836.835    
   1170000   296.73722      130.23155      300.70254      207.16877      35.544623      68.15354      -15.928675     -64862.077    
   1171000   293.88645      130.23155      300.70254      207.16877      51.445582      50.767159      19.961298     -64868.729    
   1172000   293.34401      130.23155      300.70254      207.16877      43.604887      62.661564      8.0733573     -64858.837    
   1173000   293.53636      130.23155      300.70254      207.16877      44.035765      40.081586     -52.394823     -64859.043    
   1174000   294.78478      130.23155      300.70254      207.16877      31.698541      51.906875     -32.046        -64862.518    
   1175000   298.59147      130.23155      300.70254      207.16877      45.027172      47.485752      8.1348251     -64844.395    
   1176000   295.11472      130.23155      300.70254      207.16877      57.519907      42.766508     -3.339377      -64865.6      
   1177000   296.36097      130.23155      300.70254      207.16877      25.597768      60.086453     -26.988177     -64846.795    
   1178000   295.92139      130.23155      300.70254      207.16877      41.493732      40.837138     -10.767799     -64863.518    
   1179000   294.49693      130.23155      300.70254      207.16877      43.94024       66.963189      27.727473     -64857.896    
   1180000   295.8599       130.23155      300.70254      207.16877      46.691114      50.406163     -6.4828516     -64860.378    
   1181000   298.8866       130.23155      300.70254      207.16877      37.394284      60.938207     -25.165817     -64842.675    
   1182000   296.20688      130.23155      300.70254      207.16877      39.865345      48.948695     -8.4513257     -64857.27     
   1183000   293.06067      130.23155      300.70254      207.16877      34.321688      43.060237     -12.161537     -64863.343    
   1184000   293.66734      130.23155      300.70254      207.16877      31.380746      42.893265     -37.272685     -64864.096    
   1185000   297.25401      130.23155      300.70254      207.16877      32.616904      54.373768     -2.1512        -64848.841    
   1186000   296.3086       130.23155      300.70254      207.16877      41.771659      54.941505      6.9566613     -64858.648    
   1187000   297.87493      130.23155      300.70254      207.16877      37.892821      45.660405     -32.159006     -64855.343    
   1188000   292.78607      130.23155      300.70254      207.16877      40.911031      46.969528      6.83795       -64871.423    
   1189000   295.62642      130.23155      300.70254      207.16877      48.806378      54.67091       55.62242      -64857.983    
   1190000   294.23967      130.23155      300.70254      207.16877      37.27174       47.187953     -28.399942     -64856.485    
   1191000   292.02263      130.23155      300.70254      207.16877      23.293844      40.498282     -75.609703     -64872.133    
   1192000   294.70494      130.23155      300.70254      207.16877      60.136919      46.341892      21.760374     -64854.434    
   1193000   296.62315      130.23155      300.70254      207.16877      34.380885      80.561085      22.770057     -64870.054    
   1194000   295.21625      130.23155      300.70254      207.16877      59.303791      30.34147      -38.525317     -64863.172    
   1195000   296.06449      130.23155      300.70254      207.16877      35.03226       62.210673     -23.437524     -64858.028    
   1196000   293.65072      130.23155      300.70254      207.16877      43.418725      61.826326      16.854064     -64869.646    
   1197000   295.39261      130.23155      300.70254      207.16877      40.873541      55.142577     -13.183229     -64855.36     
   1198000   294.44536      130.23155      300.70254      207.16877      45.779011      53.187769     -36.907343     -64866.14     
   1199000   295.56539      130.23155      300.70254      207.16877      43.335963      61.819631      32.756122     -64851.685    
   1200000   293.39674      130.23155      300.70254      207.16877      30.048378      50.269463     -19.439263     -64862.44     
   1201000   295.17641      130.23155      300.70254      207.16877      34.363711      46.335543     -38.148342     -64857.165    
   1202000   296.37661      130.23155      300.70254      207.16877      46.172444      45.551172     -6.1645021     -64855.05     
   1203000   296.47836      130.23155      300.70254      207.16877      33.876303      62.228466     -7.6443305     -64851.578    
   1204000   294.23612      130.23155      300.70254      207.16877      44.869692      45.174679     -16.962311     -64865.054    
   1205000   291.76137      130.23155      300.70254      207.16877      41.492868      41.735129     -1.6667263     -64871.093    
   1206000   295.6041       130.23155      300.70254      207.16877      25.574344      58.97477       3.2664438     -64854.996    
   1207000   294.16382      130.23155      300.70254      207.16877      36.498772      28.484778     -6.982014      -64867.359    
   1208000   292.66068      130.23155      300.70254      207.16877      5.1212453      47.730135     -14.944909     -64872.763    
   1209000   295.18313      130.23155      300.70254      207.16877      41.244629      32.242297      0.018214129   -64859.994    
   1210000   296.85871      130.23155      300.70254      207.16877      41.244486      58.907213      9.3214414     -64852.289    
   1211000   293.74441      130.23155      300.70254      207.16877      34.784189      41.633302     -28.544011     -64868.942    
   1212000   296.01511      130.23155      300.70254      207.16877      40.232403      28.549818     -41.816315     -64855.798    
   1213000   294.5143       130.23155      300.70254      207.16877      30.020347      61.322845      17.608993     -64858.607    
   1214000   292.25023      130.23155      300.70254      207.16877      44.338969      49.290316     -8.8813607     -64870.71     
   1215000   297.27758      130.23155      300.70254      207.16877      49.159783      51.940234     -18.29556      -64858.688    
   1216000   295.48902      130.23155      300.70254      207.16877      43.922059      45.956605      3.3626972     -64855.812    
   1217000   291.41714      130.23155      300.70254      207.16877      37.50945       48.965834     -2.7445105     -64872.997    
   1218000   293.75855      130.23155      300.70254      207.16877      39.753195      44.426756     -28.572927     -64864.227    
   1219000   295.04114      130.23155      300.70254      207.16877      39.625042      60.039874      14.388725     -64859.583    
   1220000   296.04276      130.23155      300.70254      207.16877      53.681138      45.899595     -8.793541      -64860.93     
   1221000   294.60238      130.23155      300.70254      207.16877      39.483239      54.739419     -11.223847     -64854.813    
   1222000   292.47543      130.23155      300.70254      207.16877      39.801318      50.961467     -33.886368     -64870.104    
   1223000   293.78403      130.23155      300.70254      207.16877      33.843485      54.75131       4.7812144     -64869.669    
   1224000   296.68667      130.23155      300.70254      207.16877      41.997227      38.428207      23.147816     -64857.145    
   1225000   296.61276      130.23155      300.70254      207.16877      29.236971      63.533655     -24.538361     -64850.074    
   1226000   296.77362      130.23155      300.70254      207.16877      62.987112      35.658265     -6.6718028     -64856.73     
   1227000   294.69947      130.23155      300.70254      207.16877      36.709868      72.046098      12.30829      -64864.203    
   1228000   296.1279       130.23155      300.70254      207.16877      42.71507       40.742857     -31.283978     -64856.824    
   1229000   293.13454      130.23155      300.70254      207.16877      40.716013      46.896097     -18.009223     -64872.12     
   1230000   295.94587      130.23155      300.70254      207.16877      41.484157      62.098739      23.895888     -64856.432    
   1231000   293.00151      130.23155      300.70254      207.16877      44.198636      47.27303      -31.036652     -64867.708    
   1232000   295.42227      130.23155      300.70254      207.16877      39.235801      49.431293     -35.07084      -64853.027    
   1233000   292.66229      130.23155      300.70254      207.16877      36.65472       57.902881     -26.207154     -64863.793    
   1234000   292.321        130.23155      300.70254      207.16877      38.914866      45.195087      8.4957635     -64857.582    
   1235000   294.32165      130.23155      300.70254      207.16877      34.330511      57.352186     -0.031788613   -64862.821    
   1236000   297.42189      130.23155      300.70254      207.16877      51.373671      55.448935      37.453062     -64844.156    
   1237000   294.28118      130.23155      300.70254      207.16877      42.832872      49.252743     -4.754435      -64861.497    
   1238000   295.41696      130.23155      300.70254      207.16877      35.970781      51.675202     -39.561539     -64859.94     
   1239000   298.49038      130.23155      300.70254      207.16877      53.314454      45.315962      22.971052     -64849.522    
   1240000   294.63188      130.23155      300.70254      207.16877      36.154507      53.288497     -14.898628     -64862.961    
   1241000   293.19185      130.23155      300.70254      207.16877      36.239619      45.875416     -13.832191     -64870.001    
   1242000   293.22563      130.23155      300.70254      207.16877      29.244006      52.767637      2.2510753     -64865.532    
   1243000   295.7253       130.23155      300.70254      207.16877      44.116927      40.668581     -13.498552     -64857.693    
   1244000   294.46314      130.23155      300.70254      207.16877      27.599108      47.515934     -13.942801     -64859.52     
   1245000   292.29631      130.23155      300.70254      207.16877      37.613375      39.554434      18.744278     -64872.069    
   1246000   293.2495       130.23155      300.70254      207.16877      35.005482      45.614241     -6.1297481     -64861.873    
   1247000   296.49186      130.23155      300.70254      207.16877      31.107528      40.524634     -17.355468     -64855.643    
   1248000   296.31948      130.23155      300.70254      207.16877      31.434275      48.993081     -4.8625843     -64854.486    
   1249000   294.0991       130.23155      300.70254      207.16877      40.71214       38.00473      -41.670229     -64866.091    
   1250000   298.86173      130.23155      300.70254      207.16877      23.692372      57.886056     -24.033522     -64851.595    
   1251000   292.51295      130.23155      300.70254      207.16877      54.797875      33.503119      28.485879     -64866.075    
   1252000   296.38236      130.23155      300.70254      207.16877      33.418701      55.851211     -17.029478     -64862.03     
   1253000   295.2815       130.23155      300.70254      207.16877      44.839776      35.716363     -10.384836     -64848.435    
   1254000   296.61708      130.23155      300.70254      207.16877      45.674606      48.962977      15.197909     -64848.728    
   1255000   295.0649       130.23155      300.70254      207.16877      41.230733      37.412039     -29.875407     -64870.757    
   1256000   295.81562      130.23155      300.70254      207.16877      29.083284      45.763245     -22.712132     -64849.161    
   1257000   298.99452      130.23155      300.70254      207.16877      49.556619      51.242974      31.677827     -64859.568    
   1258000   292.33235      130.23155      300.70254      207.16877      37.47838       44.730679     -7.0609492     -64864.809    
   1259000   295.68951      130.23155      300.70254      207.16877      37.767512      57.54717      -44.706449     -64857.067    
   1260000   295.46957      130.23155      300.70254      207.16877      59.561699      35.437185      2.3054125     -64865.375    
   1261000   296.52554      130.23155      300.70254      207.16877      26.534519      65.291637     -6.3984008     -64855.818    
   1262000   294.96545      130.23155      300.70254      207.16877      63.915789      44.769855     -4.1136011     -64864.85     
   1263000   298.14515      130.23155      300.70254      207.16877      32.215308      55.903369      2.0400501     -64841.38     
   1264000   296.87124      130.23155      300.70254      207.16877      43.860585      41.270533     -49.584687     -64858.833    
   1265000   297.54251      130.23155      300.70254      207.16877      42.249594      55.702294     -16.821151     -64853.359    
   1266000   293.6833       130.23155      300.70254      207.16877      39.807485      48.368033     -3.7236457     -64866.006    
   1267000   293.50406      130.23155      300.70254      207.16877      41.62623       42.586046      1.1130371     -64866.001    
   1268000   294.67682      130.23155      300.70254      207.16877      30.43588       53.759741     -28.213777     -64857.372    
   1269000   294.7053       130.23155      300.70254      207.16877      43.306338      46.143333      7.9509113     -64857.801    
   1270000   296.796        130.23155      300.70254      207.16877      44.693059      44.646825     -13.612336     -64847.836    
   1271000   295.76754      130.23155      300.70254      207.16877      42.605077      46.257212     -14.474291     -64856.137    
   1272000   296.15362      130.23155      300.70254      207.16877      44.052455      51.895082      11.611052     -64850.313    
   1273000   295.13077      130.23155      300.70254      207.16877      43.749608      49.523613     -3.8179684     -64857.252    
   1274000   294.06897      130.23155      300.70254      207.16877      35.217907      45.879485     -24.674753     -64859.275    
   1275000   294.37714      130.23155      300.70254      207.16877      44.1462        40.259997     -20.216214     -64862.686    
   1276000   294.37885      130.23155      300.70254      207.16877      34.334293      60.313841      13.027385     -64864.17     
   1277000   297.18445      130.23155      300.70254      207.16877      57.770126      34.020724     -12.616048     -64855.357    
   1278000   294.96751      130.23155      300.70254      207.16877      33.102965      61.35014       1.8456362     -64863.26     
   1279000   295.88505      130.23155      300.70254      207.16877      38.926484      53.908314      19.958243     -64855.825    
   1280000   294.30335      130.23155      300.70254      207.16877      43.707112      33.895165     -37.674134     -64860.813    
   1281000   295.6627       130.23155      300.70254      207.16877      25.395769      62.500678     -27.654467     -64856.216    
   1282000   295.33089      130.23155      300.70254      207.16877      60.935297      48.903343      15.155647     -64858.054    
   1283000   295.00472      130.23155      300.70254      207.16877      35.176058      66.238641     -24.148887     -64854.223    
   1284000   294.17061      130.23155      300.70254      207.16877      33.817149      52.574169     -29.898587     -64863.766    
   1285000   296.36843      130.23155      300.70254      207.16877      53.521983      44.414567      15.63964      -64855.512    
   1286000   291.58428      130.23155      300.70254      207.16877      30.737591      53.426935     -4.8479659     -64875.893    
   1287000   296.85009      130.23155      300.70254      207.16877      30.842566      29.913401     -49.969046     -64856.938    
   1288000   294.83959      130.23155      300.70254      207.16877      45.677999      46.963891     -0.22930404    -64866.307    
   1289000   294.51612      130.23155      300.70254      207.16877      26.585018      56.36574       3.824298      -64861.761    
   1290000   293.70811      130.23155      300.70254      207.16877      52.174039      26.175835     -2.1675175     -64873.848    
   1291000   296.38083      130.23155      300.70254      207.16877      12.492856      49.911331     -12.162361     -64853.331    
   1292000   293.88629      130.23155      300.70254      207.16877      38.086297      24.784196     -12.886756     -64868.345    
   1293000   298.12084      130.23155      300.70254      207.16877      38.632693      52.047932      12.282761     -64859.855    
   1294000   296.11479      130.23155      300.70254      207.16877      39.694158      49.450543      28.296242     -64849.852    
   1295000   293.65012      130.23155      300.70254      207.16877      37.789469      35.943703     -49.818837     -64859.434    
   1296000   293.90554      130.23155      300.70254      207.16877      24.919805      49.183505     -27.915224     -64863.887    
   1297000   296.02484      130.23155      300.70254      207.16877      38.910476      47.115935      21.674289     -64859.076    
   1298000   293.62367      130.23155      300.70254      207.16877      35.211957      53.560506     -10.783806     -64868.341    
   1299000   294.99186      130.23155      300.70254      207.16877      39.423175      51.771734     -8.4910266     -64856.256    
   1300000   295.09309      130.23155      300.70254      207.16877      53.768288      45.271177     -13.756401     -64861.169    
   1301000   295.86189      130.23155      300.70254      207.16877      40.739722      54.730834     -1.9721889     -64852.014    
   1302000   295.70449      130.23155      300.70254      207.16877      32.915483      42.78984      -30.212597     -64862.555    
   1303000   295.91513      130.23155      300.70254      207.16877      35.939826      54.320112     -4.948873      -64858.432    
   1304000   300.26328      130.23155      300.70254      207.16877      57.109309      63.039221      14.208428     -64846.48     
   1305000   292.44096      130.23155      300.70254      207.16877      45.283694      62.503545     -6.4132193     -64865.862    
   1306000   295.83014      130.23155      300.70254      207.16877      48.903168      40.316274     -42.55507      -64850.228    
   1307000   295.1955       130.23155      300.70254      207.16877      26.609183      49.927167     -35.165528     -64857.295    
   1308000   296.89147      130.23155      300.70254      207.16877      48.178802      41.49515       8.0741789     -64853.465    
   1309000   292.32519      130.23155      300.70254      207.16877      30.593159      49.173783     -3.6961451     -64861.414    
   1310000   294.79399      130.23155      300.70254      207.16877      32.718006      45.219342     -4.3069366     -64861.495    
   1311000   293.16087      130.23155      300.70254      207.16877      37.317759      40.063666     -27.186296     -64860.707    
   1312000   295.26286      130.23155      300.70254      207.16877      40.098918      53.6054       -29.546447     -64859.796    
   1313000   294.96952      130.23155      300.70254      207.16877      40.626785      42.110597     -30.652232     -64856.759    
   1314000   298.79346      130.23155      300.70254      207.16877      44.537691      50.639044      38.178191     -64848.714    
   1315000   297.95159      130.23155      300.70254      207.16877      39.298255      46.989279      7.6791573     -64848.771    
   1316000   293.94478      130.23155      300.70254      207.16877      41.216356      36.503716     -54.809901     -64860.22     
   1317000   298.16278      130.23155      300.70254      207.16877      38.040729      45.912494     -24.436781     -64850.784    
   1318000   294.8978       130.23155      300.70254      207.16877      32.631233      67.338912      19.154006     -64862.576    
   1319000   293.90907      130.23155      300.70254      207.16877      58.612569      39.022561      14.430656     -64863.594    
   1320000   296.23768      130.23155      300.70254      207.16877      16.086574      63.783147     -42.66413      -64857.118    
   1321000   295.98885      130.23155      300.70254      207.16877      55.693714      39.255355     -11.157531     -64850.896    
   1322000   295.0032       130.23155      300.70254      207.16877      42.316795      50.200157      9.2325725     -64853.391    
   1323000   294.78354      130.23155      300.70254      207.16877      28.011019      59.837593     -38.167188     -64855.85     
   1324000   290.40439      130.23155      300.70254      207.16877      45.935421      43.639242     -42.329405     -64869.896    
   1325000   294.00574      130.23155      300.70254      207.16877      47.252843      58.456242      37.448901     -64857.986    
   1326000   293.92574      130.23155      300.70254      207.16877      38.142809      48.237215     -11.976777     -64867.178    
   1327000   293.97273      130.23155      300.70254      207.16877      35.808479      45.133278     -31.208898     -64858.172    
   1328000   296.75628      130.23155      300.70254      207.16877      34.771097      56.553572      4.9101839     -64862.259    
   1329000   293.51063      130.23155      300.70254      207.16877      45.016738      57.565935      22.177095     -64863.245    
   1330000   295.30401      130.23155      300.70254      207.16877      42.94092       58.883837     -16.884158     -64861.7      
   1331000   297.45804      130.23155      300.70254      207.16877      36.169871      49.006206     -28.888552     -64853.23     
   1332000   290.61273      130.23155      300.70254      207.16877      41.009046      60.441371     -1.4491161     -64868.641    
   1333000   294.64189      130.23155      300.70254      207.16877      43.229157      45.888883      4.4997979     -64857.889    
   1334000   296.48722      130.23155      300.70254      207.16877      37.093056      48.286391     -30.293055     -64862.391    
   1335000   291.4035       130.23155      300.70254      207.16877      35.315011      37.359723     -31.131985     -64863.73     
   1336000   295.31452      130.23155      300.70254      207.16877      25.950643      62.075607      10.826569     -64855.098    
   1337000   293.23803      130.23155      300.70254      207.16877      61.477761      31.019118      0.55496152    -64869.015    
   1338000   297.40197      130.23155      300.70254      207.16877      15.634598      58.729114     -48.980591     -64854.097    
   1339000   295.10636      130.23155      300.70254      207.16877      56.370967      51.101037      24.068393     -64871.441    
   1340000   296.00805      130.23155      300.70254      207.16877      64.466772      65.807084      25.535379     -64856.588    
   1341000   293.25937      130.23155      300.70254      207.16877      39.96095       69.242121     -55.778963     -64871.842    
   1342000   295.15822      130.23155      300.70254      207.16877      53.551106      50.551954     -20.791965     -64857.57     
   1343000   293.35315      130.23155      300.70254      207.16877      39.407709      62.121663      9.8607464     -64868.825    
   1344000   294.32118      130.23155      300.70254      207.16877      30.430931      64.482756     -25.031818     -64859.287    
   1345000   294.78569      130.23155      300.70254      207.16877      53.08783       43.140507     -17.526422     -64855.197    
   1346000   294.80397      130.23155      300.70254      207.16877      36.659744      86.128349      27.258181     -64864.728    
   1347000   296.56337      130.23155      300.70254      207.16877      53.928421      31.099614     -4.6503402     -64853.526    
   1348000   293.1248       130.23155      300.70254      207.16877      23.45589       59.529957     -13.660156     -64862.318    
   1349000   295.77481      130.23155      300.70254      207.16877      54.842177      43.161699      40.65975      -64855.995    
   1350000   293.66127      130.23155      300.70254      207.16877      32.398948      43.436472     -46.029702     -64869.84     
   1351000   293.19773      130.23155      300.70254      207.16877      34.768281      42.676182     -28.01436      -64859.983    
   1352000   298.16953      130.23155      300.70254      207.16877      33.240621      52.356397      21.568824     -64855.204    
   1353000   297.32169      130.23155      300.70254      207.16877      31.809304      42.738585      15.426906     -64861.078    
   1354000   295.79105      130.23155      300.70254      207.16877      36.451784      33.431655     -29.138192     -64859.597    
   1355000   294.52147      130.23155      300.70254      207.16877      37.094902      53.480964     -4.9300382     -64861.429    
   1356000   292.50376      130.23155      300.70254      207.16877      44.817546      45.597951      10.557873     -64864.507    
   1357000   293.82346      130.23155      300.70254      207.16877      29.892333      31.958366     -38.682855     -64863.863    
   1358000   298.03435      130.23155      300.70254      207.16877      35.349967      35.87181      -32.803084     -64853.114    
   1359000   295.88951      130.23155      300.70254      207.16877      19.562065      58.884455      34.391159     -64857.785    
   1360000   297.35684      130.23155      300.70254      207.16877      66.189422      31.216383      7.9305081     -64845.771    
   1361000   296.99163      130.23155      300.70254      207.16877      10.26738       65.470849     -42.158741     -64860.76     
   1362000   294.30112      130.23155      300.70254      207.16877      55.653198      39.562821     -19.718101     -64860.426    
   1363000   295.04483      130.23155      300.70254      207.16877      35.812334      57.187752      17.800549     -64852.425    
   1364000   293.73211      130.23155      300.70254      207.16877      31.612449      45.762232     -18.698411     -64858.085    
   1365000   295.45345      130.23155      300.70254      207.16877      47.962955      38.703433     -31.034127     -64860.351    
   1366000   296.14149      130.23155      300.70254      207.16877      44.771105      62.949539      22.437583     -64846.044    
   1367000   294.51483      130.23155      300.70254      207.16877      49.099866      52.982007     -9.5857072     -64857.955    
   1368000   297.32077      130.23155      300.70254      207.16877      37.447527      50.815702     -56.880353     -64852.496    
   1369000   292.69767      130.23155      300.70254      207.16877      48.23021       46.50842       9.0910956     -64863.234    
   1370000   295.63596      130.23155      300.70254      207.16877      41.237504      45.638316      12.332833     -64850.409    
   1371000   292.83822      130.23155      300.70254      207.16877      36.975995      47.564241     -24.396792     -64867.486    
   1372000   293.72131      130.23155      300.70254      207.16877      39.634107      42.916549     -20.631238     -64868.234    
   1373000   296.20556      130.23155      300.70254      207.16877      34.860617      56.64718      -3.943918      -64854.281    
   1374000   297.53453      130.23155      300.70254      207.16877      43.219665      34.554591     -13.339217     -64845.91     
   1375000   296.93071      130.23155      300.70254      207.16877      21.701168      53.537207      5.716598      -64850.968    
   1376000   292.65756      130.23155      300.70254      207.16877      46.550317      35.93556      -1.6402287     -64859.7      
   1377000   292.2284       130.23155      300.70254      207.16877      29.190082      48.576723     -16.848521     -64868.549    
   1378000   293.54093      130.23155      300.70254      207.16877      41.389759      46.755253      5.2189573     -64863.275    
   1379000   295.8302       130.23155      300.70254      207.16877      39.960277      43.531556      8.8112631     -64858.542    
   1380000   296.36005      130.23155      300.70254      207.16877      44.037039      51.478624     -29.08398      -64848.879    
   1381000   293.77881      130.23155      300.70254      207.16877      34.825662      52.39001      -24.276284     -64866.837    
   1382000   296.40522      130.23155      300.70254      207.16877      49.767862      58.771991     -6.2961905     -64857.238    
   1383000   293.88411      130.23155      300.70254      207.16877      40.55181       51.767313     -2.6735384     -64863.673    
   1384000   298.22454      130.23155      300.70254      207.16877      40.723524      49.324163     -17.291882     -64846.658    
   1385000   294.90971      130.23155      300.70254      207.16877      54.193174      52.203418      3.2174972     -64859.857    
   1386000   295.08581      130.23155      300.70254      207.16877      28.265016      44.446096     -33.907571     -64858.766    
   1387000   295.02428      130.23155      300.70254      207.16877      40.149368      47.167469     -17.609145     -64858.433    
   1388000   296.63281      130.23155      300.70254      207.16877      48.926711      52.889488      19.876462     -64850.626    
   1389000   297.66632      130.23155      300.70254      207.16877      35.050256      54.582778      10.621566     -64853.126    
   1390000   296.08637      130.23155      300.70254      207.16877      50.355284      40.854396     -32.584822     -64851.284    
   1391000   299.73183      130.23155      300.70254      207.16877      46.120603      43.510918     -21.491046     -64842.852    
   1392000   295.5279       130.23155      300.70254      207.16877      39.117018      69.722944      17.096791     -64862.634    
   1393000   293.52174      130.23155      300.70254      207.16877      56.989907      35.36733      -13.623445     -64865.908    
   1394000   296.01931      130.23155      300.70254      207.16877      38.440342      77.630844      4.8452015     -64857.272    
   1395000   296.04881      130.23155      300.70254      207.16877      53.442418      53.853621     -6.4349221     -64859.054    
   1396000   295.15051      130.23155      300.70254      207.16877      50.703078      49.715103     -17.190782     -64864.977    
   1397000   294.28887      130.23155      300.70254      207.16877      33.553133      63.773005     -10.075233     -64858.75     
   1398000   295.95322      130.23155      300.70254      207.16877      39.194533      51.898178     -8.2782216     -64857.042    
   1399000   292.21381      130.23155      300.70254      207.16877      45.036524      52.443681      0.56211563    -64862.614    
   1400000   294.21491      130.23155      300.70254      207.16877      22.148253      71.318992     -2.6434939     -64858.255    
   1401000   294.99372      130.23155      300.70254      207.16877      55.325314      34.820477     -26.559233     -64860.344    
   1402000   295.01307      130.23155      300.70254      207.16877      21.154063      66.31163      -48.05997      -64868.783    
   1403000   293.71983      130.23155      300.70254      207.16877      53.087387      50.164429      15.325172     -64868.66     
   1404000   295.70036      130.23155      300.70254      207.16877      57.172855      60.994414     -0.31085206    -64866.206    
   1405000   295.76365      130.23155      300.70254      207.16877      39.294999      74.026064     -9.3128973     -64855.074    
   1406000   292.53812      130.23155      300.70254      207.16877      66.000145      54.398864     -7.7324094     -64872.942    
   1407000   293.33436      130.23155      300.70254      207.16877      46.641984      68.175988     -3.2016945     -64863.791    
   1408000   297.7269       130.23155      300.70254      207.16877      38.466144      48.502603     -28.292443     -64845.983    
   1409000   294.62382      130.23155      300.70254      207.16877      46.120542      63.21598      -18.734594     -64861.562    
   1410000   292.10901      130.23155      300.70254      207.16877      46.20628       67.953496      0.74679446    -64874.427    
   1411000   295.23918      130.23155      300.70254      207.16877      48.807704      56.164986     -12.915819     -64858.875    
   1412000   294.72938      130.23155      300.70254      207.16877      47.401895      55.269027      8.1343006     -64852.805    
   1413000   295.48614      130.23155      300.70254      207.16877      36.191838      61.112919     -9.7825479     -64864.513    
   1414000   296.17253      130.23155      300.70254      207.16877      42.373281      52.879838     -10.844019     -64849.462    
   1415000   297.58421      130.23155      300.70254      207.16877      50.083222      55.290276      3.1920675     -64854.459    
   1416000   296.05261      130.23155      300.70254      207.16877      38.747537      67.515691     -0.21593472    -64854.496    
   1417000   296.80736      130.23155      300.70254      207.16877      60.064442      43.730356     -12.24816      -64850.596    
   1418000   296.08653      130.23155      300.70254      207.16877      25.817708      54.463633     -45.712679     -64858.35     
   1419000   296.80674      130.23155      300.70254      207.16877      62.972964      47.615744     -10.502668     -64847.779    
   1420000   298.47243      130.23155      300.70254      207.16877      44.157182      67.328251      22.537382     -64845.367    
   1421000   294.98742      130.23155      300.70254      207.16877      53.948926      50.549198     -3.4680708     -64862.777    
   1422000   293.14923      130.23155      300.70254      207.16877      37.850649      68.303059     -4.4369103     -64860.015    
   1423000   296.28885      130.23155      300.70254      207.16877      44.835591      47.29792       2.808139      -64850.333    
   1424000   292.73803      130.23155      300.70254      207.16877      42.384055      43.773345     -13.866439     -64864.085    
   1425000   297.12593      130.23155      300.70254      207.16877      33.547861      66.634218     -9.0767277     -64848.167    
   1426000   292.55974      130.23155      300.70254      207.16877      51.605859      44.325092     -20.027762     -64866.931    
   1427000   297.01412      130.23155      300.70254      207.16877      45.398468      64.046155     -7.0742169     -64855.212    
   1428000   293.67264      130.23155      300.70254      207.16877      36.196075      56.676432     -33.41607      -64872.696    
   1429000   294.42007      130.23155      300.70254      207.16877      52.521849      50.396349     -15.997714     -64861.131    
   1430000   296.02682      130.23155      300.70254      207.16877      40.403047      67.656872      6.2109564     -64853.741    
   1431000   295.57102      130.23155      300.70254      207.16877      59.631553      60.144342      17.950214     -64867.154    
   1432000   295.45067      130.23155      300.70254      207.16877      45.57716       58.756952     -17.567061     -64853.782    
   1433000   293.13622      130.23155      300.70254      207.16877      44.499908      63.019239     -5.600962      -64862.811    
   1434000   296.22343      130.23155      300.70254      207.16877      48.66227       59.061726     -7.7417896     -64850.902    
   1435000   291.44479      130.23155      300.70254      207.16877      33.985465      62.562494      13.574788     -64863.794    
   1436000   296.72052      130.23155      300.70254      207.16877      38.216395      50.986961     -32.096842     -64855.391    
   1437000   294.5449       130.23155      300.70254      207.16877      31.141131      46.454732     -20.466212     -64859.849    
   1438000   296.2532       130.23155      300.70254      207.16877      30.228671      70.228137      13.893814     -64849.264    
   1439000   294.61467      130.23155      300.70254      207.16877      53.27727       45.811804     -28.396811     -64862.143    
   1440000   297.80546      130.23155      300.70254      207.16877      35.227981      64.273014     -2.0759432     -64851.623    
   1441000   294.89166      130.23155      300.70254      207.16877      43.619581      54.950126      11.590293     -64864.682    
   1442000   295.42534      130.23155      300.70254      207.16877      47.19371       43.49714      -19.768511     -64855.748    
   1443000   294.09738      130.23155      300.70254      207.16877      22.098836      64.057791     -26.131574     -64860.373    
   1444000   298.38836      130.23155      300.70254      207.16877      61.129153      47.074554      2.3100051     -64848.774    
   1445000   297.85269      130.23155      300.70254      207.16877      39.505441      55.504817      11.225205     -64853.262    
   1446000   294.96535      130.23155      300.70254      207.16877      23.571288      63.440352      1.7259412     -64856.222    
   1447000   296.58335      130.23155      300.70254      207.16877      56.317576      32.147786      13.998493     -64858.209    
   1448000   294.15864      130.23155      300.70254      207.16877      12.958883      68.271735      0.34296479    -64868.37     
   1449000   293.17192      130.23155      300.70254      207.16877      43.764392      39.050473     -38.435742     -64867.83     
   1450000   296.89156      130.23155      300.70254      207.16877      35.14236       49.153553     -47.173192     -64853.26     
   1451000   295.1261       130.23155      300.70254      207.16877      41.730667      64.726248      15.752504     -64852.641    
   1452000   295.43697      130.23155      300.70254      207.16877      46.265895      58.822088      14.331616     -64864.655    
   1453000   298.37949      130.23155      300.70254      207.16877      33.061187      56.490078     -19.849879     -64848.625    
   1454000   295.06783      130.23155      300.70254      207.16877      45.240442      40.176004     -18.166138     -64858.482    
   1455000   293.1478       130.23155      300.70254      207.16877      39.205624      51.302104     -8.6679252     -64872.521    
   1456000   293.85727      130.23155      300.70254      207.16877      44.172781      56.880235     -0.29302381    -64859.331    
   1457000   294.74112      130.23155      300.70254      207.16877      51.835432      51.794327      4.9571987     -64855.407    
   1458000   292.81415      130.23155      300.70254      207.16877      29.322405      49.847589     -24.90324      -64872.5      
   1459000   296.24658      130.23155      300.70254      207.16877      26.427912      38.939295     -28.742228     -64857.234    
   1460000   288.15661      130.23155      300.70254      207.16877      42.592838      30.963255     -13.234135     -64881.781    
   1461000   294.256        130.23155      300.70254      207.16877      15.211046      53.627746      13.49038      -64861.727    
   1462000   296.32944      130.23155      300.70254      207.16877      42.096385      37.614362     -19.479674     -64862.682    
   1463000   292.34429      130.23155      300.70254      207.16877      36.070801      49.43364      -14.942558     -64864.953    
   1464000   295.772        130.23155      300.70254      207.16877      40.531494      57.405902      39.761457     -64853.15     
   1465000   292.55588      130.23155      300.70254      207.16877      58.189508      37.594074     -0.47148042    -64866.917    
   1466000   299.80606      130.23155      300.70254      207.16877      29.91601       57.618072     -35.503338     -64839.68     
   1467000   296.52824      130.23155      300.70254      207.16877      53.933275      41.802226     -7.6296229     -64861.126    
   1468000   295.6911       130.23155      300.70254      207.16877      46.48488       44.496235     -6.811458      -64860.409    
   1469000   295.38113      130.23155      300.70254      207.16877      31.21434       53.226405     -26.146398     -64851.2      
   1470000   295.69562      130.23155      300.70254      207.16877      55.382897      31.385277     -12.37475      -64853.55     
   1471000   290.42056      130.23155      300.70254      207.16877      37.917696      59.384882      23.934895     -64876.537    
   1472000   293.12917      130.23155      300.70254      207.16877      42.579223      52.761265     -10.899323     -64862.432    
   1473000   295.4481       130.23155      300.70254      207.16877      51.52121       26.65543      -35.464968     -64856.2      
   1474000   295.39977      130.23155      300.70254      207.16877      32.966831      76.918905      7.4711023     -64858.626    
   1475000   297.03161      130.23155      300.70254      207.16877      58.581408      52.569787      12.346442     -64854.084    
   1476000   296.82035      130.23155      300.70254      207.16877      42.743125      51.539992     -18.153404     -64858.314    
   1477000   293.1457       130.23155      300.70254      207.16877      31.819759      54.73728      -18.443695     -64867.104    
   1478000   296.35309      130.23155      300.70254      207.16877      58.036316      30.902033      9.6040377     -64852.544    
   1479000   294.46792      130.23155      300.70254      207.16877      16.403277      58.506379     -17.24689      -64863.072    
   1480000   294.838        130.23155      300.70254      207.16877      46.944383      40.919317     -15.207026     -64860.628    
   1481000   292.78733      130.23155      300.70254      207.16877      40.452197      38.412429     -1.8753485     -64875.828    
   1482000   295.39656      130.23155      300.70254      207.16877      17.028628      66.81878       6.0306046     -64856.282    
   1483000   296.88037      130.23155      300.70254      207.16877      58.642741      17.643567     -23.16068      -64853.904    
   1484000   292.76691      130.23155      300.70254      207.16877      17.405963      64.072137     -35.282241     -64859.31     
   1485000   293.70058      130.23155      300.70254      207.16877      42.660921      35.057935     -19.736205     -64863.237    
   1486000   295.34301      130.23155      300.70254      207.16877      45.814172      47.609704      39.815103     -64852.015    
   1487000   294.7525       130.23155      300.70254      207.16877      39.483541      49.318939      12.889512     -64868.705    
   1488000   295.36705      130.23155      300.70254      207.16877      35.74387       53.87059      -13.768268     -64856.119    
   1489000   293.91996      130.23155      300.70254      207.16877      44.577603      38.177055     -11.488347     -64858.123    
   1490000   295.42024      130.23155      300.70254      207.16877      24.951607      59.603508      2.2973428     -64855.856    
   1491000   294.72601      130.23155      300.70254      207.16877      43.837968      21.973238     -32.548554     -64863.704    
   1492000   292.64774      130.23155      300.70254      207.16877      27.87291       58.679415     -17.597911     -64861.452    
   1493000   297.01657      130.23155      300.70254      207.16877      44.381613      56.552215      16.062909     -64844.899    
   1494000   293.45328      130.23155      300.70254      207.16877      41.239735      35.964494     -19.372581     -64860.856    
   1495000   295.22571      130.23155      300.70254      207.16877      24.69556       70.602176     -3.8893572     -64854.584    
   1496000   296.61515      130.23155      300.70254      207.16877      55.264645      30.71114      -4.0942694     -64857.369    
   1497000   295.6421       130.23155      300.70254      207.16877      25.4708        59.967762     -39.459506     -64858.966    
   1498000   296.85302      130.23155      300.70254      207.16877      50.143383      59.761811      8.1551177     -64850.089    
   1499000   294.85829      130.23155      300.70254      207.16877      53.553742      52.241794      16.307733     -64858.645    
   1500000   295.5624       130.23155      300.70254      207.16877      35.905312      66.590405     -19.580588     -64856.89     
   1501000   295.23309      130.23155      300.70254      207.16877      46.940876      44.295747     -20.941958     -64858.688    
   1502000   295.49468      130.23155      300.70254      207.16877      47.445617      41.64921       1.2932662     -64862.329    
   1503000   298.15894      130.23155      300.70254      207.16877      35.684623      63.589161      19.797935     -64856.365    
   1504000   291.2519       130.23155      300.70254      207.16877      61.163707      38.887114     -6.4187981     -64870.281    
   1505000   293.86655      130.23155      300.70254      207.16877      27.996636      62.924135     -47.870384     -64855.596    
   1506000   292.2217       130.23155      300.70254      207.16877      52.554775      49.732621      4.2123452     -64866.87     
   1507000   293.1364       130.23155      300.70254      207.16877      45.448887      44.283143     -20.505714     -64866.048    
   1508000   298.44639      130.23155      300.70254      207.16877      32.234481      58.809713     -50.116063     -64846.094    
   1509000   293.34056      130.23155      300.70254      207.16877      52.621548      41.132028     -5.8535796     -64867.039    
   1510000   296.5896       130.23155      300.70254      207.16877      48.235238      57.65322       52.759803     -64852.535    
   1511000   295.99805      130.23155      300.70254      207.16877      41.709989      47.999049     -36.133662     -64857.784    
   1512000   295.29982      130.23155      300.70254      207.16877      28.406917      49.48554      -26.571781     -64856.251    
   1513000   293.95492      130.23155      300.70254      207.16877      58.274173      39.384933      18.810329     -64864.567    
   1514000   293.46486      130.23155      300.70254      207.16877      20.420854      62.377546     -25.802084     -64859.509    
   1515000   295.16332      130.23155      300.70254      207.16877      58.843531      45.449422      18.374837     -64860.896    
   1516000   296.17047      130.23155      300.70254      207.16877      29.364755      61.936966     -17.308965     -64840.514    
   1517000   293.18209      130.23155      300.70254      207.16877      33.817139      45.506668     -50.059092     -64865.417    
   1518000   291.94754      130.23155      300.70254      207.16877      42.962209      47.433475      28.862223     -64867.588    
   1519000   296.25089      130.23155      300.70254      207.16877      22.779694      59.204845     -8.4137806     -64853.619    
   1520000   296.04657      130.23155      300.70254      207.16877      48.852955      28.100583     -20.314919     -64868.312    
   1521000   293.2131       130.23155      300.70254      207.16877      28.693353      58.328548      28.089052     -64861.911    
   1522000   294.42894      130.23155      300.70254      207.16877      22.57207       44.894227     -41.039628     -64861.952    
   1523000   298.80852      130.23155      300.70254      207.16877      39.60093       38.68977      -15.023924     -64848.048    
   1524000   293.50226      130.23155      300.70254      207.16877      28.479689      45.935473      32.696042     -64858.652    
   1525000   296.98761      130.23155      300.70254      207.16877      34.673507      35.332488     -38.11503      -64857.259    
   1526000   297.38081      130.23155      300.70254      207.16877      26.675839      31.842469     -43.224844     -64850.322    
   1527000   295.62666      130.23155      300.70254      207.16877      32.105562      46.011161     -15.086571     -64857.533    
   1528000   296.36738      130.23155      300.70254      207.16877      48.043196      39.553693     -1.6634905     -64860.165    
   1529000   293.12432      130.23155      300.70254      207.16877      33.150173      45.049281      3.8407073     -64861.532    
   1530000   294.62029      130.23155      300.70254      207.16877      44.479651      42.903673      6.7918389     -64853.922    
   1531000   294.16765      130.23155      300.70254      207.16877      37.392862      51.165753      5.2101013     -64858.797    
   1532000   296.59893      130.23155      300.70254      207.16877      26.997857      54.477985     -19.384567     -64854.751    
   1533000   293.96843      130.23155      300.70254      207.16877      53.897915      30.825402     -3.6500713     -64860.214    
   1534000   297.40836      130.23155      300.70254      207.16877      20.554174      60.391811     -8.3546736     -64855.855    
   1535000   295.00598      130.23155      300.70254      207.16877      48.727313      35.675237     -9.2559116     -64862.229    
   1536000   296.41693      130.23155      300.70254      207.16877      47.438801      59.942901     -4.8399699     -64856.349    
   1537000   292.00402      130.23155      300.70254      207.16877      38.25476       50.974665     -11.004364     -64868.631    
   1538000   296.0427       130.23155      300.70254      207.16877      45.764478      36.232981     -21.147651     -64847.621    
   1539000   294.95018      130.23155      300.70254      207.16877      41.007502      61.401311      9.3310027     -64861.631    
   1540000   295.49683      130.23155      300.70254      207.16877      55.655258      51.21804       8.3707735     -64856.681    
   1541000   292.05945      130.23155      300.70254      207.16877      42.378257      47.141401     -25.835087     -64869.753    
   1542000   295.5167       130.23155      300.70254      207.16877      38.309688      56.728441      4.479466      -64859.809    
   1543000   293.73277      130.23155      300.70254      207.16877      41.264191      43.312467     -19.934492     -64860.76     
   1544000   294.1513       130.23155      300.70254      207.16877      40.22321       35.876945     -58.026976     -64864.59     
   1545000   294.86188      130.23155      300.70254      207.16877      28.191458      69.130295      18.443286     -64858.894    
   1546000   293.74352      130.23155      300.70254      207.16877      64.111948      39.040942      18.961655     -64862.86     
   1547000   297.17944      130.23155      300.70254      207.16877      28.287369      53.515677     -44.928557     -64851.862    
   1548000   297.97045      130.23155      300.70254      207.16877      45.854554      45.36025       2.9679388     -64852.37     
   1549000   297.92703      130.23155      300.70254      207.16877      28.738018      46.813065     -20.537387     -64845.886    
   1550000   295.18134      130.23155      300.70254      207.16877      44.996438      29.034303     -10.22941      -64865.809    
   1551000   295.42693      130.23155      300.70254      207.16877      29.241268      47.856271      19.821428     -64850.072    
   1552000   294.49655      130.23155      300.70254      207.16877      30.095954      40.659641     -20.138391     -64866.605    
   1553000   295.18667      130.23155      300.70254      207.16877      39.429379      44.181712      5.7800143     -64854.752    
   1554000   297.43781      130.23155      300.70254      207.16877      36.192671      48.315414     -5.3035073     -64851.212    
   1555000   294.24514      130.23155      300.70254      207.16877      31.422028      31.000447     -24.22571      -64857.671    
   1556000   293.81885      130.23155      300.70254      207.16877      25.475031      53.715051      22.956029     -64862.285    
   1557000   294.09111      130.23155      300.70254      207.16877      49.599935      23.494746     -17.314869     -64867.289    
   1558000   296.59951      130.23155      300.70254      207.16877      18.654667      46.361082     -36.863265     -64852.708    
   1559000   293.09001      130.23155      300.70254      207.16877      43.238755      34.985573      6.4201407     -64864.638    
   1560000   296.59032      130.23155      300.70254      207.16877      38.509641      50.067167      12.67586      -64852.302    
   1561000   296.27228      130.23155      300.70254      207.16877      30.316965      44.772054     -4.400729      -64861.603    
   1562000   293.07298      130.23155      300.70254      207.16877      42.703442      30.514901     -29.757031     -64866.018    
   1563000   294.41628      130.23155      300.70254      207.16877      34.01939       56.266656     -1.8956971     -64855.339    
   1564000   293.86204      130.23155      300.70254      207.16877      34.015629      48.631153      1.1901265     -64865.076    
   1565000   296.7706       130.23155      300.70254      207.16877      53.492797      31.70671      -26.458862     -64862.041    
   1566000   294.42945      130.23155      300.70254      207.16877      27.447232      69.04299       11.920869     -64860.786    
   1567000   294.94811      130.23155      300.70254      207.16877      39.326557      29.083781     -9.7956814     -64857.724    
   1568000   295.01614      130.23155      300.70254      207.16877      30.425853      33.39067      -25.552734     -64854.739    
   1569000   294.44457      130.23155      300.70254      207.16877      20.672793      45.685417     -25.868238     -64866.01     
   1570000   297.21973      130.23155      300.70254      207.16877      42.6604        26.693824      11.582869     -64855.433    
   1571000   296.14381      130.23155      300.70254      207.16877      20.816415      48.89404       1.9609711     -64857.79     
   1572000   296.30456      130.23155      300.70254      207.16877      43.878288      35.636846     -38.277951     -64849.868    
   1573000   293.94369      130.23155      300.70254      207.16877      36.871679      55.548602     -2.893544      -64860.373    
   1574000   294.90254      130.23155      300.70254      207.16877      49.791096      44.47381       36.145963     -64865.32     
   1575000   297.07287      130.23155      300.70254      207.16877      35.703196      49.837747     -31.909424     -64849.486    
   1576000   296.45218      130.23155      300.70254      207.16877      36.41276       51.777942     -26.146123     -64852.504    
   1577000   293.62091      130.23155      300.70254      207.16877      43.995726      47.056595      14.455769     -64862.538    
   1578000   294.49333      130.23155      300.70254      207.16877      35.774247      49.621837     -22.535762     -64857.412    
   1579000   294.78339      130.23155      300.70254      207.16877      33.470346      49.030323     -24.812851     -64860.175    
   1580000   295.9415       130.23155      300.70254      207.16877      46.51747       36.754923      7.0014792     -64863.639    
   1581000   295.28158      130.23155      300.70254      207.16877      25.804036      52.698133     -2.1774423     -64860.197    
   1582000   293.90975      130.23155      300.70254      207.16877      33.279898      44.069668     -24.30283      -64857.264    
   1583000   295.54866      130.23155      300.70254      207.16877      49.724236      34.94851      -0.1894105     -64853.336    
   1584000   293.5139       130.23155      300.70254      207.16877      19.43006       52.248641     -11.360748     -64861.355    
   1585000   292.97963      130.23155      300.70254      207.16877      51.274737      19.631121     -33.766799     -64868.52     
   1586000   295.11657      130.23155      300.70254      207.16877      16.787842      62.251094      13.966186     -64862.988    
   1587000   296.32525      130.23155      300.70254      207.16877      61.777306      22.545937      11.464604     -64850.592    
   1588000   294.16663      130.23155      300.70254      207.16877      32.94464       50.047954     -21.729706     -64865.886    
   1589000   296.11682      130.23155      300.70254      207.16877      29.151531      38.475132     -12.194202     -64856.197    
   1590000   296.77352      130.23155      300.70254      207.16877      41.749613      40.277231     -2.1515219     -64854.939    
   1591000   292.73641      130.23155      300.70254      207.16877      37.281263      30.992917     -22.97959      -64866.55     
   1592000   296.76536      130.23155      300.70254      207.16877      31.717025      45.818879      13.265817     -64850.66     
   1593000   298.65222      130.23155      300.70254      207.16877      46.450676      28.405902     -10.817256     -64850.229    
   1594000   293.95118      130.23155      300.70254      207.16877      20.458118      42.827263     -48.900295     -64865.055    
   1595000   295.91424      130.23155      300.70254      207.16877      35.681401      45.158691      2.3725447     -64854.846    
   1596000   294.98071      130.23155      300.70254      207.16877      60.510622      41.29295       24.337934     -64868.391    
   1597000   292.78998      130.23155      300.70254      207.16877      21.567957      61.77145      -31.802184     -64865.454    
   1598000   295.1039       130.23155      300.70254      207.16877      46.562832      26.558681     -37.850997     -64855.953    
   1599000   292.69562      130.23155      300.70254      207.16877      19.353883      53.608986     -1.5218447     -64864.156    
   1600000   294.85475      130.23155      300.70254      207.16877      34.412433      49.333101     -15.278624     -64861.326    
   1601000   294.42087      130.23155      300.70254      207.16877      43.073619      41.752523     -2.1419187     -64860.409    
   1602000   293.49516      130.23155      300.70254      207.16877      32.292989      51.595354     -7.8560755     -64864.354    
   1603000   296.89523      130.23155      300.70254      207.16877      40.236713      39.681975      2.743049      -64853.594    
   1604000   294.07092      130.23155      300.70254      207.16877      27.263052      40.306153     -15.116499     -64859.026    
   1605000   293.18923      130.23155      300.70254      207.16877      33.536679      42.011877     -14.82933      -64873.885    
   1606000   292.71487      130.23155      300.70254      207.16877      30.325203      38.965628     -17.583244     -64858.721    
   1607000   296.57937      130.23155      300.70254      207.16877      34.356272      53.740946     -8.2792124     -64855.068    
   1608000   294.69453      130.23155      300.70254      207.16877      43.681328      43.284079     -14.130008     -64864.431    
   1609000   298.51462      130.23155      300.70254      207.16877      30.282484      56.525189      1.4799056     -64853.3      
   1610000   294.32221      130.23155      300.70254      207.16877      32.910502      51.911355     -2.285921      -64861.486    
   1611000   296.48247      130.23155      300.70254      207.16877      46.560818      29.380742     -14.255284     -64852.033    
   1612000   296.70576      130.23155      300.70254      207.16877      17.226972      55.214318     -30.42987      -64866.573    
   1613000   293.64941      130.23155      300.70254      207.16877      46.231932      35.985482      30.689667     -64857.239    
   1614000   293.35699      130.23155      300.70254      207.16877      25.945184      41.485759     -7.9658709     -64868.164    
   1615000   296.48837      130.23155      300.70254      207.16877      28.383694      36.43317      -38.327548     -64857.467    
   1616000   295.52698      130.23155      300.70254      207.16877      41.169842      40.766154     -5.311256      -64855.141    
   1617000   298.28618      130.23155      300.70254      207.16877      37.827521      44.773286     -12.417898     -64841.409    
   1618000   295.62824      130.23155      300.70254      207.16877      41.350772      43.981807     -10.361292     -64861.642    
   1619000   294.11372      130.23155      300.70254      207.16877      39.648269      47.981064     -4.7263376     -64865.384    
   1620000   296.22353      130.23155      300.70254      207.16877      37.780888      47.21186      -14.320881     -64861.123    
   1621000   295.47487      130.23155      300.70254      207.16877      41.852002      44.978542      7.2158893     -64854.582    
   1622000   296.67703      130.23155      300.70254      207.16877      35.535531      46.239542      1.4817023     -64854.999    
   1623000   293.11643      130.23155      300.70254      207.16877      44.596926      45.944044     -6.6449222     -64861.705    
   1624000   294.5395       130.23155      300.70254      207.16877      39.331418      43.653882     -34.655118     -64861.783    
   1625000   295.19879      130.23155      300.70254      207.16877      47.377013      54.953613      1.0889563     -64860.855    
   1626000   295.19369      130.23155      300.70254      207.16877      50.292736      44.911341      23.463147     -64851.596    
   1627000   294.03871      130.23155      300.70254      207.16877      32.590678      46.177345     -35.134212     -64866.138    
   1628000   296.86169      130.23155      300.70254      207.16877      36.419486      49.722766     -38.306082     -64848.617    
   1629000   294.56651      130.23155      300.70254      207.16877      51.685082      43.364316      19.06781      -64854.838    
   1630000   293.93332      130.23155      300.70254      207.16877      44.818067      60.196682      19.734196     -64865.436    
   1631000   295.36274      130.23155      300.70254      207.16877      39.560075      42.815176     -14.315637     -64854.411    
   1632000   296.32062      130.23155      300.70254      207.16877      37.139544      41.907301     -27.676834     -64850.545    
   1633000   291.72547      130.23155      300.70254      207.16877      35.710855      48.481365     -14.555655     -64860.289    
   1634000   294.68201      130.23155      300.70254      207.16877      30.65868       52.332816     -30.979174     -64869.562    
   1635000   295.89745      130.23155      300.70254      207.16877      56.24505       43.626485      8.4991486     -64859.085    
   1636000   294.02655      130.23155      300.70254      207.16877      29.441235      62.082679      18.244046     -64857.184    
   1637000   297.0142       130.23155      300.70254      207.16877      51.43183       28.157288     -18.640716     -64852.022    
   1638000   293.89115      130.23155      300.70254      207.16877      21.108575      62.462898     -16.966729     -64858.451    
   1639000   293.58789      130.23155      300.70254      207.16877      53.539137      38.321958      14.42002      -64865.292    
   1640000   297.04753      130.23155      300.70254      207.16877      39.294408      62.200203     -1.7054033     -64856.703    
   1641000   293.9486       130.23155      300.70254      207.16877      20.854248      63.151763     -27.522624     -64845.971    
   1642000   294.70552      130.23155      300.70254      207.16877      56.391787      44.864759      13.528098     -64861.118    
   1643000   293.86626      130.23155      300.70254      207.16877      26.526335      77.401807      11.092436     -64864.281    
   1644000   296.92611      130.23155      300.70254      207.16877      49.628188      44.758895     -39.706032     -64854.878    
   1645000   296.53931      130.23155      300.70254      207.16877      46.601562      61.987854      5.7109785     -64854.038    
   1646000   295.08178      130.23155      300.70254      207.16877      36.535337      64.136271      18.765161     -64860.086    
   1647000   294.41761      130.23155      300.70254      207.16877      47.568337      32.097395     -36.191764     -64852.741    
   1648000   293.8493       130.23155      300.70254      207.16877      19.504261      58.003498     -21.160496     -64861.528    
   1649000   297.04021      130.23155      300.70254      207.16877      59.011799      30.045584      24.151645     -64849.539    
   1650000   294.60705      130.23155      300.70254      207.16877      27.326255      56.054052     -0.1971557     -64866.091    
   1651000   296.52497      130.23155      300.70254      207.16877      41.909902      49.862651     -23.082997     -64858.034    
   1652000   294.70973      130.23155      300.70254      207.16877      41.761365      53.385733     -6.5607745     -64867.463    
   1653000   295.56137      130.23155      300.70254      207.16877      37.572798      46.423686     -27.148333     -64858.898    
   1654000   297.262        130.23155      300.70254      207.16877      42.496339      50.034225      8.6443616     -64852.512    
   1655000   295.68082      130.23155      300.70254      207.16877      60.255295      45.334495      29.638802     -64853.873    
   1656000   294.8788       130.23155      300.70254      207.16877      26.27392       51.654732     -49.609782     -64858.977    
   1657000   292.63896      130.23155      300.70254      207.16877      41.743694      34.9748       -32.664454     -64859.2      
   1658000   294.61395      130.23155      300.70254      207.16877      47.651763      53.794087      28.678737     -64862.472    
   1659000   296.13261      130.23155      300.70254      207.16877      44.138418      56.369845      1.6675642     -64858.758    
   1660000   295.17581      130.23155      300.70254      207.16877      50.295709      45.806483     -35.404718     -64862.493    
   1661000   297.00359      130.23155      300.70254      207.16877      39.465818      64.944357     -14.340943     -64864.068    
   1662000   296.60244      130.23155      300.70254      207.16877      53.357704      55.472569      15.467112     -64848.232    
   1663000   294.85705      130.23155      300.70254      207.16877      37.986527      50.745982     -46.057129     -64864.921    
   1664000   297.20214      130.23155      300.70254      207.16877      48.844848      54.303904     -21.669149     -64850.561    
   1665000   294.75961      130.23155      300.70254      207.16877      48.566113      69.898175      16.641041     -64861.696    
   1666000   298.3864       130.23155      300.70254      207.16877      44.595462      49.131013     -14.885188     -64848.692    
   1667000   293.57515      130.23155      300.70254      207.16877      49.674873      56.337928     -0.64593404    -64862.969    
   1668000   296.09398      130.23155      300.70254      207.16877      35.138837      55.189464     -1.1914652     -64858.955    
   1669000   296.24374      130.23155      300.70254      207.16877      56.699081      41.441747     -4.675609      -64862.841    
   1670000   295.81852      130.23155      300.70254      207.16877      24.41709       57.408497      9.0840285     -64850.001    
   1671000   297.84937      130.23155      300.70254      207.16877      43.326885      39.70056      -18.094522     -64848.661    
   1672000   294.91574      130.23155      300.70254      207.16877      30.300588      42.400402     -36.048063     -64857.619    
   1673000   294.73874      130.23155      300.70254      207.16877      40.806433      44.180119      27.185117     -64858.978    
   1674000   295.6697       130.23155      300.70254      207.16877      36.022483      54.907629      21.432146     -64856.833    
   1675000   296.4947       130.23155      300.70254      207.16877      37.069611      29.926598     -44.48         -64853.941    
   1676000   294.27113      130.23155      300.70254      207.16877      20.233753      49.402489     -14.665756     -64857.031    
   1677000   295.9637       130.23155      300.70254      207.16877      51.496556      39.777651      39.128236     -64847.467    
   1678000   296.57713      130.23155      300.70254      207.16877      34.584349      41.625255     -20.424171     -64856.081    
   1679000   293.78399      130.23155      300.70254      207.16877      27.484944      47.438471     -41.298205     -64859.562    
   1680000   293.3517       130.23155      300.70254      207.16877      36.580211      40.762359      38.581179     -64865.57     
   1681000   293.65137      130.23155      300.70254      207.16877      22.804332      45.21964      -9.184198      -64863.33     
   1682000   296.70615      130.23155      300.70254      207.16877      43.294053      29.366331     -50.976277     -64855.251    
   1683000   291.38418      130.23155      300.70254      207.16877      43.344172      52.346497      13.583313     -64873.728    
   1684000   296.01465      130.23155      300.70254      207.16877      39.670377      60.570646      3.7139295     -64861.483    
   1685000   293.89963      130.23155      300.70254      207.16877      51.435919      38.289861     -30.043429     -64864.155    
   1686000   294.20632      130.23155      300.70254      207.16877      33.917007      49.678427     -15.387094     -64861.399    
   1687000   297.54754      130.23155      300.70254      207.16877      46.501725      49.891103      20.46694      -64857.556    
   1688000   297.45939      130.23155      300.70254      207.16877      42.925887      50.640784     -28.686518     -64859.109    
   1689000   296.62297      130.23155      300.70254      207.16877      44.824854      53.631755     -8.9901188     -64853.382    
   1690000   291.66182      130.23155      300.70254      207.16877      42.930216      47.268162      0.26429097    -64876.55     
   1691000   295.74803      130.23155      300.70254      207.16877      54.39205       29.451927     -17.840049     -64851.094    
   1692000   295.75126      130.23155      300.70254      207.16877      33.508608      63.27394       2.1072752     -64865.245    
   1693000   296.62839      130.23155      300.70254      207.16877      61.699742      33.957671     -8.6985005     -64848.525    
   1694000   295.04513      130.23155      300.70254      207.16877      29.477655      65.80318       3.864872      -64862.805    
   1695000   296.59104      130.23155      300.70254      207.16877      53.899481      46.83275      -27.906282     -64857.736    
   1696000   295.69346      130.23155      300.70254      207.16877      56.853624      43.200187     -16.77865      -64860.766    
   1697000   297.52247      130.23155      300.70254      207.16877      27.767073      70.790022     -3.7649989     -64850.786    
   1698000   295.50051      130.23155      300.70254      207.16877      63.496445      32.79142      -11.224033     -64860.633    
   1699000   295.47418      130.23155      300.70254      207.16877      43.522655      55.21046      -25.829512     -64861.587    
   1700000   294.87597      130.23155      300.70254      207.16877      33.631129      54.694321     -24.217051     -64861.906    
   1701000   293.91601      130.23155      300.70254      207.16877      59.86163       52.232093     -22.165978     -64869.039    
   1702000   296.0543       130.23155      300.70254      207.16877      48.871947      64.205488     -9.1257628     -64855.029    
   1703000   298.11318      130.23155      300.70254      207.16877      42.48732       55.686899      3.1930785     -64847.673    
   1704000   295.02681      130.23155      300.70254      207.16877      47.346506      49.585813     -11.225947     -64860.531    
   1705000   292.29947      130.23155      300.70254      207.16877      49.396531      55.970558      3.0467571     -64866.448    
   1706000   296.1144       130.23155      300.70254      207.16877      48.227003      60.343759     -4.2222046     -64857.025    
   1707000   296.17593      130.23155      300.70254      207.16877      57.751262      54.027481      9.5691239     -64855.211    
   1708000   294.30653      130.23155      300.70254      207.16877      35.800981      53.020642     -44.321544     -64862.196    
   1709000   297.21262      130.23155      300.70254      207.16877      43.430169      55.855732     -14.593922     -64846.873    
   1710000   294.45732      130.23155      300.70254      207.16877      45.350357      60.028203      28.360802     -64867.418    
   1711000   294.4093       130.23155      300.70254      207.16877      51.41303       43.465154     -33.172897     -64853.624    
   1712000   296.36142      130.23155      300.70254      207.16877      27.705178      58.321177     -56.137904     -64852.777    
   1713000   296.51153      130.23155      300.70254      207.16877      61.303547      50.452938      29.689597     -64854.221    
   1714000   294.29658      130.23155      300.70254      207.16877      34.766719      61.78424      -0.76728386    -64860.609    
   1715000   295.21618      130.23155      300.70254      207.16877      42.983955      55.435524     -21.517168     -64862.458    
   1716000   296.30704      130.23155      300.70254      207.16877      50.267851      50.902756      36.486969     -64857.462    
   1717000   298.14822      130.23155      300.70254      207.16877      33.309487      44.611181      11.82093      -64848.416    
   1718000   295.6637       130.23155      300.70254      207.16877      33.566777      32.854787     -61.83098      -64855.132    
   1719000   294.0992       130.23155      300.70254      207.16877      39.188617      42.1361       -6.2240354     -64864.82     
   1720000   295.42264      130.23155      300.70254      207.16877      37.864836      58.777658      12.639478     -64869.746    
   1721000   295.92456      130.23155      300.70254      207.16877      28.403062      36.069583     -37.533745     -64857.142    
   1722000   292.15143      130.23155      300.70254      207.16877      42.328671      48.325061      5.9369319     -64872.171    
   1723000   294.25997      130.23155      300.70254      207.16877      38.634689      49.646235      11.763188     -64866.439    
   1724000   297.28191      130.23155      300.70254      207.16877      43.669726      54.714245     -13.788391     -64854.49     
   1725000   296.47467      130.23155      300.70254      207.16877      45.205284      45.48416      -4.6128352     -64858.312    
   1726000   296.75197      130.23155      300.70254      207.16877      31.367298      54.741597     -16.78198      -64851.936    
   1727000   295.9987       130.23155      300.70254      207.16877      40.978408      44.600515     -47.522896     -64850.428    
   1728000   294.39661      130.23155      300.70254      207.16877      49.139087      58.025366     -3.5631593     -64860.514    
   1729000   293.17127      130.23155      300.70254      207.16877      44.168366      54.931697      12.803956     -64866.838    
   1730000   294.94879      130.23155      300.70254      207.16877      50.333792      58.252055      4.9131929     -64859.276    
   1731000   295.5873       130.23155      300.70254      207.16877      35.858621      41.941921     -50.524891     -64857.24     
   1732000   296.60452      130.23155      300.70254      207.16877      36.130515      55.292058     -32.078103     -64861.666    
   1733000   295.69444      130.23155      300.70254      207.16877      55.707128      54.075707      21.739603     -64847.661    
   1734000   295.79689      130.23155      300.70254      207.16877      48.044307      52.965708     -8.4443934     -64863.341    
   1735000   292.71065      130.23155      300.70254      207.16877      38.78076       49.214118     -17.962869     -64854.554    
   1736000   295.43456      130.23155      300.70254      207.16877      43.797964      41.729004     -13.85133      -64857.427    
   1737000   295.80618      130.23155      300.70254      207.16877      39.766252      56.307915     -21.813454     -64863.006    
   1738000   295.03097      130.23155      300.70254      207.16877      53.974861      51.818382      10.930273     -64856.48     
   1739000   295.41787      130.23155      300.70254      207.16877      40.621493      65.024271      11.900441     -64861.58     
   1740000   292.22251      130.23155      300.70254      207.16877      47.724867      43.863203     -13.711182     -64866.932    
   1741000   297.46087      130.23155      300.70254      207.16877      33.774951      55.733545     -25.308653     -64854.813    
   1742000   295.85292      130.23155      300.70254      207.16877      59.368345      50.044213     -14.432955     -64865.986    
   1743000   296.16656      130.23155      300.70254      207.16877      44.396282      57.68286       8.2429137     -64854.894    
   1744000   294.61753      130.23155      300.70254      207.16877      39.319563      56.564991     -22.696412     -64855.921    
   1745000   297.02073      130.23155      300.70254      207.16877      44.093218      55.433552      7.1517029     -64849.236    
   1746000   293.20758      130.23155      300.70254      207.16877      45.120693      59.860472      21.022012     -64871.433    
   1747000   296.44687      130.23155      300.70254      207.16877      45.052143      49.453013     -30.330401     -64861.299    
   1748000   295.93004      130.23155      300.70254      207.16877      43.436647      57.476356     -1.4351093     -64855.88     
   1749000   293.26191      130.23155      300.70254      207.16877      44.26749       51.388968     -6.2051245     -64858.32     
   1750000   296.24307      130.23155      300.70254      207.16877      45.376884      59.394484     -19.477391     -64853.41     
   1751000   296.14386      130.23155      300.70254      207.16877      56.944179      51.139016      5.4265789     -64857.307    
   1752000   295.75276      130.23155      300.70254      207.16877      39.935126      72.688336      10.719205     -64858.797    
   1753000   295.44248      130.23155      300.70254      207.16877      52.82539       40.687849     -19.521241     -64856.626    
   1754000   297.03569      130.23155      300.70254      207.16877      32.226871      65.952006      1.0790598     -64853.07     
   1755000   293.37331      130.23155      300.70254      207.16877      43.610612      53.48625      -15.922354     -64865.446    
   1756000   296.12111      130.23155      300.70254      207.16877      38.270309      52.062195     -46.078745     -64855.557    
   1757000   294.34143      130.23155      300.70254      207.16877      31.156289      49.386027      19.233319     -64866.924    
   1758000   293.90467      130.23155      300.70254      207.16877      58.547783      32.762726     -18.310272     -64864.078    
   1759000   294.38748      130.23155      300.70254      207.16877      25.517122      64.755149     -13.654086     -64855.285    
   1760000   292.21122      130.23155      300.70254      207.16877      53.937824      39.164883     -3.3678204     -64869.434    
   1761000   293.74726      130.23155      300.70254      207.16877      32.750163      51.429598      10.703097     -64863.24     
   1762000   293.4816       130.23155      300.70254      207.16877      35.898907      34.791581     -34.12684      -64861.682    
   1763000   294.2199       130.23155      300.70254      207.16877      20.365419      55.276966      1.1708529     -64857.963    
   1764000   297.23767      130.23155      300.70254      207.16877      55.618162      27.701767     -4.0725834     -64869.662    
   1765000   295.46937      130.23155      300.70254      207.16877      15.188661      75.714525     -27.501242     -64859.459    
   1766000   296.01938      130.23155      300.70254      207.16877      73.457468      22.121431     -0.32906509    -64858.923    
   1767000   298.50352      130.23155      300.70254      207.16877      15.255987      79.956472     -2.0298268     -64846.794    
   1768000   295.59194      130.23155      300.70254      207.16877      62.553352      28.764879      14.137083     -64857.173    
   1769000   293.21466      130.23155      300.70254      207.16877      21.839422      53.553578     -24.477517     -64862.05     
   1770000   293.50945      130.23155      300.70254      207.16877      35.178802      46.177479     -14.582111     -64858.437    
   1771000   296.54816      130.23155      300.70254      207.16877      51.331116      43.377484      4.5545689     -64855.958    
   1772000   293.76131      130.23155      300.70254      207.16877      35.796348      49.288438     -20.843743     -64861.452    
   1773000   295.42927      130.23155      300.70254      207.16877      36.028486      32.037        -30.758927     -64860.952    
   1774000   294.73521      130.23155      300.70254      207.16877      27.552247      52.180483      10.364793     -64857.791    
   1775000   294.74256      130.23155      300.70254      207.16877      46.502095      45.623128      18.670247     -64863.685    
   1776000   297.39306      130.23155      300.70254      207.16877      36.875728      41.493592     -50.002203     -64849.037    
   1777000   296.29806      130.23155      300.70254      207.16877      32.240273      40.399486     -21.399432     -64854.578    
   1778000   288.95083      130.23155      300.70254      207.16877      46.018819      44.693013      13.542911     -64876.709    
   1779000   292.58838      130.23155      300.70254      207.16877      38.019158      49.034685     -39.207808     -64862.222    
   1780000   294.69297      130.23155      300.70254      207.16877      43.966028      38.347341     -15.441717     -64865.612    
   1781000   295.41903      130.23155      300.70254      207.16877      44.541641      49.339039      32.790283     -64858.328    
   1782000   295.12506      130.23155      300.70254      207.16877      30.11091       40.02431      -23.898402     -64853.938    
   1783000   291.98492      130.23155      300.70254      207.16877      50.748724      30.130417     -24.891736     -64865.273    
   1784000   296.24469      130.23155      300.70254      207.16877      35.26931       45.102855      26.781672     -64861.014    
   1785000   296.10409      130.23155      300.70254      207.16877      45.965892      38.943873      9.6905785     -64853.535    
   1786000   293.58864      130.23155      300.70254      207.16877      33.516009      41.424966     -48.685877     -64858.202    
   1787000   297.02162      130.23155      300.70254      207.16877      49.418103      48.954629      3.481183      -64851.411    
   1788000   295.74243      130.23155      300.70254      207.16877      57.11818       46.368883      8.839391      -64860.518    
   1789000   296.92165      130.23155      300.70254      207.16877      46.343195      55.084102     -9.9445587     -64855.557    
   1790000   292.61554      130.23155      300.70254      207.16877      45.261111      40.083659     -38.069276     -64871.44     
   1791000   295.44578      130.23155      300.70254      207.16877      55.421884      37.790777      7.4492816     -64856.997    
   1792000   294.97529      130.23155      300.70254      207.16877      33.669479      64.85675      -9.4187878     -64862.844    
   1793000   296.11011      130.23155      300.70254      207.16877      56.018052      41.644258     -18.648755     -64853.93     
   1794000   295.55695      130.23155      300.70254      207.16877      38.934613      54.244135     -17.544738     -64866.577    
   1795000   295.31468      130.23155      300.70254      207.16877      37.306241      46.036579     -24.474873     -64857.052    
   1796000   293.8028       130.23155      300.70254      207.16877      52.6837        43.763261      4.0942669     -64867.986    
   1797000   292.0051       130.23155      300.70254      207.16877      34.968235      48.192333     -1.5579784     -64858.97     
   1798000   297.30204      130.23155      300.70254      207.16877      36.048232      45.465255     -4.3999682     -64856.385    
   1799000   295.7197       130.23155      300.70254      207.16877      42.667586      35.181491      3.8387948     -64856.742    
   1800000   299.98208      130.23155      300.70254      207.16877      24.772286      48.340756     -34.21452      -64857.041    
   1801000   294.99374      130.23155      300.70254      207.16877      41.898558      27.444507     -7.1287387     -64852.673    
   1802000   293.51403      130.23155      300.70254      207.16877      41.289297      37.683232      3.7264249     -64875.539    
   1803000   296.91086      130.23155      300.70254      207.16877      29.430077      49.400778     -3.1112196     -64857.215    
   1804000   295.02634      130.23155      300.70254      207.16877      50.199853      27.970067      3.0249754     -64862.732    
   1805000   295.36108      130.23155      300.70254      207.16877      18.849769      41.689423     -54.532529     -64853.569    
   1806000   294.42475      130.23155      300.70254      207.16877      31.255415      36.630865     -3.0915767     -64871.835    
   1807000   295.96662      130.23155      300.70254      207.16877      53.938786      38.866026      33.954645     -64849.141    
   1808000   295.48087      130.23155      300.70254      207.16877      29.357976      47.74062      -32.93428      -64855.15     
   1809000   292.49154      130.23155      300.70254      207.16877      43.530842      29.115789     -25.839455     -64865.599    
   1810000   294.83996      130.23155      300.70254      207.16877      42.87966       51.400481      31.396182     -64862.412    
   1811000   295.68658      130.23155      300.70254      207.16877      34.836274      62.429491     -1.4068082     -64861.753    
   1812000   295.24412      130.23155      300.70254      207.16877      47.689614      34.532789     -43.790758     -64851.949    
   1813000   294.99311      130.23155      300.70254      207.16877      47.6223        45.67922       19.411824     -64866.434    
   1814000   299.10906      130.23155      300.70254      207.16877      48.092922      49.744909      12.325082     -64849.91     
   1815000   294.93455      130.23155      300.70254      207.16877      43.080643      37.943257     -53.85883      -64872.808    
   1816000   296.34115      130.23155      300.70254      207.16877      30.526247      54.595498     -10.883329     -64855.404    
   1817000   296.07234      130.23155      300.70254      207.16877      63.377003      42.136064      32.243129     -64852.795    
   1818000   293.46461      130.23155      300.70254      207.16877      18.400727      54.957423     -25.397174     -64862.814    
   1819000   292.0842       130.23155      300.70254      207.16877      41.103295      36.306415     -16.588559     -64866.208    
   1820000   294.78183      130.23155      300.70254      207.16877      54.3188        43.113151      13.377359     -64858.993    
   1821000   296.20091      130.23155      300.70254      207.16877      29.879663      48.717711     -44.80952      -64855.473    
   1822000   295.3487       130.23155      300.70254      207.16877      60.631916      35.440272     -0.59979061    -64860.856    
   1823000   296.39971      130.23155      300.70254      207.16877      38.386616      68.295135      19.475384     -64847.918    
   1824000   292.69125      130.23155      300.70254      207.16877      43.967142      28.679912     -33.212131     -64864.334    
   1825000   294.47658      130.23155      300.70254      207.16877      39.358569      43.656307     -44.384619     -64858.856    
   1826000   296.85328      130.23155      300.70254      207.16877      31.668045      51.030988      17.58778      -64850.01     
   1827000   297.95278      130.23155      300.70254      207.16877      40.728198      34.097855     -20.14946      -64857.779    
   1828000   294.18914      130.23155      300.70254      207.16877      33.98243       49.860523     -4.3992058     -64871.518    
   1829000   295.02075      130.23155      300.70254      207.16877      44.281472      39.889714      5.2466189     -64854.695    
   1830000   292.50248      130.23155      300.70254      207.16877      51.63262       40.009308     -7.8954634     -64865.567    
   1831000   295.88723      130.23155      300.70254      207.16877      33.865345      55.377797     -14.163006     -64859.582    
   1832000   297.12873      130.23155      300.70254      207.16877      52.670264      28.410555      9.2472862     -64852.002    
   1833000   292.92318      130.23155      300.70254      207.16877      37.105497      48.801708     -30.222058     -64865.824    
   1834000   294.72479      130.23155      300.70254      207.16877      32.006579      55.690657     -37.850885     -64861.39     
   1835000   294.25302      130.23155      300.70254      207.16877      60.721224      32.917169      27.326553     -64861.381    
   1836000   294.62948      130.23155      300.70254      207.16877      28.544008      57.86792      -26.155702     -64864.144    
   1837000   293.80799      130.23155      300.70254      207.16877      53.035093      31.70789      -13.003577     -64867.198    
   1838000   296.6155       130.23155      300.70254      207.16877      40.486304      42.661532      39.387687     -64848.862    
   1839000   297.18454      130.23155      300.70254      207.16877      39.7334        55.57702      -3.9654085     -64862.001    
   1840000   295.81194      130.23155      300.70254      207.16877      44.648669      32.635657     -32.031129     -64852.99     
   1841000   294.32744      130.23155      300.70254      207.16877      29.913631      51.179632     -16.196171     -64860.442    
   1842000   291.41288      130.23155      300.70254      207.16877      38.165174      34.501372     -9.4145328     -64872.44     
   1843000   293.38815      130.23155      300.70254      207.16877      35.65314       34.052656     -21.721184     -64863.475    
   1844000   296.01006      130.23155      300.70254      207.16877      26.704734      37.279611     -3.2876483     -64851.412    
   1845000   298.3216       130.23155      300.70254      207.16877      49.676184      25.983004      11.919074     -64848.688    
   1846000   295.04653      130.23155      300.70254      207.16877      7.4329696      47.894552     -25.234074     -64860.81     
   1847000   294.34148      130.23155      300.70254      207.16877      39.850067      26.710233     -16.172579     -64856.317    
   1848000   294.68281      130.23155      300.70254      207.16877      32.701217      38.075759      3.3321401     -64860.033    
   1849000   293.13945      130.23155      300.70254      207.16877      27.315901      31.375086     -15.140459     -64860.507    
   1850000   295.06391      130.23155      300.70254      207.16877      42.253695      37.172272      2.3560332     -64868.626    
   1851000   296.83194      130.23155      300.70254      207.16877      46.036982      39.062394      7.5189353     -64857.106    
   1852000   296.10399      130.23155      300.70254      207.16877      21.027139      51.44406      -13.467594     -64846.563    
   1853000   294.15226      130.23155      300.70254      207.16877      63.923059      25.35759       8.6244844     -64866.432    
   1854000   297.77058      130.23155      300.70254      207.16877      21.365703      65.519812     -11.118757     -64855.473    
   1855000   296.46853      130.23155      300.70254      207.16877      59.796287      32.708249     -32.827265     -64861.366    
   1856000   296.50723      130.23155      300.70254      207.16877      48.762762      55.57084       15.97759      -64850.714    
   1857000   294.04323      130.23155      300.70254      207.16877      32.242174      46.065531      2.6950716     -64862.153    
   1858000   294.18328      130.23155      300.70254      207.16877      49.818658      16.537059     -46.853359     -64867.835    
   1859000   293.98096      130.23155      300.70254      207.16877      31.091042      53.51713      -11.425887     -64858.506    
   1860000   292.60279      130.23155      300.70254      207.16877      48.389535      36.595018      23.144943     -64867.243    
   1861000   297.59377      130.23155      300.70254      207.16877      36.268929      42.165148     -36.22278      -64847.333    
   1862000   291.86037      130.23155      300.70254      207.16877      34.876511      37.268398     -21.04639      -64867.583    
   1863000   295.98759      130.23155      300.70254      207.16877      40.676791      39.823626      26.655605     -64863.254    
   1864000   293.61876      130.23155      300.70254      207.16877      45.228409      34.622523     -21.683464     -64865.325    
   1865000   296.92372      130.23155      300.70254      207.16877      27.324963      40.32619      -14.07043      -64855.901    
   1866000   293.97764      130.23155      300.70254      207.16877      53.62701       22.965646      9.7871033     -64864.431    
   1867000   294.7947       130.23155      300.70254      207.16877      28.289312      49.274208     -9.4135822     -64858.264    
   1868000   295.14436      130.23155      300.70254      207.16877      31.523495      27.251829     -42.749913     -64850.724    
   1869000   295.60333      130.23155      300.70254      207.16877      39.103613      38.54836      -6.0483819     -64863.811    
   1870000   296.89375      130.23155      300.70254      207.16877      35.169419      40.723601      20.134366     -64852.696    
   1871000   296.12543      130.23155      300.70254      207.16877      37.993462      33.564573     -46.573712     -64859.331    
   1872000   297.0002       130.23155      300.70254      207.16877      37.664678      38.98071       2.2118029     -64855.075    
   1873000   293.6295       130.23155      300.70254      207.16877      40.871612      30.144004      3.9808947     -64870.73     
   1874000   293.52344      130.23155      300.70254      207.16877      34.047355      43.888484     -14.372605     -64860.229    
   1875000   297.44155      130.23155      300.70254      207.16877      44.093346      25.552908      15.279885     -64854.831    
   1876000   295.93919      130.23155      300.70254      207.16877      27.345932      60.107305     -8.1731459     -64856.653    
   1877000   297.012        130.23155      300.70254      207.16877      53.273842      29.151635     -24.714959     -64855.923    
   1878000   292.05957      130.23155      300.70254      207.16877      22.452086      47.007116      9.2517425     -64875.947    
   1879000   298.31451      130.23155      300.70254      207.16877      37.168183      31.04665      -13.19376      -64858.829    
   1880000   293.51698      130.23155      300.70254      207.16877      24.689813      24.381819     -25.097369     -64857.771    
   1881000   297.03589      130.23155      300.70254      207.16877      25.278372      45.697267      11.935817     -64855.436    
   1882000   294.78037      130.23155      300.70254      207.16877      45.718695      32.374792     -1.2708559     -64863.568    
   1883000   294.76121      130.23155      300.70254      207.16877      36.250169      27.646021     -16.851557     -64854.068    
   1884000   295.18587      130.23155      300.70254      207.16877      49.969133      29.176519      15.962385     -64862.667    
   1885000   290.6612       130.23155      300.70254      207.16877      19.01247       44.203019     -1.1282787     -64876.867    
   1886000   293.38914      130.23155      300.70254      207.16877      45.037552      14.927197     -43.825358     -64859.507    
   1887000   298.77166      130.23155      300.70254      207.16877      31.500422      46.770496     -5.4958392     -64852.271    
   1888000   296.80605      130.23155      300.70254      207.16877      47.579017      42.596938      18.3384       -64851.025    
   1889000   292.74923      130.23155      300.70254      207.16877      40.852585      30.986783     -16.617596     -64868.863    
   1890000   297.76837      130.23155      300.70254      207.16877      28.242144      39.65246      -12.353142     -64851.187    
   1891000   295.38898      130.23155      300.70254      207.16877      33.835334      26.145113     -4.1935352     -64858.04     
   1892000   295.86339      130.23155      300.70254      207.16877      25.385376      31.680983     -32.777322     -64851.78     
   1893000   292.0111       130.23155      300.70254      207.16877      39.321343      36.150718     -8.4074712     -64861.466    
   1894000   296.23368      130.23155      300.70254      207.16877      41.814062      38.734423      5.8238652     -64853.879    
   1895000   295.06761      130.23155      300.70254      207.16877      44.148772      41.847708     -5.0043141     -64867.083    
   1896000   295.35417      130.23155      300.70254      207.16877      38.814147      33.836441      2.7312662     -64854.84     
   1897000   294.83964      130.23155      300.70254      207.16877      57.423145      36.727956      20.108446     -64867.823    
   1898000   295.53815      130.23155      300.70254      207.16877      23.031221      50.37064      -22.702755     -64858.741    
   1899000   292.90681      130.23155      300.70254      207.16877      57.821838      31.01465       0.14380584    -64859.283    
   1900000   297.40629      130.23155      300.70254      207.16877      31.025868      60.850919     -4.2959547     -64856.591    
   1901000   295.03003      130.23155      300.70254      207.16877      49.220855      27.203119     -35.783783     -64862.274    
   1902000   297.45704      130.23155      300.70254      207.16877      40.849465      44.17525      -29.547133     -64852.574    
   1903000   292.7896       130.23155      300.70254      207.16877      45.097186      56.325232      4.3724008     -64865.954    
   1904000   294.82385      130.23155      300.70254      207.16877      55.057147      41.115869     -3.8817917     -64860.332    
   1905000   294.75917      130.23155      300.70254      207.16877      31.851822      62.950662     -1.4832592     -64855.189    
   1906000   297.50951      130.23155      300.70254      207.16877      53.770563      55.874564     -6.8832663     -64851.015    
   1907000   294.90968      130.23155      300.70254      207.16877      45.764977      48.348573     -7.6278174     -64863.875    
   1908000   297.0587       130.23155      300.70254      207.16877      29.590534      56.009733     -21.955807     -64852.205    
   1909000   294.41867      130.23155      300.70254      207.16877      50.942084      50.970847     -3.3093709     -64863.134    
   1910000   293.06043      130.23155      300.70254      207.16877      54.891475      41.323674     -9.5759637     -64861.985    
   1911000   296.10271      130.23155      300.70254      207.16877      30.132163      73.696125     -14.957625     -64848.922    
   1912000   296.52331      130.23155      300.70254      207.16877      64.762941      35.361018     -14.254562     -64855.177    
   1913000   294.19371      130.23155      300.70254      207.16877      29.077984      60.050413      1.6432176     -64861.114    
   1914000   294.60087      130.23155      300.70254      207.16877      46.753274      46.645502     -9.5712472     -64857.67     
   1915000   292.8346       130.23155      300.70254      207.16877      52.895726      28.516278      7.7078039     -64868.771    
   1916000   296.57135      130.23155      300.70254      207.16877      27.886454      64.594978      13.447892     -64862.833    
   1917000   294.58606      130.23155      300.70254      207.16877      48.299503      23.865057     -30.23467      -64859.631    
   1918000   297.63647      130.23155      300.70254      207.16877      38.12101       45.274832     -33.790745     -64847.621    
   1919000   295.26244      130.23155      300.70254      207.16877      47.352406      54.187633      14.524257     -64859.068    
   1920000   295.33998      130.23155      300.70254      207.16877      45.377122      38.777044     -11.151234     -64858.475    
   1921000   295.69406      130.23155      300.70254      207.16877      37.471236      46.653994     -18.797748     -64863.807    
   1922000   295.95827      130.23155      300.70254      207.16877      42.919946      60.786173      6.543432      -64856.891    
   1923000   293.9592       130.23155      300.70254      207.16877      58.129877      42.405384     -6.6925379     -64873.65     
   1924000   295.30064      130.23155      300.70254      207.16877      20.0863        61.660348     -20.018512     -64852.588    
   1925000   299.57301      130.23155      300.70254      207.16877      49.063008      39.182899     -14.395476     -64848.688    
   1926000   295.51297      130.23155      300.70254      207.16877      35.414703      51.229215      13.777388     -64856.153    
   1927000   297.13795      130.23155      300.70254      207.16877      39.500097      44.144554     -5.0747657     -64861.365    
   1928000   296.20864      130.23155      300.70254      207.16877      54.041446      46.506405     -22.784941     -64855.455    
   1929000   293.74634      130.23155      300.70254      207.16877      34.941025      64.992457     -9.0690012     -64869.493    
   1930000   293.94945      130.23155      300.70254      207.16877      49.699194      53.202287      10.976303     -64863.006    
   1931000   296.67018      130.23155      300.70254      207.16877      38.012645      53.976258      6.9211611     -64848.872    
   1932000   296.90879      130.23155      300.70254      207.16877      38.080837      46.040384     -26.120284     -64859.83     
   1933000   294.06694      130.23155      300.70254      207.16877      32.767048      50.067007     -4.1318635     -64863.753    
   1934000   296.14523      130.23155      300.70254      207.16877      45.522228      47.271379     -7.3817563     -64854.046    
   1935000   297.13987      130.23155      300.70254      207.16877      42.765872      60.269779     -15.147772     -64851.128    
   1936000   295.12788      130.23155      300.70254      207.16877      53.28928       55.312775     -8.7748789     -64864.133    
   1937000   296.31239      130.23155      300.70254      207.16877      46.319142      53.759816      18.56247      -64857.91     
   1938000   298.28259      130.23155      300.70254      207.16877      47.13441       54.34756      -13.425409     -64845.684    
   1939000   293.74405      130.23155      300.70254      207.16877      51.921793      49.326706     -1.9491118     -64864.695    
   1940000   295.886        130.23155      300.70254      207.16877      41.439079      61.402634     -3.787224      -64853.28     
   1941000   297.03042      130.23155      300.70254      207.16877      56.937457      39.521452     -33.127632     -64860.967    
   1942000   294.13829      130.23155      300.70254      207.16877      36.667144      53.507057     -16.961748     -64856.043    
   1943000   293.06855      130.23155      300.70254      207.16877      43.46105       47.685905      22.04886      -64870.786    
   1944000   295.37647      130.23155      300.70254      207.16877      50.324371      41.935226     -13.083105     -64856.044    
   1945000   293.44286      130.23155      300.70254      207.16877      37.767397      51.272485     -11.786002     -64865.3      
   1946000   297.46048      130.23155      300.70254      207.16877      56.03673       53.013029      36.025259     -64856.888    
   1947000   295.19408      130.23155      300.70254      207.16877      44.517782      60.929336     -39.404859     -64862.244    
   1948000   294.06552      130.23155      300.70254      207.16877      42.646977      53.465955     -7.1724049     -64865.962    
   1949000   296.5404       130.23155      300.70254      207.16877      53.194854      67.235133      48.573153     -64845.885    
   1950000   296.68809      130.23155      300.70254      207.16877      38.869835      53.559418     -31.22992      -64857.993    
   1951000   294.97454      130.23155      300.70254      207.16877      44.279423      44.484306     -31.149188     -64860.448    
   1952000   294.11191      130.23155      300.70254      207.16877      36.962514      43.051456      7.8118907     -64861.838    
   1953000   295.35         130.23155      300.70254      207.16877      43.106529      67.139938      17.261714     -64862.923    
   1954000   294.71778      130.23155      300.70254      207.16877      45.884708      44.386345     -24.773884     -64858.52     
   1955000   295.85474      130.23155      300.70254      207.16877      33.024212      42.367929     -34.682751     -64862.5      
   1956000   295.11829      130.23155      300.70254      207.16877      42.727391      41.157168      12.351296     -64866.697    
   1957000   293.86756      130.23155      300.70254      207.16877      41.528273      54.898942      23.833599     -64867.013    
   1958000   293.89794      130.23155      300.70254      207.16877      40.100191      43.763719     -32.058287     -64858.233    
   1959000   295.1477       130.23155      300.70254      207.16877      36.191344      52.784368     -20.755499     -64858.357    
   1960000   296.05874      130.23155      300.70254      207.16877      46.932579      60.895597      38.400676     -64849.671    
   1961000   296.0097       130.23155      300.70254      207.16877      32.262193      44.448346     -21.169838     -64865.198    
   1962000   295.93026      130.23155      300.70254      207.16877      32.753595      33.537841     -73.388548     -64854.777    
   1963000   296.65326      130.23155      300.70254      207.16877      32.718938      65.782532      25.797963     -64860.817    
   1964000   295.65124      130.23155      300.70254      207.16877      57.631926      50.010993      50.896231     -64863.215    
   1965000   296.05249      130.23155      300.70254      207.16877      27.593001      58.980273     -38.806897     -64858.953    
   1966000   292.12261      130.23155      300.70254      207.16877      35.711921      40.363131     -27.914429     -64861.735    
   1967000   297.03163      130.23155      300.70254      207.16877      43.974631      53.936935      30.075106     -64859.832    
   1968000   296.05986      130.23155      300.70254      207.16877      33.081851      50.444734     -37.828998     -64865.326    
   1969000   297.16388      130.23155      300.70254      207.16877      43.648718      25.925568     -40.560064     -64850.176    
   1970000   293.58025      130.23155      300.70254      207.16877      18.699092      59.896805      17.33505      -64863.546    
   1971000   296.63513      130.23155      300.70254      207.16877      44.453589      32.996005      10.855753     -64854.573    
   1972000   292.51405      130.23155      300.70254      207.16877      32.697258      47.398442     -25.08028      -64863.821    
   1973000   297.47838      130.23155      300.70254      207.16877      42.204254      44.700483      13.081389     -64848.091    
   1974000   292.21147      130.23155      300.70254      207.16877      52.049605      41.9148        4.9326028     -64862.232    
   1975000   297.37652      130.23155      300.70254      207.16877      35.319007      56.972039     -24.445074     -64864.446    
   1976000   296.61642      130.23155      300.70254      207.16877      46.886164      33.455806     -22.709269     -64856.298    
   1977000   294.83952      130.23155      300.70254      207.16877      30.90746       56.222703     -16.822212     -64870.028    
   1978000   296.02858      130.23155      300.70254      207.16877      44.532144      42.835948      16.369152     -64852.122    
   1979000   294.41173      130.23155      300.70254      207.16877      48.604291      43.041514     -5.0787598     -64866.387    
   1980000   294.7974       130.23155      300.70254      207.16877      37.601132      57.94589      -6.3089196     -64854.137    
   1981000   293.94653      130.23155      300.70254      207.16877      61.270003      43.246319      2.9077548     -64864.478    
   1982000   295.28302      130.23155      300.70254      207.16877      36.449531      50.771762     -7.8810243     -64854.834    
   1983000   294.52096      130.23155      300.70254      207.16877      35.356621      35.419474     -59.211705     -64860.197    
   1984000   292.70842      130.23155      300.70254      207.16877      51.646097      56.71884       23.671602     -64862.798    
   1985000   296.41625      130.23155      300.70254      207.16877      44.725224      44.546337     -9.6978018     -64850.652    
   1986000   296.08481      130.23155      300.70254      207.16877      38.463355      43.914294     -30.75608      -64851.371    
   1987000   297.27931      130.23155      300.70254      207.16877      55.694005      26.624605      23.810667     -64857.993    
   1988000   294.1965       130.23155      300.70254      207.16877      28.612961      56.098612      5.9206867     -64865.349    
   1989000   296.10226      130.23155      300.70254      207.16877      38.786102      36.437511     -29.167576     -64855.778    
   1990000   294.35651      130.23155      300.70254      207.16877      46.861417      39.297081      2.1825298     -64865.965    
   1991000   294.19196      130.23155      300.70254      207.16877      25.871859      57.564829      10.339775     -64860.117    
   1992000   295.85594      130.23155      300.70254      207.16877      54.122024      7.846206      -48.912217     -64858.812    
   1993000   294.54507      130.23155      300.70254      207.16877      10.671596      49.283447     -36.446316     -64861.889    
   1994000   295.33526      130.23155      300.70254      207.16877      47.457675      19.278499      6.9043948     -64865.276    
   1995000   295.09742      130.23155      300.70254      207.16877      26.10619       39.699796      0.33921644    -64858.12     
   1996000   291.96181      130.23155      300.70254      207.16877      40.194384      33.84084      -6.9103847     -64865.376    
   1997000   298.52092      130.23155      300.70254      207.16877      24.753165      35.319015     -12.88447      -64849.441    
   1998000   292.45584      130.23155      300.70254      207.16877      48.043119      20.01656       15.134922     -64856.408    
   1999000   294.55592      130.23155      300.70254      207.16877      8.6600015      54.613605     -35.929789     -64855.21     
   2000000   295.00202      130.23155      300.70254      207.16877      40.131561      2.2182063     -50.427958     -64867.043    
Loop time of 2287.48 on 16 procs for 1000000 steps with 21568 atoms

Performance: 18.885 ns/day, 1.271 hours/ns, 437.162 timesteps/s, 9.429 Matom-step/s
1504.7% CPU use with 1 MPI tasks x 16 OpenMP threads

MPI task timing breakdown:
Section |  min time  |  avg time  |  max time  |%varavg| %total
---------------------------------------------------------------
Pair    | 1999.3     | 1999.3     | 1999.3     |   0.0 | 87.40
Neigh   | 0.50569    | 0.50569    | 0.50569    |   0.0 |  0.02
Comm    | 27.625     | 27.625     | 27.625     |   0.0 |  1.21
Output  | 0.1707     | 0.1707     | 0.1707     |   0.0 |  0.01
Modify  | 240.45     | 240.45     | 240.45     |   0.0 | 10.51
Other   |            | 19.46      |            |       |  0.85

Nlocal:          21568 ave       21568 max       21568 min
Histogram: 1 0 0 0 0 0 0 0 0 0
Nghost:           7621 ave        7621 max        7621 min
Histogram: 1 0 0 0 0 0 0 0 0 0
Neighs:              0 ave           0 max           0 min
Histogram: 1 0 0 0 0 0 0 0 0 0

Total # of neighbors = 0
Ave neighs/atom = 0
Neighbor list builds = 41
Dangerous builds = 0
unfix           4

# Switch to NVE ensemble for 500 ps

fix             5 gMobile nve
run             1000000
Hybrid pair style last /omp style lj/cut
Last active /omp style is pair_style lj/cut
Per MPI rank memory allocation (min/avg/max) = 105.1 | 105.1 | 105.1 Mbytes
   Step          Temp            Lx             Ly             Lz            Pxx            Pyy            Pzz           TotEng    
   2000000   295.00202      130.23155      300.70254      207.16877      40.131561      2.2182063     -50.427958     -64867.043    
   2001000   296.18948      130.23155      300.70254      207.16877      26.856261      52.069838      7.0340856     -64867.093    
   2002000   295.48665      130.23155      300.70254      207.16877      30.533565      39.429758     -2.6919672     -64867.079    
   2003000   291.62894      130.23155      300.70254      207.16877      41.635652      23.731161     -25.74102      -64867.049    
   2004000   293.7231       130.23155      300.70254      207.16877      23.695369      52.366475      0.46062564    -64867.07     
   2005000   294.01643      130.23155      300.70254      207.16877      40.721631      20.648555     -14.093966     -64867.06     
   2006000   293.52897      130.23155      300.70254      207.16877      23.418574      53.6582        6.1361493     -64867.08     
   2007000   293.23838      130.23155      300.70254      207.16877      42.725009      45.077797      8.5453478     -64867.075    
   2008000   294.18082      130.23155      300.70254      207.16877      26.482417      35.219527     -17.921668     -64867.029    
   2009000   293.64625      130.23155      300.70254      207.16877      32.855761      22.725937     -48.249678     -64867.01     
   2010000   295.65798      130.23155      300.70254      207.16877      27.555959      44.09138      -1.3520928     -64867.056    
   2011000   294.57185      130.23155      300.70254      207.16877      46.504229      21.157668     -2.9159208     -64867.064    
   2012000   292.55458      130.23155      300.70254      207.16877      14.93936       54.152394     -10.853576     -64867.112    
   2013000   295.80617      130.23155      300.70254      207.16877      59.889266      15.529413     -8.8289444     -64867.068    
   2014000   293.80158      130.23155      300.70254      207.16877      21.985599      48.201709     -5.2666134     -64867.054    
   2015000   294.19242      130.23155      300.70254      207.16877      24.864638      48.414585     -1.984371      -64867.023    
   2016000   293.26108      130.23155      300.70254      207.16877      56.270709      7.707691      -6.9434768     -64867.013    
   2017000   292.7723       130.23155      300.70254      207.16877      3.260734       39.964589     -21.538034     -64867.051    
   2018000   295.20029      130.23155      300.70254      207.16877      48.072528      17.650372      7.9123294     -64867.058    
   2019000   293.17928      130.23155      300.70254      207.16877      37.923104      40.375924      16.46362      -64867.082    
   2020000   293.37848      130.23155      300.70254      207.16877      31.163344      43.872334     -4.8352557     -64867.063    
   2021000   292.68329      130.23155      300.70254      207.16877      32.475557      22.9077       -49.175302     -64867        
   2022000   293.93587      130.23155      300.70254      207.16877      36.426598      37.598575      9.1060993     -64867.023    
   2023000   292.65191      130.23155      300.70254      207.16877      30.531283      43.04448       29.821412     -64867.088    
   2024000   293.77475      130.23155      300.70254      207.16877      40.516994      9.7605286     -32.423388     -64867.068    
   2025000   296.86877      130.23155      300.70254      207.16877      43.779873      37.848917     -8.6832006     -64867.055    
   2026000   293.16422      130.23155      300.70254      207.16877      38.33771       34.601657      17.694828     -64867.015    
   2027000   294.30352      130.23155      300.70254      207.16877      46.271788      10.450202     -25.566797     -64867.037    
   2028000   291.84843      130.23155      300.70254      207.16877      16.330841      39.577895     -14.256691     -64867.043    
   2029000   291.15923      130.23155      300.70254      207.16877      49.985717      2.040133      -10.198628     -64867.06     
   2030000   294.80151      130.23155      300.70254      207.16877      17.584058      42.98327       0.32994604    -64867.104    
   2031000   292.84064      130.23155      300.70254      207.16877      54.514877      25.365505      35.120748     -64867.047    
   2032000   292.8619       130.23155      300.70254      207.16877      41.883411      20.996788     -18.171276     -64866.996    
   2033000   295.01389      130.23155      300.70254      207.16877      4.3360861      41.212894     -58.390886     -64866.994    
   2034000   296.17706      130.23155      300.70254      207.16877      51.940369      4.1462801      6.152716      -64867.042    
   2035000   295.02011      130.23155      300.70254      207.16877      18.74171       21.991678      17.074016     -64867.069    
   2036000   292.9044       130.23155      300.70254      207.16877      15.538233      13.289049     -28.197312     -64867.053    
   2037000   294.02778      130.23155      300.70254      207.16877      48.879658      7.2024945      11.153584     -64867.07     
   2038000   292.09906      130.23155      300.70254      207.16877      27.462133      38.633287      9.3193009     -64867.023    
   2039000   294.76239      130.23155      300.70254      207.16877      39.77966      -4.4633153     -45.19604      -64866.978    
   2040000   293.44186      130.23155      300.70254      207.16877      18.553105      16.346389     -25.367679     -64867.04     
   2041000   292.80954      130.23155      300.70254      207.16877      25.084833      25.26555       36.790629     -64867.078    
   2042000   297.23806      130.23155      300.70254      207.16877      45.396928      10.708863     -21.363775     -64867.125    
   2043000   293.38576      130.23155      300.70254      207.16877      30.006064      40.518531     -5.4338919     -64867.074    
   2044000   294.74959      130.23155      300.70254      207.16877      41.99227       30.20284      -4.8252308     -64867.016    
   2045000   294.88634      130.23155      300.70254      207.16877      39.534132      12.316965     -21.499135     -64867.007    
   2046000   294.35429      130.23155      300.70254      207.16877      13.170698      40.789453      4.8232529     -64867.041    
   2047000   292.58365      130.23155      300.70254      207.16877      43.063735      5.105844      -15.317455     -64867.105    
   2048000   293.78337      130.23155      300.70254      207.16877      25.48275       22.126963     -0.050762587   -64867.053    
   2049000   293.90152      130.23155      300.70254      207.16877      27.381317      22.286669     -23.026675     -64867.01     
   2050000   293.60977      130.23155      300.70254      207.16877      40.493121     -0.44467999    -25.348846     -64866.971    
   2051000   292.78884      130.23155      300.70254      207.16877      8.0099074      33.953489     -28.699137     -64867.008    
   2052000   293.88743      130.23155      300.70254      207.16877      37.623518      8.0688209     -12.241092     -64867.06     
   2053000   292.87791      130.23155      300.70254      207.16877      27.28719       12.600315      33.663979     -64867.12     
   2054000   294.20857      130.23155      300.70254      207.16877      26.364118      15.148104     -3.0669262     -64867.077    
   2055000   295.54676      130.23155      300.70254      207.16877      36.259592     -7.2071128     -53.939914     -64867.025    
   2056000   292.94867      130.23155      300.70254      207.16877      10.902161      24.39748       12.731746     -64866.945    
   2057000   296.14963      130.23155      300.70254      207.16877      26.820007      5.4631977      8.857807      -64866.989    
   2058000   292.45774      130.23155      300.70254      207.16877      19.469561     -15.285992     -54.219586     -64867.011    
   2059000   292.5761       130.23155      300.70254      207.16877      10.211698      19.842008     -9.723045      -64867.086    
   2060000   294.71951      130.23155      300.70254      207.16877      53.357418      7.5914745      24.606443     -64867.077    
   2061000   292.98764      130.23155      300.70254      207.16877      14.743879      29.056366     -7.4429216     -64867.042    
   2062000   292.26249      130.23155      300.70254      207.16877      39.133841      20.768516     -2.8576076     -64867.091    
   2063000   295.51605      130.23155      300.70254      207.16877      44.470332      20.680168      5.3952244     -64867.072    
   2064000   294.56374      130.23155      300.70254      207.16877      27.962024      32.138853     -12.331061     -64867.057    
   2065000   293.7434       130.23155      300.70254      207.16877      34.077117      22.738415     -24.920486     -64867.013    
   2066000   294.77485      130.23155      300.70254      207.16877      38.339425      10.210085     -29.376794     -64866.984    
   2067000   294.54813      130.23155      300.70254      207.16877      30.373405      25.041489     -22.156505     -64867.021    
   2068000   293.65036      130.23155      300.70254      207.16877      42.673861      17.600328      20.389543     -64867.095    
   2069000   294.64435      130.23155      300.70254      207.16877      34.64408       27.775137      12.171138     -64867.049    
   2070000   293.15471      130.23155      300.70254      207.16877      17.320138      27.600896     -18.936076     -64867.065    
   2071000   293.48787      130.23155      300.70254      207.16877      35.69656       2.2087158     -34.344835     -64867.006    
   2072000   292.18467      130.23155      300.70254      207.16877      28.606512      28.577481      7.4738663     -64867.055    
   2073000   293.49246      130.23155      300.70254      207.16877      29.267808      22.934955      13.542994     -64867.027    
   2074000   294.0979       130.23155      300.70254      207.16877      32.145389      8.5172982     -39.262343     -64867.032    
   2075000   293.64836      130.23155      300.70254      207.16877      25.621178      16.252882      5.7391725     -64867.064    
   2076000   295.01103      130.23155      300.70254      207.16877      21.771498      20.399328      1.8156418     -64867.054    
   2077000   295.01788      130.23155      300.70254      207.16877      44.024294      5.7475831     -21.081341     -64867.103    
   2078000   294.64773      130.23155      300.70254      207.16877      27.152043      27.219035      0.50390876    -64867.054    
   2079000   293.08171      130.23155      300.70254      207.16877      28.490646      12.526891     -29.338726     -64866.974    
   2080000   291.40924      130.23155      300.70254      207.16877      17.329054      15.806646     -20.552148     -64866.986    
   2081000   292.95236      130.23155      300.70254      207.16877      35.401846      21.136187      27.286274     -64867.075    
   2082000   294.38208      130.23155      300.70254      207.16877      32.524032      23.91481      -17.754176     -64867.111    
   2083000   293.93666      130.23155      300.70254      207.16877      23.654969      27.737618     -1.7032211     -64867.104    
   2084000   292.48317      130.23155      300.70254      207.16877      37.890244      21.735237     -1.5829663     -64867.039    
   2085000   294.65127      130.23155      300.70254      207.16877      34.42131       20.958563     -25.64195      -64867.002    
   2086000   291.67609      130.23155      300.70254      207.16877      18.903295      35.461529     -32.864316     -64866.965    
   2087000   293.52186      130.23155      300.70254      207.16877      61.858428      19.126123      25.122801     -64867.082    
   2088000   295.54359      130.23155      300.70254      207.16877      28.558495      47.360755      3.1720013     -64867.092    
   2089000   294.15265      130.23155      300.70254      207.16877      45.344963      21.06327      -1.5054959     -64867.095    
   2090000   294.93286      130.23155      300.70254      207.16877      38.32989       21.750973     -20.790378     -64867.057    
   2091000   293.19182      130.23155      300.70254      207.16877      12.39853       32.316549     -51.623172     -64867.007    
   2092000   292.9896       130.23155      300.70254      207.16877      42.030009      7.3699354     -12.395855     -64867.047    
   2093000   293.85078      130.23155      300.70254      207.16877      18.766628      27.025675      7.5933408     -64867.032    
   2094000   292.17941      130.23155      300.70254      207.16877      33.103647      11.42736      -26.855264     -64867.051    
   2095000   292.21918      130.23155      300.70254      207.16877      28.640552      15.273068     -19.856781     -64867.021    
   2096000   296.39571      130.23155      300.70254      207.16877      26.434514      19.000831      0.74494585    -64867.04     
   2097000   293.83887      130.23155      300.70254      207.16877      40.875468      26.291842     -5.2553347     -64867.029    
   2098000   292.67212      130.23155      300.70254      207.16877      29.331654      32.681691      1.2904325     -64867.067    
   2099000   295.4057       130.23155      300.70254      207.16877      40.457471      21.503864      7.9603042     -64867.085    
   2100000   294.71395      130.23155      300.70254      207.16877      33.050557      39.538008     -5.5009652     -64867.082    
   2101000   293.04142      130.23155      300.70254      207.16877      48.18102       12.176342     -19.615651     -64867.013    
   2102000   292.09555      130.23155      300.70254      207.16877      19.77026       43.315189     -19.050349     -64866.984    
   2103000   294.54121      130.23155      300.70254      207.16877      58.140263      27.270305     -5.7541931     -64867.031    
   2104000   293.82404      130.23155      300.70254      207.16877      22.108747      33.302431     -23.617108     -64867.045    
   2105000   292.75241      130.23155      300.70254      207.16877      37.779603      22.591956      5.6293069     -64867.079    
   2106000   294.65825      130.23155      300.70254      207.16877      44.336909      31.137445      25.380752     -64867.094    
   2107000   294.53264      130.23155      300.70254      207.16877      26.85326       37.016531     -4.592088      -64867.037    
   2108000   294.9347       130.23155      300.70254      207.16877      36.605339      21.289989     -23.020292     -64867.024    
   2109000   294.772        130.23155      300.70254      207.16877      28.176601      27.83396       1.135787      -64867.051    
   2110000   293.91594      130.23155      300.70254      207.16877      31.645062      26.936062      8.1318809     -64867.069    
   2111000   293.27173      130.23155      300.70254      207.16877      27.901571      20.018562     -42.729565     -64867.015    
   2112000   294.78642      130.23155      300.70254      207.16877      25.755349      23.887995     -43.97757      -64867.003    
   2113000   293.64996      130.23155      300.70254      207.16877      21.620333      21.073922      13.447391     -64867.023    
   2114000   294.37473      130.23155      300.70254      207.16877      28.660116      8.1695878      23.448847     -64867.112    
   2115000   293.00897      130.23155      300.70254      207.16877      8.9985549      27.081849     -31.764131     -64867.122    
   2116000   293.47357      130.23155      300.70254      207.16877      41.704302     -4.262244       8.858475      -64867.049    
   2117000   294.65459      130.23155      300.70254      207.16877      14.995333      35.633266      45.447315     -64867.015    
   2118000   294.60084      130.23155      300.70254      207.16877      31.003958      3.4217172     -65.952351     -64866.984    
   2119000   294.23929      130.23155      300.70254      207.16877      18.367822      21.038013     -28.422575     -64867.008    
   2120000   294.10732      130.23155      300.70254      207.16877      25.716889      25.878334      32.714243     -64867.055    
   2121000   293.14677      130.23155      300.70254      207.16877      29.440108      17.136528     -2.6764675     -64867.067    
   2122000   293.43642      130.23155      300.70254      207.16877      23.684363      4.3411918     -53.44339      -64867.085    
   2123000   294.61605      130.23155      300.70254      207.16877      35.901351      14.803378      11.486876     -64867.07     
   2124000   294.32307      130.23155      300.70254      207.16877      41.520535      18.015444      30.792574     -64867.036    
   2125000   293.60388      130.23155      300.70254      207.16877      25.113003      23.858028     -35.601477     -64867.023    
   2126000   293.89815      130.23155      300.70254      207.16877      20.498258      21.227755     -35.15617      -64867.014    
   2127000   294.56784      130.23155      300.70254      207.16877      48.446966      11.704594      17.716781     -64867.052    
   2128000   292.6963       130.23155      300.70254      207.16877      24.319796      34.975044      3.7470604     -64867.05     
   2129000   295.32988      130.23155      300.70254      207.16877      47.988913      15.571697     -50.951845     -64867.029    
   2130000   292.85379      130.23155      300.70254      207.16877      28.571758      32.028419      17.764929     -64867.019    
   2131000   292.37928      130.23155      300.70254      207.16877      34.753804      25.630686      7.7799735     -64867.057    
   2132000   291.70763      130.23155      300.70254      207.16877      32.83337       15.636347     -13.520945     -64867.083    
   2133000   293.1205       130.23155      300.70254      207.16877      24.483383      38.756446      6.7600519     -64867.09     
   2134000   294.6547       130.23155      300.70254      207.16877      37.813584      13.036914     -19.843722     -64867.02     
   2135000   292.1639       130.23155      300.70254      207.16877      25.953946      31.302579     -3.379064      -64866.993    
   2136000   292.5699       130.23155      300.70254      207.16877      28.660579      19.761161     -17.398745     -64866.949    
   2137000   293.40871      130.23155      300.70254      207.16877      40.419902      14.797136     -14.630762     -64867.059    
   2138000   293.85288      130.23155      300.70254      207.16877      20.396287      45.103687      9.3891257     -64867.069    
   2139000   292.59534      130.23155      300.70254      207.16877      41.638904      10.66624       2.3770464     -64867.063    
   2140000   294.62266      130.23155      300.70254      207.16877      21.219173      34.453763      0.93948643    -64867.058    
   2141000   294.2344       130.23155      300.70254      207.16877      27.442171      19.533517     -31.374542     -64867.055    
   2142000   293.64487      130.23155      300.70254      207.16877      29.942023      9.6804501     -32.232556     -64866.991    
   2143000   294.11952      130.23155      300.70254      207.16877      19.286189      36.695974      7.0000377     -64867.017    
   2144000   294.59995      130.23155      300.70254      207.16877      39.691683      9.4957415     -5.2616305     -64867.041    
   2145000   293.70335      130.23155      300.70254      207.16877      15.989415      25.507696     -17.408329     -64867.049    
   2146000   295.02896      130.23155      300.70254      207.16877      25.530078      22.83867      -21.100676     -64866.993    
   2147000   292.78609      130.23155      300.70254      207.16877      38.329694      13.870081      10.369747     -64867.023    
   2148000   292.71533      130.23155      300.70254      207.16877      10.318016      26.003312     -19.12365      -64867.072    
   2149000   291.38388      130.23155      300.70254      207.16877      35.897053      6.104003      -9.7951437     -64867.093    
   2150000   296.12735      130.23155      300.70254      207.16877      28.336457      23.621497      7.0179464     -64867.125    
   2151000   292.79667      130.23155      300.70254      207.16877      26.94276       18.62689      -15.035953     -64867.016    
   2152000   294.41725      130.23155      300.70254      207.16877      30.641159      5.8871758     -30.345927     -64867.008    
   2153000   294.99733      130.23155      300.70254      207.16877      14.252421      21.11609      -1.6164623     -64867.005    
   2154000   295.72184      130.23155      300.70254      207.16877      24.951016      5.3430954     -36.440682     -64867.038    
   2155000   292.83037      130.23155      300.70254      207.16877      32.625712      21.320821      9.8232728     -64867.098    
   2156000   294.2542       130.23155      300.70254      207.16877      26.984837      15.484242      26.738417     -64867.064    
   2157000   293.20409      130.23155      300.70254      207.16877      22.385884      15.340995     -30.869545     -64867.013    
   2158000   295.10067      130.23155      300.70254      207.16877      9.2500244      12.798692     -31.689759     -64867.02     
   2159000   295.66958      130.23155      300.70254      207.16877      30.832311      14.949411      12.489231     -64867.072    
   2160000   294.53921      130.23155      300.70254      207.16877      29.845435      6.9794644      13.452696     -64867.079    
   2161000   292.42562      130.23155      300.70254      207.16877      23.566873      15.818648     -15.706691     -64867.054    
   2162000   293.24189      130.23155      300.70254      207.16877      27.182108      18.114221     -23.766925     -64866.975    
   2163000   296.04688      130.23155      300.70254      207.16877      36.949691      21.34783      -9.7009282     -64866.986    
   2164000   293.34746      130.23155      300.70254      207.16877      25.02044       27.204213     -27.76529      -64867.017    
   2165000   293.71376      130.23155      300.70254      207.16877      34.637386      11.558963      23.562017     -64867.096    
   2166000   295.15538      130.23155      300.70254      207.16877      38.431589      18.988347      15.481429     -64867.096    
   2167000   294.54757      130.23155      300.70254      207.16877      21.760624      23.271224     -18.283009     -64867.038    
   2168000   294.35632      130.23155      300.70254      207.16877      53.081643      5.0073373     -20.259424     -64867.05     
   2169000   292.84812      130.23155      300.70254      207.16877      15.599909      46.330803      19.007949     -64866.97     
   2170000   293.54759      130.23155      300.70254      207.16877      52.099534     -0.83122546    -16.855549     -64867.027    
   2171000   293.99348      130.23155      300.70254      207.16877      19.252943      29.940854     -15.426703     -64867.044    
   2172000   293.39115      130.23155      300.70254      207.16877      35.280066      11.782634      10.515338     -64867.078    
   2173000   294.1475       130.23155      300.70254      207.16877      41.48539       13.610952      24.498685     -64867.089    
   2174000   293.08623      130.23155      300.70254      207.16877      24.538282      10.589661     -58.696659     -64867.024    
   2175000   294.36078      130.23155      300.70254      207.16877      20.335588      15.514588     -11.05723      -64867.002    
   2176000   294.08869      130.23155      300.70254      207.16877      37.030086      0.15478105     9.2168693     -64867.016    
   2177000   292.94389      130.23155      300.70254      207.16877      14.097819      5.933434      -21.01586      -64867.077    
   2178000   292.05446      130.23155      300.70254      207.16877      33.218367      3.4782919     -22.50056      -64867.052    
   2179000   296.55708      130.23155      300.70254      207.16877      27.313359      16.412044      6.2376333     -64867.028    
   2180000   293.93679      130.23155      300.70254      207.16877      19.592776      7.7934894     -22.610671     -64866.974    
   2181000   293.54356      130.23155      300.70254      207.16877      38.613805     -6.0307082     -35.728157     -64867.069    
   2182000   293.86654      130.23155      300.70254      207.16877      12.835978      22.477862      54.659178     -64867.139    
   2183000   291.03532      130.23155      300.70254      207.16877      46.696255     -15.547168      13.740106     -64867.1      
   2184000   292.54592      130.23155      300.70254      207.16877      1.9414794      6.8439492     -61.707335     -64866.997    
   2185000   294.67342      130.23155      300.70254      207.16877      35.328606      2.3374087     -14.174909     -64866.972    
   2186000   294.40493      130.23155      300.70254      207.16877      34.163412      11.799338      16.708852     -64867.043    
   2187000   294.5359       130.23155      300.70254      207.16877      13.703949      7.527043      -21.83198      -64867.103    
   2188000   293.63863      130.23155      300.70254      207.16877      28.353967     -14.936822     -20.610477     -64867.129    
   2189000   292.67631      130.23155      300.70254      207.16877      7.3310797      17.723139      23.401878     -64867.022    
   2190000   294.03808      130.23155      300.70254      207.16877      48.82288      -5.45286       -11.202308     -64866.968    
   2191000   291.71676      130.23155      300.70254      207.16877      12.621953      13.013949     -44.682368     -64866.977    
   2192000   293.71856      130.23155      300.70254      207.16877      37.45528       8.5389393      7.9861794     -64867.068    
   2193000   295.63272      130.23155      300.70254      207.16877      25.471801      8.5062197      10.888073     -64867.087    
   2194000   294.15287      130.23155      300.70254      207.16877      28.224806      1.1019827     -24.027813     -64867        
   2195000   291.0387       130.23155      300.70254      207.16877      19.615066      0.96548614    -3.541379      -64866.99     
   2196000   296.37882      130.23155      300.70254      207.16877      29.33438       2.9674921      28.197605     -64867.028    
   2197000   293.01         130.23155      300.70254      207.16877      16.192386     -2.6922        -32.68485      -64867.077    
   2198000   293.19346      130.23155      300.70254      207.16877      21.521396     -4.6887855     -21.691345     -64867.085    
   2199000   292.01658      130.23155      300.70254      207.16877      21.785101     -0.41828284    -15.506393     -64867.028    
   2200000   295.15821      130.23155      300.70254      207.16877      22.896309      15.263644     -12.542673     -64867.008    
   2201000   294.7043       130.23155      300.70254      207.16877      35.437056     -4.0530205     -27.754842     -64867.007    
   2202000   294.89575      130.23155      300.70254      207.16877      18.011117      26.036152      6.1235911     -64867.039    
   2203000   293.19877      130.23155      300.70254      207.16877      48.342231     -11.478617      20.555808     -64867.096    
   2204000   292.25703      130.23155      300.70254      207.16877      11.013963      19.537074     -6.9772593     -64867.077    
   2205000   291.99563      130.23155      300.70254      207.16877      35.322372      7.219788      -6.6133494     -64867.032    
   2206000   294.81692      130.23155      300.70254      207.16877      44.56001      -3.6752227     -22.156006     -64866.969    
   2207000   295.71601      130.23155      300.70254      207.16877      23.690691      30.399973     -29.071399     -64866.983    
   2208000   294.10178      130.23155      300.70254      207.16877      46.407309      0.66122945    -14.072431     -64867.053    
   2209000   292.90379      130.23155      300.70254      207.16877      15.745012      23.082759      19.20146      -64867.08     
   2210000   294.23946      130.23155      300.70254      207.16877      40.317655     -7.8179981     -6.1823841     -64867.081    
   2211000   294.94215      130.23155      300.70254      207.16877      27.014533      27.445375     -19.338506     -64867.013    
   2212000   291.81226      130.23155      300.70254      207.16877      34.799923      12.048259     -14.723718     -64866.988    
   2213000   292.29345      130.23155      300.70254      207.16877      38.870457      0.57715858    -24.463847     -64867.001    
   2214000   292.83913      130.23155      300.70254      207.16877      33.19286       13.748484      11.817472     -64867.045    
   2215000   294.79683      130.23155      300.70254      207.16877      33.794881      3.2671709      7.065693      -64867.065    
   2216000   296.38908      130.23155      300.70254      207.16877      23.720514      21.943265     -19.36586      -64867.071    
   2217000   292.47453      130.23155      300.70254      207.16877      41.257746      1.101676      -9.5997986     -64866.978    
   2218000   293.99697      130.23155      300.70254      207.16877      18.170864      28.307647      7.1705973     -64867.083    
   2219000   293.25305      130.23155      300.70254      207.16877      46.056616     -10.904228     -17.703706     -64867.084    
   2220000   292.55107      130.23155      300.70254      207.16877      12.937573      25.811188     -1.5987163     -64867.068    
   2221000   292.53994      130.23155      300.70254      207.16877      43.879922      1.3091017      15.250065     -64867.025    
   2222000   292.33859      130.23155      300.70254      207.16877      27.024457      16.659382     -9.2356063     -64866.98     
   2223000   292.25187      130.23155      300.70254      207.16877      31.377426      15.94524      -46.082913     -64867.04     
   2224000   293.95442      130.23155      300.70254      207.16877      40.127388      21.1574        13.895514     -64867.031    
   2225000   295.51518      130.23155      300.70254      207.16877      24.102265      30.468218      34.7825       -64867.111    
   2226000   295.56326      130.23155      300.70254      207.16877      47.865778     -6.4818632     -37.613663     -64867.081    
   2227000   294.67572      130.23155      300.70254      207.16877      13.232699      36.017451     -44.196993     -64867.082    
   2228000   294.88269      130.23155      300.70254      207.16877      58.484892      14.937275      21.193591     -64867.055    
   2229000   292.69443      130.23155      300.70254      207.16877      17.851734      32.134164     -28.240015     -64866.95     
   2230000   293.64872      130.23155      300.70254      207.16877      41.529565      5.5662123     -49.442234     -64867.014    
   2231000   294.22722      130.23155      300.70254      207.16877      28.449368      22.767491      11.357199     -64867.085    
   2232000   294.47443      130.23155      300.70254      207.16877      30.421759      13.957305      17.880786     -64867.113    
   2233000   293.18207      130.23155      300.70254      207.16877      26.218549      17.727602     -9.7026216     -64867.066    
   2234000   294.69617      130.23155      300.70254      207.16877      25.8338        14.517445     -19.909969     -64867.046    
   2235000   293.22411      130.23155      300.70254      207.16877      33.566718      5.2233317     -19.661388     -64867.023    
   2236000   293.8025       130.23155      300.70254      207.16877      15.957747      21.517054      9.5741775     -64867.054    
   2237000   292.80373      130.23155      300.70254      207.16877      38.346579     -8.1146477     -5.0559402     -64867.046    
   2238000   293.09143      130.23155      300.70254      207.16877      1.0544778      13.313823     -37.21142      -64867.065    
   2239000   293.50177      130.23155      300.70254      207.16877      23.393052      13.729002      7.2895533     -64867.019    
   2240000   295.05971      130.23155      300.70254      207.16877      29.908915      6.6009705      4.5461533     -64867.043    
   2241000   291.87857      130.23155      300.70254      207.16877      23.324205      19.652568     -11.257014     -64867.075    
   2242000   292.97235      130.23155      300.70254      207.16877      38.524679     -3.3933431     -3.1742494     -64867.083    
   2243000   295.02939      130.23155      300.70254      207.16877      13.780988      11.989708     -4.935646      -64867.072    
   2244000   293.60914      130.23155      300.70254      207.16877      26.540945      19.160982      12.972852     -64867.064    
   2245000   293.71476      130.23155      300.70254      207.16877      37.024176      6.7899588     -11.154237     -64867.024    
   2246000   292.62987      130.23155      300.70254      207.16877      32.700267      20.819463     -21.363208     -64867.031    
   2247000   291.94872      130.23155      300.70254      207.16877      39.247165      22.837473     -19.105987     -64866.989    
   2248000   293.26365      130.23155      300.70254      207.16877      52.987455      16.905602     -1.5741404     -64867.031    
   2249000   291.26248      130.23155      300.70254      207.16877      22.679843      44.600624     -1.9016226     -64867.071    
   2250000   293.08001      130.23155      300.70254      207.16877      65.812562      11.116663     -15.761374     -64867.087    
   2251000   294.13346      130.23155      300.70254      207.16877      24.93225       50.419973     -6.1017798     -64867.098    
   2252000   291.60539      130.23155      300.70254      207.16877      50.473249      18.91529      -12.867041     -64867.008    
   2253000   293.77907      130.23155      300.70254      207.16877      42.097263      29.909994     -10.740841     -64867.006    
   2254000   293.69894      130.23155      300.70254      207.16877      42.63197       25.28696      -38.796687     -64866.996    
   2255000   291.37919      130.23155      300.70254      207.16877      38.757131      22.458125     -20.266263     -64867.044    
   2256000   294.87235      130.23155      300.70254      207.16877      47.85254       28.361939     -6.4951994     -64867.097    
   2257000   294.63464      130.23155      300.70254      207.16877      28.735535      37.333877     -26.842501     -64867.097    
   2258000   293.53939      130.23155      300.70254      207.16877      54.020452      15.385827      2.2861086     -64867.032    
   2259000   293.93385      130.23155      300.70254      207.16877      47.452828      25.293117      20.354263     -64867.035    
   2260000   293.02672      130.23155      300.70254      207.16877      14.489112      34.829441     -19.291455     -64867.067    
   2261000   294.01235      130.23155      300.70254      207.16877      50.652456     -3.3546159     -30.660784     -64867.065    
   2262000   295.4324       130.23155      300.70254      207.16877      1.4961527      43.343452     -13.697072     -64866.997    
   2263000   293.12104      130.23155      300.70254      207.16877      51.053867      12.38021       15.775465     -64867.023    
   2264000   294.91834      130.23155      300.70254      207.16877      28.985067      34.847784     -23.188614     -64867.083    
   2265000   293.14343      130.23155      300.70254      207.16877      21.966805      27.807175     -30.497717     -64867.073    
   2266000   295.47878      130.23155      300.70254      207.16877      39.340575      7.1482991      18.933112     -64867.066    
   2267000   293.94403      130.23155      300.70254      207.16877      10.776833      28.929204     -8.7378746     -64867.026    
   2268000   291.8456       130.23155      300.70254      207.16877      25.887958      13.610865     -49.716416     -64867.066    
   2269000   293.58022      130.23155      300.70254      207.16877      42.539372      21.468469      11.506367     -64867.043    
   2270000   294.76144      130.23155      300.70254      207.16877      21.507764      55.30446       16.239239     -64867.081    
   2271000   292.57463      130.23155      300.70254      207.16877      58.913822      6.9569604     -22.521267     -64867.078    
   2272000   293.80447      130.23155      300.70254      207.16877      11.67675       47.077659     -28.759371     -64867.084    
   2273000   293.93355      130.23155      300.70254      207.16877      33.044743      26.2716       -2.8037189     -64867.086    
   2274000   294.78861      130.23155      300.70254      207.16877      47.946636      30.54661       12.693574     -64867.072    
   2275000   295.33956      130.23155      300.70254      207.16877      20.881284      45.085483     -7.5103143     -64867.022    
   2276000   292.56243      130.23155      300.70254      207.16877      48.819787      8.4933203     -20.137686     -64867.083    
   2277000   293.49721      130.23155      300.70254      207.16877      30.966797      40.363941     -15.60561      -64867.043    
   2278000   293.91887      130.23155      300.70254      207.16877      28.812586      40.575578      31.317297     -64867.023    
   2279000   292.61947      130.23155      300.70254      207.16877      35.810121      14.189782     -53.793188     -64867.02     
   2280000   294.95064      130.23155      300.70254      207.16877      22.898552      39.239527     -17.733336     -64867.022    
   2281000   296.67442      130.23155      300.70254      207.16877      56.527679      34.392036      64.559828     -64867.12     
   2282000   295.05556      130.23155      300.70254      207.16877      37.900372      23.97665      -30.430547     -64867.099    
   2283000   292.06979      130.23155      300.70254      207.16877      9.1156871      31.569749     -54.541656     -64867.083    
   2284000   295.85299      130.23155      300.70254      207.16877      64.567218      14.908664      31.394652     -64867.023    
   2285000   295.07221      130.23155      300.70254      207.16877      25.791591      43.42263       24.329074     -64867.018    
   2286000   293.21         130.23155      300.70254      207.16877      32.136955      10.537513     -85.66517      -64867.041    
   2287000   293.28475      130.23155      300.70254      207.16877      56.848734      27.54102       6.7833742     -64867.099    
   2288000   293.60841      130.23155      300.70254      207.16877      33.554747      57.154237      37.167805     -64867.077    
   2289000   293.98109      130.23155      300.70254      207.16877      54.55402       12.117584     -49.532623     -64867.053    
   2290000   293.52567      130.23155      300.70254      207.16877      29.573372      39.547475     -11.562118     -64867.02     
   2291000   293.35407      130.23155      300.70254      207.16877      53.577267      28.821878      23.116136     -64867.101    
   2292000   296.15426      130.23155      300.70254      207.16877      35.983166      35.852029     -16.791277     -64867.103    
   2293000   292.25403      130.23155      300.70254      207.16877      36.657056      46.113248     -11.325861     -64867.094    
   2294000   293.3768       130.23155      300.70254      207.16877      50.58906       33.964574      7.6872311     -64866.993    
   2295000   293.69935      130.23155      300.70254      207.16877      39.3499        40.053546     -23.433646     -64867.035    
   2296000   293.56754      130.23155      300.70254      207.16877      44.530324      36.777227     -24.415714     -64867.022    
   2297000   293.75115      130.23155      300.70254      207.16877      46.306057      39.513341     -3.2741672     -64867.062    
   2298000   293.69129      130.23155      300.70254      207.16877      42.402715      36.855388      2.4247365     -64867.05     
   2299000   294.752        130.23155      300.70254      207.16877      39.995169      25.478202     -24.994633     -64867.021    
   2300000   293.77402      130.23155      300.70254      207.16877      31.151117      39.587425     -16.614137     -64867.054    
   2301000   293.00246      130.23155      300.70254      207.16877      48.784845      34.811967      3.80584       -64867.087    
   2302000   293.25584      130.23155      300.70254      207.16877      23.718484      35.014322     -23.167948     -64867.081    
   2303000   292.94107      130.23155      300.70254      207.16877      37.053434      31.966604     -25.070942     -64867.037    
   2304000   293.8943       130.23155      300.70254      207.16877      43.708508      29.851548      14.670125     -64867.026    
   2305000   295.07082      130.23155      300.70254      207.16877      23.627938      40.657206     -14.870342     -64867.028    
   2306000   294.38181      130.23155      300.70254      207.16877      37.358985      12.21085      -38.451113     -64867.089    
   2307000   296.79724      130.23155      300.70254      207.16877      21.843379      37.925572     -5.662165      -64867.063    
   2308000   294.5087       130.23155      300.70254      207.16877      30.870671      23.86304       19.988348     -64867.059    
   2309000   292.8346       130.23155      300.70254      207.16877      35.708648      27.709784     -7.7750117     -64867.056    
   2310000   294.44365      130.23155      300.70254      207.16877      26.731705      25.986555     -27.103488     -64867.071    
   2311000   295.24224      130.23155      300.70254      207.16877      23.932852      37.438129      2.8685756     -64867.067    
   2312000   291.18811      130.23155      300.70254      207.16877      46.132583      24.250527     -3.5618916     -64867.025    
   2313000   294.51749      130.23155      300.70254      207.16877      29.145382      47.013429     -45.965911     -64867.018    
   2314000   294.35299      130.23155      300.70254      207.16877      47.33047       30.856433     -18.791909     -64866.974    
   2315000   294.67557      130.23155      300.70254      207.16877      36.264336      31.111897      0.52454495    -64867.074    
   2316000   293.43496      130.23155      300.70254      207.16877      30.505133      40.443771     -8.7455204     -64867.103    
   2317000   294.84085      130.23155      300.70254      207.16877      56.232351      25.578669      26.837625     -64867.119    
   2318000   293.88852      130.23155      300.70254      207.16877      15.431302      48.810189     -15.577835     -64867.016    
   2319000   292.7493       130.23155      300.70254      207.16877      41.509334      14.71592      -43.034196     -64866.954    
   2320000   292.61729      130.23155      300.70254      207.16877      29.20455       35.142632     -8.4837449     -64867.007    
   2321000   292.79787      130.23155      300.70254      207.16877      39.215193      30.154234      5.3605784     -64867.085    
   2322000   292.27059      130.23155      300.70254      207.16877      34.656273      32.262028     -5.9763318     -64867.086    
   2323000   292.16528      130.23155      300.70254      207.16877      43.393638      36.218385      8.3151517     -64867.019    
   2324000   292.83868      130.23155      300.70254      207.16877      27.457605      37.440817     -7.5326268     -64867.033    
   2325000   293.17793      130.23155      300.70254      207.16877      33.490482      30.020884     -31.867351     -64867.069    
   2326000   295.42454      130.23155      300.70254      207.16877      40.756695      38.017224      10.943013     -64867.107    
   2327000   291.90799      130.23155      300.70254      207.16877      28.619348      34.201746      17.822011     -64867.025    
   2328000   294.45983      130.23155      300.70254      207.16877      49.230381      21.032485     -42.022034     -64866.979    
   2329000   292.95854      130.23155      300.70254      207.16877      21.334991      46.48414      -28.219695     -64867        
   2330000   293.93391      130.23155      300.70254      207.16877      50.841198      32.693503      4.8471959     -64867.068    
   2331000   295.57631      130.23155      300.70254      207.16877      43.509816      43.1873        1.7760612     -64867.142    
   2332000   292.35428      130.23155      300.70254      207.16877      30.796662      41.643354     -3.3697872     -64867.062    
   2333000   292.92037      130.23155      300.70254      207.16877      52.280732      21.299808     -10.984966     -64866.986    
   2334000   291.73379      130.23155      300.70254      207.16877      16.459052      41.034968     -47.726014     -64867.021    
   2335000   294.71574      130.23155      300.70254      207.16877      49.261545      32.826517      9.207941      -64867.026    
   2336000   294.16707      130.23155      300.70254      207.16877      44.111497      48.239586      24.826473     -64867.051    
   2337000   293.21027      130.23155      300.70254      207.16877      26.729554      29.952648     -36.090012     -64866.997    
   2338000   294.05793      130.23155      300.70254      207.16877      23.536524      28.385955     -1.5822421     -64867.016    
   2339000   292.02587      130.23155      300.70254      207.16877      33.045764      26.066836      20.99268      -64867.054    
   2340000   293.79833      130.23155      300.70254      207.16877      18.43846       32.881859     -13.884871     -64867.059    
   2341000   292.94336      130.23155      300.70254      207.16877      29.548528      22.52177      -27.431831     -64867.078    
   2342000   295.67662      130.23155      300.70254      207.16877      35.175797      37.340926     -4.6577916     -64867.043    
   2343000   291.68754      130.23155      300.70254      207.16877      26.244637      22.805463     -4.6550864     -64867.009    
   2344000   294.82041      130.23155      300.70254      207.16877      27.978363      11.740642     -51.054703     -64866.984    
   2345000   291.94757      130.23155      300.70254      207.16877      11.472879      40.463477      8.3326066     -64867.031    
   2346000   293.70585      130.23155      300.70254      207.16877      50.542558      15.297625      22.031579     -64867.089    
   2347000   293.63866      130.23155      300.70254      207.16877      27.135142      36.344754     -22.044715     -64867.084    
   2348000   292.73975      130.23155      300.70254      207.16877      39.80911       20.707458     -45.902128     -64867.002    
   2349000   293.22792      130.23155      300.70254      207.16877      38.321506      36.431278      15.550428     -64867.044    
   2350000   294.90241      130.23155      300.70254      207.16877      39.018181      36.740051      4.2756928     -64867.049    
   2351000   292.61138      130.23155      300.70254      207.16877      31.740694      19.491355     -35.085633     -64867.074    
   2352000   292.64815      130.23155      300.70254      207.16877      32.841959      34.024202     -26.028034     -64867.005    
   2353000   291.48325      130.23155      300.70254      207.16877      40.019579      24.008311     -10.706379     -64866.971    
   2354000   294.62224      130.23155      300.70254      207.16877      35.530683      31.153623     -5.2393259     -64867.026    
   2355000   294.57069      130.23155      300.70254      207.16877      33.635908      38.077117     -13.483763     -64867.071    
   2356000   295.98324      130.23155      300.70254      207.16877      40.708514      19.139761     -0.13702716    -64867.072    
   2357000   295.90414      130.23155      300.70254      207.16877      32.737329      39.15975      -2.2140715     -64867.057    
   2358000   291.33977      130.23155      300.70254      207.16877      26.447753      25.070874     -29.162827     -64867.089    
   2359000   295.30128      130.23155      300.70254      207.16877      36.907994      11.232546     -10.140109     -64867.039    
   2360000   294.23052      130.23155      300.70254      207.16877      28.671443      41.596929      10.0555       -64867.041    
   2361000   295.41653      130.23155      300.70254      207.16877      38.83278       19.983038     -15.23435      -64867.015    
   2362000   295.70127      130.23155      300.70254      207.16877      22.545373      16.324851     -38.655699     -64867.033    
   2363000   292.89766      130.23155      300.70254      207.16877      20.486723      25.681969      7.9555647     -64867.05     
   2364000   293.59762      130.23155      300.70254      207.16877      38.962761      20.659409      2.327405      -64867.056    
   2365000   292.50104      130.23155      300.70254      207.16877      26.533014      28.700774     -34.906014     -64867.02     
   2366000   292.08767      130.23155      300.70254      207.16877      40.003975      22.632098     -4.1392936     -64867.082    
   2367000   292.71068      130.23155      300.70254      207.16877      28.258041      40.373895      0.82188011    -64867.105    
   2368000   291.15858      130.23155      300.70254      207.16877      41.17066       13.726467      10.435709     -64867.089    
   2369000   295.89026      130.23155      300.70254      207.16877      27.974244      30.493355     -22.395737     -64867.01     
   2370000   293.46304      130.23155      300.70254      207.16877      37.786426      26.490821     -43.914515     -64866.984    
   2371000   292.68695      130.23155      300.70254      207.16877      38.48936       35.571173      4.7276975     -64867.052    
   2372000   293.80336      130.23155      300.70254      207.16877      44.811962      39.97339       29.449065     -64867.157    
   2373000   293.16058      130.23155      300.70254      207.16877      38.040503      39.743309     -23.961319     -64867.108    
   2374000   294.18716      130.23155      300.70254      207.16877      38.732998      27.469685     -25.69718      -64867.071    
   2375000   291.32788      130.23155      300.70254      207.16877      38.977958      45.930142      24.416313     -64867.041    
   2376000   292.22726      130.23155      300.70254      207.16877      48.885703      23.308854     -29.144309     -64867.011    
   2377000   292.75379      130.23155      300.70254      207.16877      38.730212      25.595025     -38.965565     -64867.023    
   2378000   294.90011      130.23155      300.70254      207.16877      34.165629      45.410294      31.882694     -64867.08     
   2379000   292.75888      130.23155      300.70254      207.16877      51.386498      29.899223      2.3781569     -64867.11     
   2380000   293.35604      130.23155      300.70254      207.16877      19.164886      35.736707     -50.563375     -64867.042    
   2381000   293.83152      130.23155      300.70254      207.16877      42.917237      30.763348      14.080574     -64866.996    
   2382000   294.29029      130.23155      300.70254      207.16877      41.625249      35.038815      1.3583359     -64867.031    
   2383000   293.06713      130.23155      300.70254      207.16877      31.169608      36.576426     -24.85531      -64867.073    
   2384000   294.97421      130.23155      300.70254      207.16877      61.575176      26.846241      30.309682     -64867.146    
   2385000   294.11726      130.23155      300.70254      207.16877      35.191107      34.290359      27.273673     -64867.091    
   2386000   296.46863      130.23155      300.70254      207.16877      25.064845      35.735295     -57.935488     -64866.987    
   2387000   293.38029      130.23155      300.70254      207.16877      44.566812      14.389474     -8.1616548     -64866.94     
   2388000   294.53297      130.23155      300.70254      207.16877      27.957252      37.916528      8.198283      -64867.016    
   2389000   295.17473      130.23155      300.70254      207.16877      34.596151      27.373605     -38.552392     -64867.118    
   2390000   294.14102      130.23155      300.70254      207.16877      32.840184      17.097915     -8.7286659     -64867.098    
   2391000   294.99234      130.23155      300.70254      207.16877      24.988316      41.401372      1.1358615     -64867.049    
   2392000   292.67775      130.23155      300.70254      207.16877      33.973783      17.395709     -39.204066     -64866.967    
   2393000   293.86621      130.23155      300.70254      207.16877      30.446665      30.906269     -16.837707     -64866.961    
   2394000   291.96617      130.23155      300.70254      207.16877      49.700489      41.176209      4.5611693     -64867.062    
   2395000   294.46134      130.23155      300.70254      207.16877      48.29464       43.11094       9.2841706     -64867.113    
   2396000   293.85449      130.23155      300.70254      207.16877      42.311473      43.218209     -6.9468947     -64867.084    
   2397000   294.36035      130.23155      300.70254      207.16877      35.230109      40.437318     -5.4282488     -64867.046    
   2398000   292.70298      130.23155      300.70254      207.16877      47.4208        37.009933     -24.025651     -64867.044    
   2399000   292.95443      130.23155      300.70254      207.16877      30.580921      45.547234     -10.465121     -64867.073    
   2400000   294.49158      130.23155      300.70254      207.16877      54.354366      31.174627     -3.643912      -64867.083    
   2401000   294.93674      130.23155      300.70254      207.16877      25.725922      36.434181     -10.130445     -64867.032    
   2402000   292.40102      130.23155      300.70254      207.16877      38.121251      27.172405     -5.8168716     -64867.054    
   2403000   293.0113       130.23155      300.70254      207.16877      30.15884       33.562         1.242607      -64867.059    
   2404000   294.54853      130.23155      300.70254      207.16877      34.695503      33.275808     -7.9748763     -64867.034    
   2405000   294.30268      130.23155      300.70254      207.16877      36.432034      36.562564     -33.378909     -64867.022    
   2406000   292.37198      130.23155      300.70254      207.16877      40.809165      37.906473     -12.663758     -64866.977    
   2407000   292.73113      130.23155      300.70254      207.16877      40.487662      31.604954     -32.694653     -64867.044    
   2408000   294.52931      130.23155      300.70254      207.16877      37.135516      35.753082     -16.427229     -64867.088    
   2409000   293.4247       130.23155      300.70254      207.16877      47.613829      41.757431      49.152758     -64867.119    
   2410000   295.48363      130.23155      300.70254      207.16877      42.799675      35.563827     -14.928924     -64867.045    
   2411000   293.28747      130.23155      300.70254      207.16877      33.458625      41.341905     -20.412609     -64867.008    
   2412000   291.9037       130.23155      300.70254      207.16877      51.013146      31.905674      0.90979495    -64867.049    
   2413000   295.56877      130.23155      300.70254      207.16877      40.306686      44.478187     -13.302729     -64867.075    
   2414000   293.99145      130.23155      300.70254      207.16877      45.734127      38.612137     -5.2983784     -64867.035    
   2415000   292.29728      130.23155      300.70254      207.16877      45.080553      37.100185     -29.905743     -64866.997    
   2416000   293.69529      130.23155      300.70254      207.16877      42.536389      47.241275     -31.619964     -64867.012    
   2417000   293.34069      130.23155      300.70254      207.16877      42.029958      50.62575       6.1976374     -64867.045    
   2418000   294.39589      130.23155      300.70254      207.16877      58.206376      27.168265      9.0565837     -64867.128    
   2419000   293.20967      130.23155      300.70254      207.16877      19.962193      64.367291      10.638953     -64867.125    
   2420000   295.8891       130.23155      300.70254      207.16877      55.767232      15.488314     -27.30533      -64867.064    
   2421000   292.85         130.23155      300.70254      207.16877      25.727124      43.49889      -32.234008     -64866.993    
   2422000   292.57648      130.23155      300.70254      207.16877      40.606458      27.746168     -8.012109      -64867.001    
   2423000   292.2928       130.23155      300.70254      207.16877      30.281557      49.478605      21.090448     -64867.075    
   2424000   295.55168      130.23155      300.70254      207.16877      44.717536      31.849682     -5.9408913     -64867.066    
   2425000   294.80171      130.23155      300.70254      207.16877      27.534267      50.033766     -25.125133     -64867.056    
   2426000   293.61395      130.23155      300.70254      207.16877      39.052034      40.905963     -7.8300202     -64867.026    
   2427000   294.66403      130.23155      300.70254      207.16877      37.98338       41.470885     -0.80785999    -64867.04     
   2428000   294.54429      130.23155      300.70254      207.16877      52.257154      41.49519       9.0635021     -64867.072    
   2429000   292.62254      130.23155      300.70254      207.16877      29.640187      50.435872     -0.45215843    -64867.062    
   2430000   292.54434      130.23155      300.70254      207.16877      33.127257      33.286949     -45.848729     -64867.012    
   2431000   292.83276      130.23155      300.70254      207.16877      43.881863      43.327186      28.283319     -64867.021    
   2432000   293.97043      130.23155      300.70254      207.16877      27.217458      59.122847     -1.3309124     -64867.054    
   2433000   293.45398      130.23155      300.70254      207.16877      46.870255      15.12999      -41.118208     -64867.11     
   2434000   294.95997      130.23155      300.70254      207.16877      22.788645      59.028929      21.435383     -64867.12     
   2435000   293.17183      130.23155      300.70254      207.16877      42.038936      36.157419      0.41983767    -64867.05     
   2436000   294.56962      130.23155      300.70254      207.16877      45.826741      31.848675     -34.592601     -64867.006    
   2437000   294.06803      130.23155      300.70254      207.16877      33.864986      55.131151     -5.6250957     -64866.998    
   2438000   293.24564      130.23155      300.70254      207.16877      52.515088      43.759735     -14.412338     -64867.039    
   2439000   293.25185      130.23155      300.70254      207.16877      40.923064      43.472843     -16.106152     -64867.081    
   2440000   293.64169      130.23155      300.70254      207.16877      31.457929      58.79943       24.923298     -64867.066    
   2441000   295.12971      130.23155      300.70254      207.16877      59.339548      28.343333     -15.80249      -64867.054    
   2442000   292.11226      130.23155      300.70254      207.16877      24.832778      46.124142     -34.145191     -64867.048    
   2443000   293.80091      130.23155      300.70254      207.16877      44.523455      35.798588      13.444132     -64867.059    
   2444000   293.56715      130.23155      300.70254      207.16877      51.81427       18.231035      16.810218     -64867.056    
   2445000   294.10053      130.23155      300.70254      207.16877      10.924293      43.564395     -46.125981     -64867.021    
   2446000   294.12982      130.23155      300.70254      207.16877      59.392182      20.886463      12.149516     -64867.066    
   2447000   295.46523      130.23155      300.70254      207.16877      19.377823      49.75589       2.616396      -64867.069    
   2448000   294.44387      130.23155      300.70254      207.16877      36.092497      28.93331      -39.728032     -64867.071    
   2449000   293.61489      130.23155      300.70254      207.16877      48.937527      25.499334      18.93168      -64867.045    
   2450000   292.43262      130.23155      300.70254      207.16877      35.681186      52.177779      21.688935     -64867.069    
   2451000   294.81818      130.23155      300.70254      207.16877      48.119076      38.973928     -25.522076     -64867.077    
   2452000   293.20086      130.23155      300.70254      207.16877      48.300373      39.927127     -15.039923     -64867.046    
   2453000   294.43872      130.23155      300.70254      207.16877      19.964454      60.294758     -31.346887     -64867.008    
   2454000   292.86551      130.23155      300.70254      207.16877      56.35093       31.566552     -24.687302     -64866.956    
   2455000   292.09438      130.23155      300.70254      207.16877      22.009777      59.304826     -6.319022      -64867.062    
   2456000   294.56377      130.23155      300.70254      207.16877      52.248446      31.822019     -0.10734753    -64867.148    
   2457000   294.7268       130.23155      300.70254      207.16877      44.397521      34.494677     -13.089045     -64867.107    
   2458000   292.65117      130.23155      300.70254      207.16877      31.787087      56.71265      -14.307909     -64867.043    
   2459000   292.53303      130.23155      300.70254      207.16877      37.018298      45.772755      5.5708556     -64866.959    
   2460000   294.20972      130.23155      300.70254      207.16877      33.269353      31.807344     -34.934491     -64867.003    
   2461000   295.28092      130.23155      300.70254      207.16877      23.249748      67.353386     -16.278602     -64867.088    
   2462000   293.8098       130.23155      300.70254      207.16877      56.746011      22.577173      19.172002     -64867.089    
   2463000   291.96719      130.23155      300.70254      207.16877      30.406449      47.04351      -5.5195251     -64867.047    
   2464000   293.57101      130.23155      300.70254      207.16877      20.480485      37.725579     -47.139528     -64867.045    
   2465000   292.46432      130.23155      300.70254      207.16877      47.862084      16.638371     -4.810291      -64867.019    
   2466000   291.63865      130.23155      300.70254      207.16877      12.235944      59.168926      32.846059     -64867.103    
   2467000   293.28177      130.23155      300.70254      207.16877      45.410694      12.912071     -13.309402     -64867.095    
   2468000   294.39626      130.23155      300.70254      207.16877      14.496096      44.509019     -11.332135     -64867.027    
   2469000   293.25543      130.23155      300.70254      207.16877      40.859168      33.861703      13.542203     -64866.981    
   2470000   294.11919      130.23155      300.70254      207.16877      32.427242      35.000368     -33.907413     -64867.012    
   2471000   294.70599      130.23155      300.70254      207.16877      31.612944      49.398244     -2.5918341     -64867.095    
   2472000   293.29994      130.23155      300.70254      207.16877      38.724123      44.723392      30.225344     -64867.078    
   2473000   293.94033      130.23155      300.70254      207.16877      39.740801      44.977401     -22.649651     -64867.101    
   2474000   294.49645      130.23155      300.70254      207.16877      30.426155      62.591597     -35.853591     -64867.112    
   2475000   293.85292      130.23155      300.70254      207.16877      63.628808      37.320839      4.2865841     -64867.019    
   2476000   293.48454      130.23155      300.70254      207.16877      37.613018      62.464721     -8.5970792     -64867.014    
   2477000   295.67618      130.23155      300.70254      207.16877      42.70834       60.055476     -28.505061     -64867.069    
   2478000   292.11071      130.23155      300.70254      207.16877      56.58352       37.086566     -16.555059     -64867.082    
   2479000   292.66531      130.23155      300.70254      207.16877      30.895441      75.038451      13.621747     -64867.109    
   2480000   292.41286      130.23155      300.70254      207.16877      57.556163      50.613075     -2.2000016     -64867.06     
   2481000   294.43264      130.23155      300.70254      207.16877      46.38727       56.227342     -21.342117     -64867.054    
   2482000   292.02667      130.23155      300.70254      207.16877      29.485645      64.916862     -17.771687     -64867.055    
   2483000   292.26654      130.23155      300.70254      207.16877      49.300848      49.724154     -1.2121943     -64867.064    
   2484000   291.82206      130.23155      300.70254      207.16877      50.016476      51.619562      20.559206     -64867.061    
   2485000   293.1622       130.23155      300.70254      207.16877      31.733717      51.400049     -28.020012     -64866.996    
   2486000   292.67103      130.23155      300.70254      207.16877      28.73062       26.73764      -31.173942     -64867.016    
   2487000   293.49382      130.23155      300.70254      207.16877      33.409671      42.633655     -1.6077174     -64867.066    
   2488000   294.27529      130.23155      300.70254      207.16877      31.513435      54.081132      15.25253      -64867.119    
   2489000   295.22541      130.23155      300.70254      207.16877      52.129766      21.427524     -31.320942     -64867.115    
   2490000   293.60226      130.23155      300.70254      207.16877      23.292101      60.66761       4.2320549     -64867.052    
   2491000   293.68932      130.23155      300.70254      207.16877      52.861038      31.766719     -7.7100165     -64866.978    
   2492000   293.7714       130.23155      300.70254      207.16877      37.014632      36.944583     -39.165325     -64866.999    
   2493000   293.33342      130.23155      300.70254      207.16877      19.268589      49.664847     -5.5433715     -64867.082    
   2494000   292.0784       130.23155      300.70254      207.16877      47.510824      35.778767     -9.1676468     -64867.098    
   2495000   293.14466      130.23155      300.70254      207.16877      33.706088      60.068017      10.326584     -64867.072    
   2496000   293.09508      130.23155      300.70254      207.16877      42.546928      47.53737      -27.990056     -64867.072    
   2497000   294.07063      130.23155      300.70254      207.16877      38.402099      43.694224     -1.2433977     -64867.037    
   2498000   294.943        130.23155      300.70254      207.16877      28.151992      55.494898      4.6028942     -64867.077    
   2499000   295.66442      130.23155      300.70254      207.16877      48.622763      45.315155     -11.380649     -64867.093    
   2500000   294.28287      130.23155      300.70254      207.16877      42.150266      62.616604     -2.7009238     -64867.071    
   2501000   294.43345      130.23155      300.70254      207.16877      52.731399      62.802787     -8.4494553     -64867.037    
   2502000   294.97384      130.23155      300.70254      207.16877      52.640856      42.388793     -12.269536     -64867.005    
   2503000   292.78275      130.23155      300.70254      207.16877      20.784578      65.734708     -21.073929     -64867.026    
   2504000   294.7548       130.23155      300.70254      207.16877      62.188567      30.90286      -4.7528006     -64867.101    
   2505000   290.92184      130.23155      300.70254      207.16877      32.410533      63.598572      8.8432384     -64867.155    
   2506000   293.91569      130.23155      300.70254      207.16877      41.405763      50.638684      4.3887072     -64867.073    
   2507000   294.3984       130.23155      300.70254      207.16877      40.36992       42.64018      -22.554025     -64867.048    
   2508000   293.05475      130.23155      300.70254      207.16877      33.608095      50.750554     -0.36803183    -64867.054    
   2509000   295.30369      130.23155      300.70254      207.16877      46.506038      40.52155       10.022824     -64867.063    
   2510000   293.45308      130.23155      300.70254      207.16877      24.49277       43.411977     -37.324616     -64867.008    
   2511000   291.74672      130.23155      300.70254      207.16877      35.550453      31.934226     -26.227882     -64867.047    
   2512000   292.52462      130.23155      300.70254      207.16877      40.302688      42.42718       3.6294652     -64867.03     
   2513000   293.8665       130.23155      300.70254      207.16877      30.098127      44.821699     -5.4001878     -64867.08     
   2514000   294.5573       130.23155      300.70254      207.16877      46.177405      20.986674     -40.530069     -64867.073    
   2515000   293.95333      130.23155      300.70254      207.16877      18.294245      50.29743       5.8441245     -64867.063    
   2516000   293.10108      130.23155      300.70254      207.16877      51.545382      27.483375      8.9160206     -64867.062    
   2517000   293.09145      130.23155      300.70254      207.16877      23.726982      57.014108     -20.708952     -64867.086    
   2518000   294.76025      130.23155      300.70254      207.16877      40.581884      36.892451     -6.9977051     -64867.048    
   2519000   293.71744      130.23155      300.70254      207.16877      36.391145      57.53307      -15.702754     -64867.047    
   2520000   295.59941      130.23155      300.70254      207.16877      38.633459      50.721975     -16.115166     -64867.062    
   2521000   294.84079      130.23155      300.70254      207.16877      50.589666      49.813945     -0.98019651    -64867.05     
   2522000   293.49897      130.23155      300.70254      207.16877      36.728158      54.872577     -6.6371023     -64867.05     
   2523000   295.00452      130.23155      300.70254      207.16877      44.454067      46.34744      -3.2224916     -64867.06     
   2524000   292.1645       130.23155      300.70254      207.16877      39.373858      50.257773      6.6005436     -64867.082    
   2525000   293.88437      130.23155      300.70254      207.16877      52.004544      48.697257     -23.755619     -64867.038    
   2526000   294.17724      130.23155      300.70254      207.16877      31.660639      64.119443     -31.736767     -64867.043    
   2527000   294.03921      130.23155      300.70254      207.16877      56.277162      33.24727       3.0904433     -64867.037    
   2528000   293.8955       130.23155      300.70254      207.16877      25.7686        65.194489     -6.8206787     -64867.064    
   2529000   296.22988      130.23155      300.70254      207.16877      55.174029      41.797768     -30.285829     -64867.08     
   2530000   293.04507      130.23155      300.70254      207.16877      35.792424      61.312869      10.428294     -64867.071    
   2531000   293.13257      130.23155      300.70254      207.16877      51.59973       55.384327      21.520649     -64867.081    
   2532000   293.84527      130.23155      300.70254      207.16877      48.739813      36.213623     -41.859338     -64867.09     
   2533000   293.44564      130.23155      300.70254      207.16877      29.381896      53.124878     -15.906841     -64867.097    
   2534000   293.90339      130.23155      300.70254      207.16877      50.851865      45.841116      8.3787603     -64867.044    
   2535000   294.52362      130.23155      300.70254      207.16877      38.882087      54.951399     -42.662372     -64867.091    
   2536000   295.29428      130.23155      300.70254      207.16877      51.45498       54.0126        12.270048     -64867.086    
   2537000   292.71318      130.23155      300.70254      207.16877      48.821999      62.987986      15.387457     -64867.095    
   2538000   292.04842      130.23155      300.70254      207.16877      48.709779      47.894672     -26.285073     -64867.029    
   2539000   292.46179      130.23155      300.70254      207.16877      37.907156      56.164987     -36.592897     -64867.036    
   2540000   296.30048      130.23155      300.70254      207.16877      68.01006       39.878978     -8.5184397     -64867.064    
   2541000   294.39885      130.23155      300.70254      207.16877      38.756239      80.840568      24.133707     -64867.126    
   2542000   294.59466      130.23155      300.70254      207.16877      56.920051      41.29719      -31.096116     -64867.083    
   2543000   291.30345      130.23155      300.70254      207.16877      36.867727      56.141635     -9.6903708     -64867.068    
   2544000   293.54132      130.23155      300.70254      207.16877      52.100611      39.624143     -0.17442657    -64867.062    
   2545000   293.08657      130.23155      300.70254      207.16877      39.12733       43.291291     -3.2448802     -64867.111    
   2546000   296.69867      130.23155      300.70254      207.16877      49.592236      48.55627      -15.808449     -64867.069    
   2547000   292.71234      130.23155      300.70254      207.16877      41.51611       57.425707     -33.302108     -64867.059    
   2548000   296.29533      130.23155      300.70254      207.16877      34.819011      58.852868     -14.835813     -64867.018    
   2549000   293.0128       130.23155      300.70254      207.16877      55.147076      34.6163       -2.7642713     -64867.02     
   2550000   292.96784      130.23155      300.70254      207.16877      23.704632      59.429878     -2.4648986     -64867.073    
   2551000   294.2878       130.23155      300.70254      207.16877      42.13615       18.074093     -45.171198     -64867.107    
   2552000   293.97127      130.23155      300.70254      207.16877      23.62917       51.39065      -3.4581053     -64867.085    
   2553000   293.44736      130.23155      300.70254      207.16877      41.234347      53.074175      5.245546      -64867.048    
   2554000   293.78102      130.23155      300.70254      207.16877      37.588022      46.189165     -16.707533     -64867.066    
   2555000   292.73428      130.23155      300.70254      207.16877      41.428837      42.906429     -20.811485     -64867.013    
   2556000   292.66467      130.23155      300.70254      207.16877      27.464068      42.669876      0.99118098    -64867.037    
   2557000   294.22343      130.23155      300.70254      207.16877      41.748629      33.872798     -27.318284     -64867.016    
   2558000   294.33231      130.23155      300.70254      207.16877      29.588255      43.876933     -2.4942753     -64867.068    
   2559000   294.98902      130.23155      300.70254      207.16877      42.543947      55.79532       1.1216711     -64867.09     
   2560000   292.12643      130.23155      300.70254      207.16877      49.108859      47.818127      24.868843     -64867.112    
   2561000   292.2852       130.23155      300.70254      207.16877      25.09585       54.534629     -30.273764     -64867.093    
   2562000   293.74097      130.23155      300.70254      207.16877      58.171152      41.14799       1.4775157     -64867.05     
   2563000   292.92245      130.23155      300.70254      207.16877      30.998224      49.43158      -1.2796819     -64867.054    
   2564000   293.52199      130.23155      300.70254      207.16877      45.474744      47.098896     -4.6131388     -64867.034    
   2565000   294.95415      130.23155      300.70254      207.16877      39.044547      45.113104     -8.8643407     -64867.045    
   2566000   294.29125      130.23155      300.70254      207.16877      47.482122      46.918138      0.82256311    -64867.067    
   2567000   293.8229       130.23155      300.70254      207.16877      47.097538      40.021811     -2.8696152     -64867.064    
   2568000   292.69635      130.23155      300.70254      207.16877      35.162741      39.575741     -27.242221     -64867.079    
   2569000   293.65101      130.23155      300.70254      207.16877      33.837316      47.652087     -9.0874423     -64867.088    
   2570000   295.89233      130.23155      300.70254      207.16877      49.855401      39.209597     -7.1707497     -64867.078    
   2571000   294.50125      130.23155      300.70254      207.16877      40.952421      45.904996     -2.7705291     -64867.052    
   2572000   293.35583      130.23155      300.70254      207.16877      31.723492      47.620761     -40.149962     -64867.031    
   2573000   293.05341      130.23155      300.70254      207.16877      47.828918      40.955044     -29.524751     -64867.029    
   2574000   294.5193       130.23155      300.70254      207.16877      48.061432      52.518702      17.663507     -64867.045    
   2575000   293.38702      130.23155      300.70254      207.16877      44.895022      51.350826     -22.261205     -64867.068    
   2576000   293.08863      130.23155      300.70254      207.16877      53.02627       48.161226     -6.9078432     -64867.099    
   2577000   294.50787      130.23155      300.70254      207.16877      33.456618      57.486717      11.248865     -64867.104    
   2578000   293.33103      130.23155      300.70254      207.16877      45.360526      39.138857     -1.7994117     -64867.065    
   2579000   293.64495      130.23155      300.70254      207.16877      38.185896      49.338964     -26.100235     -64867.073    
   2580000   294.73425      130.23155      300.70254      207.16877      36.619955      46.47083      -12.695619     -64866.993    
   2581000   294.30069      130.23155      300.70254      207.16877      39.475556      36.009921     -8.0355334     -64867.071    
   2582000   293.64677      130.23155      300.70254      207.16877      33.403672      30.75894      -7.97734       -64867.08     
   2583000   293.12652      130.23155      300.70254      207.16877      34.88421       44.331233      3.078657      -64867.054    
   2584000   292.96407      130.23155      300.70254      207.16877      47.771513      49.228224     -7.6922508     -64867.062    
   2585000   293.48998      130.23155      300.70254      207.16877      37.728219      60.431194     -7.0038111     -64866.995    
   2586000   292.97521      130.23155      300.70254      207.16877      46.384993      34.687125     -5.1341895     -64866.987    
   2587000   294.30254      130.23155      300.70254      207.16877      35.71706       46.100537     -44.394176     -64867.041    
   2588000   293.33898      130.23155      300.70254      207.16877      24.497075      49.457925     -4.5438512     -64867.085    
   2589000   294.79303      130.23155      300.70254      207.16877      43.886673      30.430419     -13.843242     -64867.081    
   2590000   292.27276      130.23155      300.70254      207.16877      21.81491       63.938273      1.0736476     -64867.052    
   2591000   293.61793      130.23155      300.70254      207.16877      39.810812      48.681305      9.9535351     -64867.074    
   2592000   292.14353      130.23155      300.70254      207.16877      35.030908      44.72919      -21.608719     -64867.064    
   2593000   294.97927      130.23155      300.70254      207.16877      23.596039      45.033791     -18.363101     -64867.017    
   2594000   293.39193      130.23155      300.70254      207.16877      32.179328      34.621629     -9.1473844     -64867.05     
   2595000   292.65233      130.23155      300.70254      207.16877      37.314377      35.579674     -37.199892     -64867.044    
   2596000   293.95431      130.23155      300.70254      207.16877      41.846937      49.635193     -13.369784     -64867.058    
   2597000   295.92339      130.23155      300.70254      207.16877      41.084752      50.3463        19.153734     -64867.13     
   2598000   293.72832      130.23155      300.70254      207.16877      30.559955      43.54938      -16.378093     -64867.091    
   2599000   293.46709      130.23155      300.70254      207.16877      40.44969       41.571919     -21.428088     -64867.106    
   2600000   294.23731      130.23155      300.70254      207.16877      36.950652      53.846814      6.4857547     -64866.99     
   2601000   295.12405      130.23155      300.70254      207.16877      47.798236      53.205017     -33.032669     -64866.973    
   2602000   294.27267      130.23155      300.70254      207.16877      45.404999      40.795506     -52.352874     -64867.047    
   2603000   291.7179       130.23155      300.70254      207.16877      44.546051      55.493531      25.518764     -64867.086    
   2604000   295.87789      130.23155      300.70254      207.16877      35.365555      52.729981     -11.968748     -64867.18     
   2605000   294.78057      130.23155      300.70254      207.16877      42.997287      44.598711      14.994615     -64867.1      
   2606000   293.92237      130.23155      300.70254      207.16877      28.749371      60.290021      5.5627776     -64867.087    
   2607000   295.00959      130.23155      300.70254      207.16877      46.07898       43.437588     -38.209857     -64867.015    
   2608000   293.37862      130.23155      300.70254      207.16877      40.811879      41.636062     -38.758997     -64867.018    
   2609000   292.81882      130.23155      300.70254      207.16877      37.731089      69.187811      27.826962     -64867.097    
   2610000   294.14759      130.23155      300.70254      207.16877      67.407941      24.176705      4.5305008     -64867.041    
   2611000   293.40203      130.23155      300.70254      207.16877      10.262367      54.381846     -41.427007     -64867.055    
   2612000   292.07693      130.23155      300.70254      207.16877      46.779875      24.962559      18.504703     -64867.102    
   2613000   294.79522      130.23155      300.70254      207.16877      30.993631      44.145588     -3.7217664     -64867.093    
   2614000   293.6346       130.23155      300.70254      207.16877      37.614886      43.632627     -5.4310739     -64867.144    
   2615000   292.89633      130.23155      300.70254      207.16877      43.030961      37.845476      5.2918403     -64867.084    
   2616000   294.1797       130.23155      300.70254      207.16877      22.485044      43.578989     -36.150329     -64866.998    
   2617000   292.64382      130.23155      300.70254      207.16877      40.903483      29.672416      8.9820127     -64866.986    
   2618000   294.2489       130.23155      300.70254      207.16877      29.358542      35.263659     -37.243914     -64867.001    
   2619000   294.78548      130.23155      300.70254      207.16877      21.08051       49.123598     -18.545447     -64867.113    
   2620000   293.95869      130.23155      300.70254      207.16877      48.94327       35.709541      36.304891     -64867.087    
   2621000   292.99039      130.23155      300.70254      207.16877      24.595415      59.342366      24.173399     -64867.084    
   2622000   295.93862      130.23155      300.70254      207.16877      44.858432      20.248985     -58.701009     -64867.009    
   2623000   292.37908      130.23155      300.70254      207.16877      33.663993      39.567395      0.98198519    -64867.059    
   2624000   294.56035      130.23155      300.70254      207.16877      43.359336      48.547601      25.550531     -64867.076    
   2625000   294.97902      130.23155      300.70254      207.16877      38.418893      36.389825     -48.930928     -64867.035    
   2626000   293.11887      130.23155      300.70254      207.16877      29.55276       50.509247     -6.7126973     -64867.043    
   2627000   291.40546      130.23155      300.70254      207.16877      48.14683       46.749027      4.7310854     -64867.044    
   2628000   294.70951      130.23155      300.70254      207.16877      43.516969      42.05755      -30.324216     -64867.118    
   2629000   293.43961      130.23155      300.70254      207.16877      32.189721      60.619665     -30.476414     -64867.119    
   2630000   295.07203      130.23155      300.70254      207.16877      50.650053      36.426187      10.070929     -64867.045    
   2631000   294.3187       130.23155      300.70254      207.16877      42.343686      60.22722       0.35147446    -64867.02     
   2632000   294.37665      130.23155      300.70254      207.16877      46.178994      36.080005     -45.44799      -64867.029    
   2633000   294.2786       130.23155      300.70254      207.16877      38.281386      54.433173     -16.847903     -64867.027    
   2634000   292.53167      130.23155      300.70254      207.16877      48.850911      36.669432      11.923197     -64867.081    
   2635000   295.65113      130.23155      300.70254      207.16877      29.815949      54.846833      2.1085256     -64867.054    
   2636000   292.5895       130.23155      300.70254      207.16877      41.4116        27.020585     -17.57379      -64867.04     
   2637000   293.22331      130.23155      300.70254      207.16877      35.932677      48.297277     -1.4286407     -64867.035    
   2638000   292.40062      130.23155      300.70254      207.16877      40.05497       42.964335     -20.269064     -64867.058    
   2639000   293.67145      130.23155      300.70254      207.16877      42.982207      35.884606      2.7218273     -64867.093    
   2640000   294.00201      130.23155      300.70254      207.16877      31.361054      36.157435     -5.0952509     -64867.035    
   2641000   294.72932      130.23155      300.70254      207.16877      31.61025       39.580138     -23.873457     -64867.028    
   2642000   292.53698      130.23155      300.70254      207.16877      49.636379      31.447913      6.9866694     -64867.043    
   2643000   293.08543      130.23155      300.70254      207.16877      32.374991      42.378935      10.932197     -64867.034    
   2644000   293.2059       130.23155      300.70254      207.16877      50.119662      38.866668      6.9607858     -64867.062    
   2645000   294.20756      130.23155      300.70254      207.16877      32.291736      41.612032     -11.084639     -64867.065    
   2646000   293.54375      130.23155      300.70254      207.16877      25.237913      42.732355     -19.956656     -64867.067    
   2647000   291.73331      130.23155      300.70254      207.16877      45.76314       33.450287      2.729434      -64867.068    
   2648000   292.15093      130.23155      300.70254      207.16877      28.234829      51.517565     -1.3584555     -64867.031    
   2649000   294.07713      130.23155      300.70254      207.16877      46.889438      31.75395      -16.59624      -64867.046    
   2650000   292.31376      130.23155      300.70254      207.16877      26.067744      43.96183      -8.2202426     -64867.055    
   2651000   293.79545      130.23155      300.70254      207.16877      38.962869      36.754281     -15.087718     -64867.095    
   2652000   292.81491      130.23155      300.70254      207.16877      34.781809      31.704352     -13.148675     -64867.047    
   2653000   291.98427      130.23155      300.70254      207.16877      29.450235      44.309509     -14.987192     -64867.053    
   2654000   295.05154      130.23155      300.70254      207.16877      58.096746      32.666342     -10.648937     -64867.053    
   2655000   294.60084      130.23155      300.70254      207.16877      38.227629      56.088291      2.7724603     -64867.056    
   2656000   292.8031       130.23155      300.70254      207.16877      39.204115      48.022245      5.5621354     -64867.075    
   2657000   294.94577      130.23155      300.70254      207.16877      51.579955      41.504862     -3.2522294     -64867.069    
   2658000   292.51381      130.23155      300.70254      207.16877      28.281545      48.073991     -8.4558487     -64867.065    
   2659000   292.87529      130.23155      300.70254      207.16877      34.500784      32.991444     -20.838729     -64867.046    
   2660000   293.7816       130.23155      300.70254      207.16877      37.634566      39.557012     -19.741365     -64867.031    
   2661000   293.62591      130.23155      300.70254      207.16877      38.46728       43.408466      14.156559     -64867.068    
   2662000   292.62186      130.23155      300.70254      207.16877      37.865536      41.257332     -9.6494285     -64867.071    
   2663000   295.32277      130.23155      300.70254      207.16877      33.128151      34.470293     -35.389        -64867.075    
   2664000   293.44085      130.23155      300.70254      207.16877      39.035795      35.652516      20.094491     -64867.073    
   2665000   296.04308      130.23155      300.70254      207.16877      37.326543      53.838465      26.810419     -64866.976    
   2666000   291.67265      130.23155      300.70254      207.16877      47.454874      26.409699     -56.658208     -64867.013    
   2667000   294.6244       130.23155      300.70254      207.16877      33.802104      55.496992     -9.3908854     -64867.067    
   2668000   292.86106      130.23155      300.70254      207.16877      50.613811      50.006465      48.672432     -64867.089    
   2669000   295.15242      130.23155      300.70254      207.16877      40.641994      47.493747     -47.163871     -64867.094    
   2670000   292.261        130.23155      300.70254      207.16877      30.104608      43.790945     -35.020662     -64867.042    
   2671000   295.71069      130.23155      300.70254      207.16877      54.635825      53.811726      31.361803     -64867.053    
   2672000   293.73488      130.23155      300.70254      207.16877      42.180436      51.12151      -1.7717719     -64867.031    
   2673000   296.16748      130.23155      300.70254      207.16877      19.142481      47.963444     -66.760305     -64867.053    
   2674000   292.81931      130.23155      300.70254      207.16877      54.579298      39.94792       23.774695     -64867.061    
   2675000   293.00515      130.23155      300.70254      207.16877      22.431007      55.543945      22.016647     -64867.058    
   2676000   294.09528      130.23155      300.70254      207.16877      25.726485      20.735853     -78.497084     -64867.039    
   2677000   294.25354      130.23155      300.70254      207.16877      36.679899      35.295549      4.9223705     -64867.048    
   2678000   294.00928      130.23155      300.70254      207.16877      28.30379       40.715878      17.173229     -64867.038    
   2679000   292.62218      130.23155      300.70254      207.16877      32.33489       30.892158     -31.301707     -64867.088    
   2680000   294.73029      130.23155      300.70254      207.16877      36.273125      33.265353     -7.7392424     -64867.054    
   2681000   294.46366      130.23155      300.70254      207.16877      29.317927      36.291636      9.5636773     -64867.064    
   2682000   294.9214       130.23155      300.70254      207.16877      38.537356      35.620774     -24.090149     -64867.035    
   2683000   294.09079      130.23155      300.70254      207.16877      35.794905      43.582906     -54.166979     -64867.042    
   2684000   295.46804      130.23155      300.70254      207.16877      45.979048      54.09843       19.453881     -64867.066    
   2685000   294.00454      130.23155      300.70254      207.16877      49.660315      40.542914      28.969573     -64867.009    
   2686000   293.63003      130.23155      300.70254      207.16877      22.161827      55.027146     -47.530076     -64867.098    
   2687000   294.87058      130.23155      300.70254      207.16877      54.443127      41.774445     -15.976066     -64867.083    
   2688000   294.30244      130.23155      300.70254      207.16877      54.026173      57.709354      0.072042723   -64867.064    
   2689000   293.51724      130.23155      300.70254      207.16877      57.359833      62.043485      5.5529953     -64867.072    
   2690000   295.37171      130.23155      300.70254      207.16877      51.039007      54.422651     -7.4081599     -64867.078    
   2691000   295.96108      130.23155      300.70254      207.16877      52.968934      54.564789     -11.049143     -64867.062    
   2692000   294.19186      130.23155      300.70254      207.16877      57.690421      51.626764     -2.8959043     -64867.082    
   2693000   294.10188      130.23155      300.70254      207.16877      55.226185      59.130859     -13.354662     -64867.055    
   2694000   294.68104      130.23155      300.70254      207.16877      44.412084      58.203889     -17.587268     -64867.054    
   2695000   294.80473      130.23155      300.70254      207.16877      54.082948      47.10886      -8.4887309     -64866.989    
   2696000   294.70353      130.23155      300.70254      207.16877      55.637903      50.351081     -24.297183     -64867.072    
   2697000   293.19665      130.23155      300.70254      207.16877      44.338563      66.862146     -21.704976     -64867.1      
   2698000   294.50107      130.23155      300.70254      207.16877      53.669135      56.741331      22.868865     -64867.125    
   2699000   293.11919      130.23155      300.70254      207.16877      51.365702      45.175021      4.5062273     -64867.079    
   2700000   293.63584      130.23155      300.70254      207.16877      26.934656      58.608124     -23.25112      -64867.024    
   2701000   293.51724      130.23155      300.70254      207.16877      51.522699      27.36345      -12.622112     -64867.043    
   2702000   293.19061      130.23155      300.70254      207.16877      24.246366      65.645052      24.75279      -64867.061    
   2703000   293.232        130.23155      300.70254      207.16877      58.597593      19.260655     -16.745413     -64867.057    
   2704000   294.13818      130.23155      300.70254      207.16877      16.762259      50.064455     -39.232001     -64867.039    
   2705000   294.74147      130.23155      300.70254      207.16877      39.990634      53.573671      7.7034734     -64867.038    
   2706000   294.09612      130.23155      300.70254      207.16877      39.733463      27.383139     -10.928823     -64867.052    
   2707000   295.1152       130.23155      300.70254      207.16877      14.871219      54.936366     -7.0544544     -64867.125    
   2708000   295.01262      130.23155      300.70254      207.16877      54.333175      23.998931      18.044865     -64867.076    
   2709000   293.41241      130.23155      300.70254      207.16877      16.973639      53.564276     -2.8684343     -64867.046    
   2710000   293.44074      130.23155      300.70254      207.16877      35.051712      41.996318     -36.352738     -64866.984    
   2711000   293.96828      130.23155      300.70254      207.16877      47.985143      34.228588      0.029353866   -64867.006    
   2712000   296.05434      130.23155      300.70254      207.16877      24.570086      69.498488      7.9921176     -64867.06     
   2713000   294.05546      130.23155      300.70254      207.16877      46.491415      34.163997     -20.074443     -64867.056    
   2714000   293.77772      130.23155      300.70254      207.16877      37.034941      42.915018     -23.805696     -64867.095    
   2715000   293.66134      130.23155      300.70254      207.16877      28.578082      55.754042      3.991713      -64867.055    
   2716000   294.02916      130.23155      300.70254      207.16877      45.374345      39.877459      16.311969     -64867.042    
   2717000   293.80565      130.23155      300.70254      207.16877      34.561666      42.439115     -31.306449     -64866.999    
   2718000   294.01166      130.23155      300.70254      207.16877      18.361429      43.714419     -26.21671      -64867.024    
   2719000   293.95949      130.23155      300.70254      207.16877      51.314638      24.38947      -6.6888379     -64867.089    
   2720000   292.82647      130.23155      300.70254      207.16877      29.544526      55.969676      2.9553854     -64867.095    
   2721000   292.69413      130.23155      300.70254      207.16877      47.771818      48.212623     -12.434912     -64867.079    
   2722000   292.38396      130.23155      300.70254      207.16877      45.360707      41.020886     -19.639359     -64867.029    
   2723000   291.62478      130.23155      300.70254      207.16877      36.89326       57.310012     -12.255248     -64867.027    
   2724000   293.19054      130.23155      300.70254      207.16877      43.271064      46.255291      4.5395443     -64867.073    
   2725000   292.2468       130.23155      300.70254      207.16877      53.912231      35.457815     -3.6905006     -64867.078    
   2726000   294.24987      130.23155      300.70254      207.16877      36.236996      69.499818     -5.7250628     -64867.018    
   2727000   294.27053      130.23155      300.70254      207.16877      50.158303      41.557485     -24.28998      -64867.014    
   2728000   294.37354      130.23155      300.70254      207.16877      45.406982      57.70113      -28.000991     -64867.035    
   2729000   293.40327      130.23155      300.70254      207.16877      47.871784      40.505311     -1.2494934     -64867.093    
   2730000   292.53656      130.23155      300.70254      207.16877      42.007272      62.948764      9.3477295     -64867.082    
   2731000   293.68758      130.23155      300.70254      207.16877      57.169684      47.164825     -6.1783825     -64867.098    
   2732000   295.53933      130.23155      300.70254      207.16877      54.819594      72.457469      9.1418531     -64867.078    
   2733000   295.69483      130.23155      300.70254      207.16877      48.716647      43.548095     -8.4857968     -64867.058    
   2734000   294.20007      130.23155      300.70254      207.16877      43.642265      45.388059      2.8073071     -64867.07     
   2735000   294.48576      130.23155      300.70254      207.16877      42.393963      44.863668     -15.443788     -64867.082    
   2736000   292.4774       130.23155      300.70254      207.16877      45.052501      43.431975     -20.787535     -64867.029    
   2737000   292.56794      130.23155      300.70254      207.16877      43.921365      44.930751     -0.39211894    -64867.051    
   2738000   294.42971      130.23155      300.70254      207.16877      41.475795      47.559814     -3.7319241     -64867.032    
   2739000   293.37435      130.23155      300.70254      207.16877      36.855683      44.138012     -49.452336     -64867.076    
   2740000   294.34329      130.23155      300.70254      207.16877      35.251444      50.550385     -20.627234     -64867.041    
   2741000   294.96662      130.23155      300.70254      207.16877      45.331803      45.178232      19.833733     -64867.043    
   2742000   292.16217      130.23155      300.70254      207.16877      26.166628      47.760287     -32.99046      -64867.064    
   2743000   295.16712      130.23155      300.70254      207.16877      35.904535      46.116917     -12.52022      -64867.088    
   2744000   294.02585      130.23155      300.70254      207.16877      43.567736      49.783522      21.051299     -64867.088    
   2745000   295.76142      130.23155      300.70254      207.16877      32.771605      47.680808     -18.17318      -64867.02     
   2746000   293.93443      130.23155      300.70254      207.16877      29.00414       37.369667     -58.882484     -64866.997    
   2747000   291.47806      130.23155      300.70254      207.16877      47.160037      43.478566     -1.9648052     -64866.986    
   2748000   293.43116      130.23155      300.70254      207.16877      31.017349      50.325598      17.995069     -64867.103    
   2749000   293.013        130.23155      300.70254      207.16877      46.736365      31.717295     -19.279806     -64867.131    
   2750000   295.00538      130.23155      300.70254      207.16877      31.041432      50.636651     -7.1459162     -64867.063    
   2751000   294.27945      130.23155      300.70254      207.16877      47.104315      47.973477      9.9928023     -64867.018    
   2752000   296.63813      130.23155      300.70254      207.16877      27.937531      46.648636     -37.165424     -64867.004    
   2753000   291.58277      130.23155      300.70254      207.16877      45.363751      45.207315     -21.50231      -64867.012    
   2754000   292.25497      130.23155      300.70254      207.16877      41.961601      51.469686     -3.7171066     -64867.09     
   2755000   292.23307      130.23155      300.70254      207.16877      47.230014      56.548263     -20.003747     -64867.049    
   2756000   293.85987      130.23155      300.70254      207.16877      59.15687       51.926324     -25.132957     -64867.13     
   2757000   292.76877      130.23155      300.70254      207.16877      43.766254      61.833664     -5.3190627     -64867.058    
   2758000   293.6665       130.23155      300.70254      207.16877      55.677878      44.652269      11.076021     -64867.05     
   2759000   293.27824      130.23155      300.70254      207.16877      32.209211      46.315894     -15.391698     -64867.081    
   2760000   292.25061      130.23155      300.70254      207.16877      45.767905      43.195435     -7.2591556     -64867.046    
   2761000   293.17481      130.23155      300.70254      207.16877      40.708409      67.425492      10.50048      -64867.105    
   2762000   293.56617      130.23155      300.70254      207.16877      51.664647      33.162278     -13.642521     -64867.048    
   2763000   293.56951      130.23155      300.70254      207.16877      32.84333       47.943661     -39.880111     -64867.021    
   2764000   292.67529      130.23155      300.70254      207.16877      53.210592      59.247456      10.598536     -64867.09     
   2765000   293.88904      130.23155      300.70254      207.16877      47.724521      55.922768     -1.0279659     -64867.069    
   2766000   293.68854      130.23155      300.70254      207.16877      39.091883      47.820956     -48.781303     -64867.056    
   2767000   293.72561      130.23155      300.70254      207.16877      43.332426      50.381979      3.8373439     -64867.065    
   2768000   294.00698      130.23155      300.70254      207.16877      60.689128      49.780937      5.249732      -64867.019    
   2769000   293.32315      130.23155      300.70254      207.16877      33.368847      66.418416     -40.179355     -64867.013    
   2770000   293.50734      130.23155      300.70254      207.16877      61.690381      42.810591      11.809167     -64867.039    
   2771000   294.94358      130.23155      300.70254      207.16877      24.060873      64.475567     -4.5414654     -64867.105    
   2772000   296.1118       130.23155      300.70254      207.16877      43.638189      52.444614      9.5496234     -64867.112    
   2773000   292.84039      130.23155      300.70254      207.16877      44.341008      33.314136     -24.42625      -64867.027    
   2774000   292.00639      130.23155      300.70254      207.16877      36.800809      63.64333      -10.324296     -64867.027    
   2775000   294.66594      130.23155      300.70254      207.16877      51.408151      53.943051      8.6134905     -64866.996    
   2776000   293.5971       130.23155      300.70254      207.16877      39.411307      53.527428     -9.5699305     -64867.099    
   2777000   293.70001      130.23155      300.70254      207.16877      44.355849      54.210244     -7.539435      -64867.118    
   2778000   294.9513       130.23155      300.70254      207.16877      45.347158      47.825651     -1.9409061     -64867.078    
   2779000   292.633        130.23155      300.70254      207.16877      48.52571       41.630147     -19.038363     -64867.03     
   2780000   293.10506      130.23155      300.70254      207.16877      24.264409      67.218929     -21.369011     -64867.029    
   2781000   293.4754       130.23155      300.70254      207.16877      63.974514      34.199921      6.0523917     -64867.068    
   2782000   294.51171      130.23155      300.70254      207.16877      21.863912      79.774958     -2.785678      -64867.1      
   2783000   291.69231      130.23155      300.70254      207.16877      50.586487      28.688249     -29.893507     -64867.033    
   2784000   294.93944      130.23155      300.70254      207.16877      33.97462       57.45627       24.223742     -64867.083    
   2785000   295.1875       130.23155      300.70254      207.16877      43.285318      45.712735      8.6292629     -64867.071    
   2786000   293.11093      130.23155      300.70254      207.16877      41.804449      41.037073     -21.285698     -64867.103    
   2787000   291.49816      130.23155      300.70254      207.16877      27.709426      67.046317     -5.5796866     -64867.052    
   2788000   292.83496      130.23155      300.70254      207.16877      41.371736      31.742042     -7.6161937     -64867.032    
   2789000   294.51241      130.23155      300.70254      207.16877      43.152678      43.394346     -8.8708594     -64867.053    
   2790000   291.7289       130.23155      300.70254      207.16877      38.126611      39.521682     -14.559706     -64867.069    
   2791000   294.16233      130.23155      300.70254      207.16877      34.794454      39.375773     -22.57434      -64867.063    
   2792000   292.71575      130.23155      300.70254      207.16877      44.819344      48.040605     -11.390362     -64867.059    
   2793000   295.01434      130.23155      300.70254      207.16877      22.434297      62.204643     -14.286163     -64867.048    
   2794000   294.23346      130.23155      300.70254      207.16877      50.95885       41.232459     -12.782526     -64867.06     
   2795000   294.80145      130.23155      300.70254      207.16877      21.670461      61.149201      2.5381227     -64867.106    
   2796000   292.3926       130.23155      300.70254      207.16877      56.497624      32.597144     -7.2583485     -64867.068    
   2797000   294.27266      130.23155      300.70254      207.16877      32.41528       55.614311     -27.218734     -64867.024    
   2798000   293.90776      130.23155      300.70254      207.16877      37.389162      66.048127     -6.1427845     -64867.018    
   2799000   295.27936      130.23155      300.70254      207.16877      59.35581       49.251086      13.412844     -64867.115    
   2800000   292.74169      130.23155      300.70254      207.16877      35.314672      51.181813     -38.929924     -64867.065    
   2801000   295.7162       130.23155      300.70254      207.16877      33.300458      46.82857      -15.516829     -64867.076    
   2802000   293.58729      130.23155      300.70254      207.16877      49.208233      39.284393      13.80632      -64867.078    
   2803000   294.05799      130.23155      300.70254      207.16877      31.945448      56.137615     -7.5263587     -64867.034    
   2804000   293.39467      130.23155      300.70254      207.16877      51.731297      40.541155     -12.638287     -64867.084    
   2805000   295.26754      130.23155      300.70254      207.16877      32.355691      49.565234     -8.4343001     -64867.027    
   2806000   294.97345      130.23155      300.70254      207.16877      41.853003      38.658673     -15.222506     -64867.009    
   2807000   294.12048      130.23155      300.70254      207.16877      29.774913      40.471792     -44.519848     -64867.028    
   2808000   295.94611      130.23155      300.70254      207.16877      28.675216      44.934998     -0.63888885    -64867.051    
   2809000   294.85346      130.23155      300.70254      207.16877      44.724584      35.168471      22.975972     -64867.087    
   2810000   295.60864      130.23155      300.70254      207.16877      26.355968      57.780809     -19.550791     -64867.076    
   2811000   292.21733      130.23155      300.70254      207.16877      56.166386      39.355368     -32.770032     -64867.044    
   2812000   293.98318      130.23155      300.70254      207.16877      29.009869      52.76768      -10.375942     -64867.035    
   2813000   295.1361       130.23155      300.70254      207.16877      47.89639       45.378196      0.83732568    -64867.065    
   2814000   294.4748       130.23155      300.70254      207.16877      29.707164      46.453968     -24.139868     -64867.064    
   2815000   293.38236      130.23155      300.70254      207.16877      54.429936      41.107588      7.5843265     -64867.083    
   2816000   294.17184      130.23155      300.70254      207.16877      45.597841      70.804787      10.477442     -64867.042    
   2817000   294.46476      130.23155      300.70254      207.16877      47.498777      44.656009     -24.326533     -64867.057    
   2818000   292.76582      130.23155      300.70254      207.16877      43.290189      47.54693      -13.982625     -64867.061    
   2819000   294.86584      130.23155      300.70254      207.16877      40.001553      49.549578     -3.122082      -64867.073    
   2820000   293.58979      130.23155      300.70254      207.16877      49.472871      48.155473     -2.6006116     -64867.074    
   2821000   294.51638      130.23155      300.70254      207.16877      43.898679      46.48196      -28.342131     -64867.074    
   2822000   292.62728      130.23155      300.70254      207.16877      51.560817      52.928954      6.4590995     -64867.069    
   2823000   292.62414      130.23155      300.70254      207.16877      63.951251      51.288242      11.36041      -64867.05     
   2824000   293.79737      130.23155      300.70254      207.16877      50.326576      60.657889     -27.479113     -64867.072    
   2825000   296.07952      130.23155      300.70254      207.16877      49.802571      50.640706     -6.2077207     -64867.076    
   2826000   294.69533      130.23155      300.70254      207.16877      43.315863      41.319479      0.087831574   -64867.062    
   2827000   293.73951      130.23155      300.70254      207.16877      39.997558      41.792855     -2.7780001     -64867.081    
   2828000   292.08727      130.23155      300.70254      207.16877      33.959408      54.47746      -13.880671     -64867.046    
   2829000   294.05399      130.23155      300.70254      207.16877      62.935365      32.867259     -8.3093517     -64867.105    
   2830000   293.95901      130.23155      300.70254      207.16877      21.959855      54.464514     -15.638337     -64867.024    
   2831000   293.61205      130.23155      300.70254      207.16877      38.651985      31.558638      4.9970715     -64867.032    
   2832000   293.65396      130.23155      300.70254      207.16877      32.626455      31.154583      3.8784806     -64867.041    
   2833000   293.03765      130.23155      300.70254      207.16877      26.126364      29.31491      -29.92726      -64867.087    
   2834000   294.51329      130.23155      300.70254      207.16877      35.071309      41.588369     -16.468479     -64867.073    
   2835000   293.65262      130.23155      300.70254      207.16877      46.605819      34.874142      13.768595     -64867.041    
   2836000   294.12949      130.23155      300.70254      207.16877      28.854063      43.222837     -19.283422     -64867.011    
   2837000   293.59433      130.23155      300.70254      207.16877      31.881622      24.722898     -49.879133     -64867.015    
   2838000   292.68592      130.23155      300.70254      207.16877      31.362059      36.316229      12.940506     -64867.08     
   2839000   293.71204      130.23155      300.70254      207.16877      32.65379       44.638489      23.663672     -64867.056    
   2840000   294.49866      130.23155      300.70254      207.16877      37.369664      37.67968      -3.9429371     -64867.034    
   2841000   294.9617       130.23155      300.70254      207.16877      17.919377      47.426824     -43.588358     -64867.026    
   2842000   294.18353      130.23155      300.70254      207.16877      40.982649      35.493099     -7.5750817     -64867.034    
   2843000   290.17174      130.23155      300.70254      207.16877      34.18921       41.861676      11.048932     -64867.078    
   2844000   291.59944      130.23155      300.70254      207.16877      40.466148      22.861868     -12.472522     -64867.092    
   2845000   292.19251      130.23155      300.70254      207.16877      16.03563       33.088463     -24.805013     -64867.024    
   2846000   295.31135      130.23155      300.70254      207.16877      50.636078      41.881032     -0.18035945    -64867.015    
   2847000   292.05139      130.23155      300.70254      207.16877      32.597221      32.1263       -26.564856     -64867.005    
   2848000   294.37209      130.23155      300.70254      207.16877      39.212035      29.14823      -6.6349544     -64867.078    
   2849000   293.04252      130.23155      300.70254      207.16877      39.099427      52.301133      48.074964     -64867.127    
   2850000   295.11299      130.23155      300.70254      207.16877      40.933775      29.122035     -17.801768     -64867.083    
   2851000   294.54114      130.23155      300.70254      207.16877      32.642417      28.391752     -25.02453      -64867.028    
   2852000   294.27467      130.23155      300.70254      207.16877      38.2519        37.622422     -18.020859     -64867.019    
   2853000   295.15766      130.23155      300.70254      207.16877      52.898391      30.520353     -31.287528     -64867.066    
   2854000   293.81934      130.23155      300.70254      207.16877      30.836931      50.609573      2.8123254     -64867.074    
   2855000   292.58734      130.23155      300.70254      207.16877      43.664581      26.454923      21.385293     -64867.084    
   2856000   292.84046      130.23155      300.70254      207.16877      16.604721      23.210911     -33.144465     -64867.059    
   2857000   294.96282      130.23155      300.70254      207.16877      39.483015      30.580419     -16.889539     -64867.023    
   2858000   296.44786      130.23155      300.70254      207.16877      46.819809      45.789494      22.752788     -64867.037    
   2859000   295.1432       130.23155      300.70254      207.16877      46.026912      32.873432     -34.231471     -64867.085    
   2860000   295.13971      130.23155      300.70254      207.16877      34.810401      45.948459     -17.861689     -64867.071    
   2861000   293.79991      130.23155      300.70254      207.16877      44.990462      41.469853      8.9307958     -64867.12     
   2862000   294.6353       130.23155      300.70254      207.16877      48.622409      48.681057      1.7407904     -64867.007    
   2863000   293.89394      130.23155      300.70254      207.16877      38.928981      48.334549     -12.25573      -64867.04     
   2864000   293.8111       130.23155      300.70254      207.16877      41.842979      32.531734      11.159296     -64867.027    
   2865000   294.03708      130.23155      300.70254      207.16877      41.91536       45.383945     -8.2017249     -64867.056    
   2866000   294.59963      130.23155      300.70254      207.16877      46.965714      38.533388     -12.373028     -64867.109    
   2867000   293.72469      130.23155      300.70254      207.16877      48.185111      33.85175       9.0041201     -64867.063    
   2868000   293.51198      130.23155      300.70254      207.16877      22.203091      32.080402     -34.310897     -64867.021    
   2869000   292.37645      130.23155      300.70254      207.16877      28.86048       24.917136     -58.415201     -64866.976    
   2870000   293.24328      130.23155      300.70254      207.16877      36.021328      28.54159       12.228146     -64867.031    
   2871000   295.62589      130.23155      300.70254      207.16877      30.23752       33.202902      7.4273749     -64867.109    
   2872000   294.45014      130.23155      300.70254      207.16877      38.475945      15.790531     -36.366977     -64867.126    
   2873000   292.97462      130.23155      300.70254      207.16877      34.450945      35.016354      12.170654     -64867.083    
   2874000   294.71652      130.23155      300.70254      207.16877      25.4752        45.507397      7.8312369     -64867.005    
   2875000   292.92204      130.23155      300.70254      207.16877      51.127853      5.0470816     -56.655668     -64866.985    
   2876000   292.88085      130.23155      300.70254      207.16877      8.4561864      46.054602     -34.199498     -64867.043    
   2877000   293.21218      130.23155      300.70254      207.16877      40.318386      31.891237      30.907198     -64867.068    
   2878000   294.00844      130.23155      300.70254      207.16877      40.570127      34.736654     -9.0841236     -64867.026    
   2879000   293.94335      130.23155      300.70254      207.16877      27.537011      35.592876     -29.19519      -64867.027    
   2880000   294.80456      130.23155      300.70254      207.16877      48.783367      15.189673     -4.9905358     -64867.011    
   2881000   294.13541      130.23155      300.70254      207.16877      24.460517      38.897094      3.8920055     -64867.096    
   2882000   294.47865      130.23155      300.70254      207.16877      43.020315      32.486864     -14.686661     -64867.049    
   2883000   292.87823      130.23155      300.70254      207.16877      38.816982      39.558912     -8.063089      -64867.033    
   2884000   292.99787      130.23155      300.70254      207.16877      41.679987      41.454166     -18.071375     -64867.007    
   2885000   295.2223       130.23155      300.70254      207.16877      43.988647      34.405352     -12.717682     -64867.03     
   2886000   293.02815      130.23155      300.70254      207.16877      40.69934       32.453326     -11.227077     -64867.07     
   2887000   293.41694      130.23155      300.70254      207.16877      21.362311      43.096571     -21.12961      -64867.044    
   2888000   295.26008      130.23155      300.70254      207.16877      78.608558      13.350522      13.91669      -64867.006    
   2889000   293.02792      130.23155      300.70254      207.16877      15.524627      59.328462      4.1323898     -64867.017    
   2890000   293.94313      130.23155      300.70254      207.16877      56.834949      18.66273      -35.328261     -64867.026    
   2891000   292.34134      130.23155      300.70254      207.16877      39.15562       48.2179        8.9125221     -64867.103    
   2892000   295.17257      130.23155      300.70254      207.16877      27.478599      43.450797     -4.8635795     -64867.037    
   2893000   293.30487      130.23155      300.70254      207.16877      46.178823      18.783346     -11.448234     -64867.026    
   2894000   294.73129      130.23155      300.70254      207.16877      27.635965      53.80387      -21.059241     -64866.989    
   2895000   295.28606      130.23155      300.70254      207.16877      58.662435      39.892252     -19.368799     -64867.051    
   2896000   293.29529      130.23155      300.70254      207.16877      39.268239      29.32304       1.1495745     -64867.079    
   2897000   292.20176      130.23155      300.70254      207.16877      18.170034      41.191527      10.341356     -64867.088    
   2898000   292.30264      130.23155      300.70254      207.16877      44.864704      9.4873934     -24.929803     -64867.038    
   2899000   292.51896      130.23155      300.70254      207.16877      11.31522       44.017695     -23.036137     -64867.006    
   2900000   290.34048      130.23155      300.70254      207.16877      45.174697      26.746579      5.534848      -64867.049    
   2901000   293.69698      130.23155      300.70254      207.16877      41.459163      29.310287      4.2002438     -64867.03     
   2902000   294.46822      130.23155      300.70254      207.16877      27.880358      51.039381     -21.442016     -64867.097    
   2903000   292.325        130.23155      300.70254      207.16877      42.884931      29.769472     -15.389731     -64867.012    
   2904000   293.87467      130.23155      300.70254      207.16877      37.578103      28.632029     -10.310755     -64867.049    
   2905000   293.9379       130.23155      300.70254      207.16877      34.653443      47.748427     -25.414257     -64867.032    
   2906000   291.92523      130.23155      300.70254      207.16877      34.037348      21.628986      2.2362161     -64867.064    
   2907000   292.56856      130.23155      300.70254      207.16877      35.012965      28.847667      3.3583926     -64867.051    
   2908000   293.79537      130.23155      300.70254      207.16877      30.823921      29.405539     -10.244077     -64867.019    
   2909000   293.17386      130.23155      300.70254      207.16877      35.623891      24.822943     -16.023914     -64867.024    
   2910000   290.01961      130.23155      300.70254      207.16877      18.206483      39.52259      -2.3065696     -64867.025    
   2911000   294.07454      130.23155      300.70254      207.16877      39.394275      23.873112     -26.053017     -64867.007    
   2912000   291.86112      130.23155      300.70254      207.16877      43.497452      24.150265     -27.517699     -64867.048    
   2913000   294.15032      130.23155      300.70254      207.16877      22.829604      46.932474      1.8345088     -64867.019    
   2914000   295.57629      130.23155      300.70254      207.16877      51.853922      13.444887      9.8804468     -64867.05     
   2915000   294.27451      130.23155      300.70254      207.16877      16.169213      47.701017     -30.2299       -64867.039    
   2916000   292.55818      130.23155      300.70254      207.16877      37.064867      29.972543     -23.775036     -64867.046    
   2917000   293.66126      130.23155      300.70254      207.16877      53.462982      31.668322      10.453833     -64867.057    
   2918000   292.70229      130.23155      300.70254      207.16877      36.591455      53.231692     -16.192735     -64867.036    
   2919000   293.31119      130.23155      300.70254      207.16877      42.164946      21.098801     -28.032744     -64867.056    
   2920000   293.29851      130.23155      300.70254      207.16877      31.856868      49.574529      14.645348     -64867.071    
   2921000   294.54337      130.23155      300.70254      207.16877      46.709477      38.864001      12.400585     -64867.098    
   2922000   292.94777      130.23155      300.70254      207.16877      38.603752      32.948514     -10.749283     -64867.058    
   2923000   294.06894      130.23155      300.70254      207.16877      44.620082      36.335804      2.2343133     -64867.019    
   2924000   293.70067      130.23155      300.70254      207.16877      35.607212      40.874208      10.744414     -64866.998    
   2925000   294.56886      130.23155      300.70254      207.16877      36.462253      31.040802     -43.490939     -64867.065    
   2926000   293.27254      130.23155      300.70254      207.16877      42.259146      34.142343      13.268361     -64867.079    
   2927000   294.96004      130.23155      300.70254      207.16877      30.335778      33.717447      17.538776     -64867.05     
   2928000   291.9418       130.23155      300.70254      207.16877      32.26634       9.2944729     -33.449057     -64867.043    
   2929000   295.00901      130.23155      300.70254      207.16877      31.270499      34.890791     -14.61966      -64867.05     
   2930000   293.37804      130.23155      300.70254      207.16877      38.418626      38.506623      25.270875     -64867.069    
   2931000   294.07521      130.23155      300.70254      207.16877      27.624817      28.99083      -22.554361     -64867.061    
   2932000   295.07079      130.23155      300.70254      207.16877      34.620642      28.916494     -18.795041     -64867.082    
   2933000   292.92057      130.23155      300.70254      207.16877      36.782377      36.117376      28.987871     -64867.045    
   2934000   292.07305      130.23155      300.70254      207.16877      26.600863      25.942717     -21.264429     -64866.999    
   2935000   292.3401       130.23155      300.70254      207.16877      30.285407      25.494479     -32.730291     -64867.018    
   2936000   293.36671      130.23155      300.70254      207.16877      32.592304      18.151603      15.001636     -64867.072    
   2937000   293.29585      130.23155      300.70254      207.16877      35.661929      20.73845       19.220623     -64867.087    
   2938000   292.74355      130.23155      300.70254      207.16877      26.480228      27.216208     -6.4186726     -64867.046    
   2939000   294.32724      130.23155      300.70254      207.16877      31.242256      26.701119      1.2995781     -64867.007    
   2940000   293.63345      130.23155      300.70254      207.16877      34.367723      18.189315     -28.582797     -64866.997    
   2941000   295.7902       130.23155      300.70254      207.16877      39.895398      28.292165     -29.969155     -64867.031    
   2942000   295.33678      130.23155      300.70254      207.16877      42.649392      26.2636        5.3940031     -64867.023    
   2943000   295.22412      130.23155      300.70254      207.16877      44.357739      26.438832      0.54572893    -64867.1      
   2944000   293.16066      130.23155      300.70254      207.16877      24.525307      32.340391     -21.126643     -64867.059    
   2945000   293.55662      130.23155      300.70254      207.16877      37.874966      32.251344     -16.499487     -64867        
   2946000   293.89108      130.23155      300.70254      207.16877      51.033025      24.393752     -7.2511558     -64867.026    
   2947000   291.45815      130.23155      300.70254      207.16877      23.502772      38.081362     -11.833776     -64867.052    
   2948000   293.49344      130.23155      300.70254      207.16877      51.315728      16.25651      -6.8550512     -64867.061    
   2949000   294.09368      130.23155      300.70254      207.16877      26.572843      39.453021     -14.591655     -64867.052    
   2950000   293.21599      130.23155      300.70254      207.16877      39.032433      35.026848      15.900197     -64867.014    
   2951000   292.9403       130.23155      300.70254      207.16877      33.156183      21.960121     -22.183338     -64867.016    
   2952000   291.61453      130.23155      300.70254      207.16877      32.820937      15.851856     -47.10615      -64867.054    
   2953000   294.32274      130.23155      300.70254      207.16877      24.924029      33.693594      32.523496     -64867.104    
   2954000   293.36539      130.23155      300.70254      207.16877      46.354372      13.541519      11.671521     -64867.124    
   2955000   293.31025      130.23155      300.70254      207.16877      23.655018      31.463789     -19.379306     -64867.058    
   2956000   294.23907      130.23155      300.70254      207.16877      36.384393      35.227427     -19.176085     -64866.941    
   2957000   292.31646      130.23155      300.70254      207.16877      37.459074      12.146981      2.3531984     -64867.001    
   2958000   293.72441      130.23155      300.70254      207.16877      3.8963946      40.691446     -11.647902     -64867.069    
   2959000   293.47009      130.23155      300.70254      207.16877      47.205196     -13.202074     -25.580697     -64867.093    
   2960000   294.10754      130.23155      300.70254      207.16877      9.8614386      37.371076      46.19315      -64867.09     
   2961000   294.00443      130.23155      300.70254      207.16877      44.159426      15.733563      16.649602     -64867.015    
   2962000   293.63492      130.23155      300.70254      207.16877      11.272472      21.68309      -74.442452     -64867.021    
   2963000   294.0729       130.23155      300.70254      207.16877      26.472149      17.930191      18.230498     -64867.065    
   2964000   294.6023       130.23155      300.70254      207.16877      30.618971      17.687328      38.456436     -64867.099    
   2965000   295.02745      130.23155      300.70254      207.16877      26.649752      4.3977043     -66.023953     -64867.038    
   2966000   291.88995      130.23155      300.70254      207.16877      8.5751244      27.170452     -33.936651     -64867.007    
   2967000   295.24868      130.23155      300.70254      207.16877      59.342555      6.7266394      32.594776     -64866.988    
   2968000   294.56831      130.23155      300.70254      207.16877      4.3790549      37.251793     -27.106545     -64867.037    
   2969000   293.38513      130.23155      300.70254      207.16877      41.191406     -6.1224277     -46.900315     -64867.095    
   2970000   294.20509      130.23155      300.70254      207.16877      29.079833      24.56417       31.104862     -64867.089    
   2971000   293.30893      130.23155      300.70254      207.16877      24.219423      19.440669      2.8540821     -64867.013    
   2972000   294.85879      130.23155      300.70254      207.16877      32.626012     -1.2976215     -32.272588     -64867.033    
   2973000   293.24363      130.23155      300.70254      207.16877      11.482396      17.472809     -17.027584     -64867.021    
   2974000   292.95513      130.23155      300.70254      207.16877      39.726164      8.1678208      13.96986      -64867.055    
   2975000   293.53741      130.23155      300.70254      207.16877      32.599994      9.5003829     -29.490364     -64867.046    
   2976000   292.4074       130.23155      300.70254      207.16877      11.793636      15.303056     -38.933743     -64867.003    
   2977000   294.1879       130.23155      300.70254      207.16877      34.722467      9.4274133     -0.05180908    -64867.037    
   2978000   294.68028      130.23155      300.70254      207.16877      22.582883      15.750496      6.8355616     -64867.038    
   2979000   294.37513      130.23155      300.70254      207.16877      20.949823      0.92544859    -20.394185     -64867.039    
   2980000   295.18329      130.23155      300.70254      207.16877      39.155967      10.389915      0.34968546    -64867.047    
   2981000   293.35768      130.23155      300.70254      207.16877      28.706066      29.464408      17.735219     -64867.066    
   2982000   297.07223      130.23155      300.70254      207.16877      37.709115      9.8990876     -1.0848324     -64867.073    
   2983000   293.56013      130.23155      300.70254      207.16877      31.765371      10.262586     -13.164263     -64867.048    
   2984000   291.51272      130.23155      300.70254      207.16877      16.455346      18.439132     -17.286963     -64866.982    
   2985000   295.85912      130.23155      300.70254      207.16877      36.346294      3.4660735     -22.50349      -64867.034    
   2986000   291.03319      130.23155      300.70254      207.16877      22.278         29.106676     -13.303951     -64867.079    
   2987000   294.76863      130.23155      300.70254      207.16877      39.894754      2.2945513     -16.538699     -64867.084    
   2988000   293.61576      130.23155      300.70254      207.16877      18.80507       9.6821213     -0.86794093    -64867.016    
   2989000   292.92806      130.23155      300.70254      207.16877      22.102452      10.840435      3.7410786     -64867.031    
   2990000   293.7025       130.23155      300.70254      207.16877      32.413809     -11.168565      6.8389183     -64867.035    
   2991000   293.78749      130.23155      300.70254      207.16877      14.516731      14.779192     -32.362396     -64867.032    
   2992000   292.87105      130.23155      300.70254      207.16877      22.209671      1.5772715      0.075260769   -64867.013    
   2993000   292.10381      130.23155      300.70254      207.16877      20.5689       -14.770027     -16.028126     -64867.005    
   2994000   293.71519      130.23155      300.70254      207.16877      6.5561954      9.1286201     -16.015111     -64867.016    
   2995000   293.38059      130.23155      300.70254      207.16877      28.800009     -24.580547     -2.8547662     -64867.082    
   2996000   294.82966      130.23155      300.70254      207.16877      10.297921      11.09486       14.293329     -64867.047    
   2997000   295.44536      130.23155      300.70254      207.16877      24.706118     -4.2903059      1.1850167     -64867.036    
   2998000   294.25732      130.23155      300.70254      207.16877      31.278902     -7.137149      -25.589113     -64867.03     
   2999000   294.13951      130.23155      300.70254      207.16877      12.488348      17.530815      9.9785507     -64867.018    
   3000000   293.62148      130.23155      300.70254      207.16877      27.003114     -4.3600519      3.7129926     -64867.03     
Loop time of 2220.89 on 16 procs for 1000000 steps with 21568 atoms

Performance: 19.452 ns/day, 1.234 hours/ns, 450.269 timesteps/s, 9.711 Matom-step/s
1502.5% CPU use with 1 MPI tasks x 16 OpenMP threads

MPI task timing breakdown:
Section |  min time  |  avg time  |  max time  |%varavg| %total
---------------------------------------------------------------
Pair    | 2016.2     | 2016.2     | 2016.2     |   0.0 | 90.78
Neigh   | 0.53905    | 0.53905    | 0.53905    |   0.0 |  0.02
Comm    | 27.862     | 27.862     | 27.862     |   0.0 |  1.25
Output  | 0.17365    | 0.17365    | 0.17365    |   0.0 |  0.01
Modify  | 156.2      | 156.2      | 156.2      |   0.0 |  7.03
Other   |            | 19.95      |            |       |  0.90

Nlocal:          21568 ave       21568 max       21568 min
Histogram: 1 0 0 0 0 0 0 0 0 0
Nghost:           7623 ave        7623 max        7623 min
Histogram: 1 0 0 0 0 0 0 0 0 0
Neighs:              0 ave           0 max           0 min
Histogram: 1 0 0 0 0 0 0 0 0 0

Total # of neighbors = 0
Ave neighs/atom = 0
Neighbor list builds = 46
Dangerous builds = 0

# Apply NEMD with Langevin thermostat to heat source and sinks
# Set temperatures for heat source and sinks (heat source at 315K, sinks at 285K)
#computation

variable       kB        equal 0.00008617
variable       t         equal 300
variable       tlo       equal 285
variable       thi       equal 315
variable       tdamp     equal 0.05

compute        THSource  hot  temp
compute        THsink    cold  temp

timestep       0.0005

# 2nd equilibration run
# Keep the rest of the system in NVE (to conserve energy)

fix             hot hot langevin ${thi} ${thi} ${tdamp} 63741 tally yes zero yes
fix             hot hot langevin 315 ${thi} ${tdamp} 63741 tally yes zero yes
fix             hot hot langevin 315 315 ${tdamp} 63741 tally yes zero yes
fix             hot hot langevin 315 315 0.05 63741 tally yes zero yes
fix             cold cold langevin ${tlo} ${tlo} ${tdamp} 23458 tally yes zero yes
fix             cold cold langevin 285 ${tlo} ${tdamp} 23458 tally yes zero yes
fix             cold cold langevin 285 285 ${tdamp} 23458 tally yes zero yes
fix             cold cold langevin 285 285 0.05 23458 tally yes zero yes
fix_modify      hot temp THSource
fix_modify      cold temp THsink

variable        tdiff equal c_THSource-c_THsink
variable Time    equal step
variable EL      equal f_hot
variable ER      equal f_cold

thermo_style    custom step temp c_THSource c_THsink f_hot f_cold v_tdiff
thermo_modify   colname c_THSource Temp_hot colname c_THsink Temp_cold                 colname f_hot E_hot colname f_cold E_cold                 colname v_tdiff dTemp_step

thermo          1000
run             1000000
Hybrid pair style last /omp style lj/cut
Last active /omp style is pair_style lj/cut
Per MPI rank memory allocation (min/avg/max) = 109.7 | 109.7 | 109.7 Mbytes
   Step          Temp         Temp_hot      Temp_cold        E_hot          E_cold       dTemp_step  
   3000000   293.62148      291.80586      295.31714     -0             -0             -3.5112785    
   3001000   294.18456      310.27902      289.61366     -6.5199024      6.2574679      20.665361    
   3002000   292.60499      319.70392      282.87725     -7.8489912      9.4919958      36.826667    
   3003000   294.99048      316.0606       285.97731     -10.016921      10.227828      30.083295    
   3004000   293.17899      328.03968      285.38951     -13.068662      8.6808377      42.650168    
   3005000   292.21387      315.31072      283.91328     -11.075499      11.898528      31.397437    
   3006000   293.61812      325.64351      276.76255     -12.002324      14.236124      48.880954    
   3007000   293.22966      321.81412      278.42792     -12.793748      14.730817      43.386193    
   3008000   293.10236      317.76723      288.91471     -14.017682      14.994552      28.852516    
   3009000   292.59683      310.93268      278.93248     -12.784781      15.671085      32.000196    
   3010000   295.22989      313.06811      277.10984     -16.797683      16.477346      35.958272    
   3011000   293.55265      311.34345      278.41442     -16.473719      19.755508      32.929024    
   3012000   293.55072      306.31445      278.17537     -15.953662      17.460912      28.13908     
   3013000   293.98756      323.52928      288.90774     -18.716442      17.478485      34.621539    
   3014000   294.78663      309.17296      284.14754     -18.285267      16.27773       25.025427    
   3015000   294.57559      324.18366      287.72687     -22.727125      19.146205      36.456794    
   3016000   294.21992      315.65994      288.21179     -22.012622      20.802665      27.448147    
   3017000   294.30897      312.32768      298.31695     -24.140124      22.336141      14.010723    
   3018000   293.02796      316.96101      289.60614     -22.65134       21.653295      27.354871    
   3019000   295.69146      320.6272       287.89897     -26.861202      22.514368      32.728232    
   3020000   294.4949       308.05623      296.94131     -23.328566      22.125642      11.114916    
   3021000   295.16496      320.83386      287.82103     -25.164849      25.183822      33.012832    
   3022000   293.23202      316.02728      293.31047     -25.747991      29.683079      22.716804    
   3023000   293.59866      319.25056      281.03939     -23.978144      31.584726      38.211168    
   3024000   294.21772      319.00715      287.86334     -25.913758      30.861931      31.143813    
   3025000   293.72927      305.50948      289.21906     -23.084991      31.748311      16.290425    
   3026000   294.67013      318.2097       297.08744     -30.142675      30.727389      21.122253    
   3027000   293.00051      317.74566      285.87098     -31.59627       32.408841      31.874679    
   3028000   296.34234      310.61823      286.95204     -30.223692      34.165238      23.66619     
   3029000   292.10091      322.00881      276.21        -31.761434      37.792133      45.798809    
   3030000   293.91397      320.5462       269.4671      -35.836657      35.791803      51.079106    
   3031000   292.09573      300.82632      276.50581     -31.985055      37.409114      24.32051     
   3032000   290.71452      309.30444      291.40514     -34.531397      38.993584      17.899299    
   3033000   292.20715      311.5814       289.85705     -37.85482       39.746858      21.724356    
   3034000   291.58625      321.42724      274.36446     -38.929181      41.695174      47.062779    
   3035000   291.24595      311.07378      287.65913     -35.322401      40.114201      23.414654    
   3036000   292.14926      315.46301      278.08038     -37.524202      42.482438      37.382622    
   3037000   291.88083      314.41043      277.24477     -37.963273      45.478577      37.165658    
   3038000   292.77635      317.96661      294.28181     -39.818646      43.284114      23.684801    
   3039000   292.55436      308.15587      293.13731     -39.426865      44.698368      15.018566    
   3040000   293.97325      314.8628       290.54308     -42.194062      46.848835      24.319721    
   3041000   292.70928      324.41549      267.33505     -44.302897      49.742342      57.080443    
   3042000   291.75406      308.07538      286.44946     -42.177377      49.059635      21.625925    
   3043000   294.73674      309.50866      288.13984     -45.555441      47.019404      21.368827    
   3044000   294.74248      316.30006      280.32522     -49.028849      48.595662      35.974844    
   3045000   292.63844      316.97307      280.90885     -47.995059      49.742238      36.064217    
   3046000   294.6428       319.21604      297.54271     -48.497462      46.709045      21.673332    
   3047000   295.26054      312.4279       277.34143     -51.076332      50.960363      35.086472    
   3048000   292.1882       325.72087      294.29557     -55.431383      50.378618      31.425303    
   3049000   293.76674      307.63981      284.90045     -55.298855      54.127689      22.739351    
   3050000   295.29474      301.0126       288.77679     -53.928027      55.745871      12.235811    
   3051000   294.41329      321.58         279.23237     -59.419253      60.213368      42.347629    
   3052000   293.63847      323.32748      291.14193     -65.248177      59.228329      32.185548    
   3053000   292.14955      311.13272      291.5036      -63.18898       61.745176      19.629125    
   3054000   294.79508      308.71777      292.44154     -61.953979      60.053093      16.276232    
   3055000   293.63628      303.60912      285.29734     -62.790793      61.009156      18.311776    
   3056000   292.21683      313.15906      277.52911     -62.888114      63.713247      35.629946    
   3057000   295.90765      315.66139      284.26894     -62.686235      63.362923      31.392448    
   3058000   292.82381      309.85096      269.08824     -62.731352      67.204761      40.762724    
   3059000   293.3269       314.39531      293.74493     -64.944223      66.135748      20.650385    
   3060000   294.09008      317.29843      293.74036     -65.697209      65.130069      23.558071    
   3061000   293.34718      316.69869      303.60995     -65.050849      65.665802      13.088736    
   3062000   296.35066      313.80755      293.77785     -65.679119      66.451226      20.0297      
   3063000   293.23786      309.48905      282.97389     -65.467855      69.007547      26.515156    
   3064000   292.03444      321.95786      281.27458     -68.754478      70.673032      40.683286    
   3065000   295.62553      317.20915      289.70489     -66.431284      70.665264      27.504256    
   3066000   294.40254      316.53554      278.18597     -66.812716      72.20781       38.349564    
   3067000   294.08896      315.14224      285.32449     -71.115517      72.200716      29.817751    
   3068000   295.14154      330.41101      295.64079     -74.108467      73.624716      34.770225    
   3069000   290.83583      305.69285      286.43208     -73.70512       76.381153      19.260765    
   3070000   293.77277      308.47105      287.63977     -70.845134      78.496384      20.831282    
   3071000   294.5833       310.3992       290.56915     -75.80298       79.425508      19.830052    
   3072000   293.619        307.11344      283.87435     -73.794018      79.429669      23.239098    
   3073000   291.28744      301.7841       278.346       -74.527391      80.425115      23.438105    
   3074000   293.31058      303.86127      283.27406     -75.481428      81.150529      20.587209    
   3075000   292.56483      312.20281      279.79845     -79.510093      83.215371      32.404359    
   3076000   295.60435      316.26829      291.11845     -77.371507      78.22548       25.149846    
   3077000   294.4211       330.22879      287.61335     -80.840983      80.847019      42.61544     
   3078000   290.39002      308.1091       284.18283     -80.52964       83.961915      23.926274    
   3079000   292.15094      306.70908      292.10477     -81.447946      82.830549      14.604307    
   3080000   292.22985      312.82329      285.62126     -82.059719      82.93047       27.202035    
   3081000   293.09933      312.60318      292.86796     -83.938842      84.798906      19.735222    
   3082000   293.50724      305.43403      301.16615     -82.613265      83.076897      4.2678787    
   3083000   291.8173       311.02074      289.45437     -85.714746      88.03046       21.566377    
   3084000   293.31948      322.87256      293.61629     -89.848591      87.746975      29.256276    
   3085000   293.66318      316.15894      286.49344     -89.495841      90.703791      29.665495    
   3086000   294.04955      311.99822      280.31878     -90.769455      92.026578      31.67944     
   3087000   292.26982      314.42392      274.77524     -88.663182      97.918766      39.648677    
   3088000   293.37473      306.17425      287.16663     -90.922719      93.973874      19.007619    
   3089000   293.77632      325.17087      275.7585      -94.722513      95.585828      49.412373    
   3090000   292.97953      315.52539      283.47576     -94.397887      95.741013      32.049628    
   3091000   293.30654      317.179        279.1072      -93.063213      98.430499      38.071799    
   3092000   295.60211      328.01661      301.95433     -96.862496      94.972568      26.062287    
   3093000   293.92691      315.91416      286.27134     -97.008023      98.02192       29.642824    
   3094000   293.27807      318.13206      279.97132     -95.188589      101.66964      38.160744    
   3095000   292.62013      310.6688       291.57503     -96.514328      98.730647      19.093773    
   3096000   292.72863      311.01574      293.98807     -97.377862      97.497146      17.027671    
   3097000   296.84978      318.97694      288.85684     -102.05461      101.58918      30.120102    
   3098000   294.18026      306.90657      294.99683     -101.91019      98.174644      11.909738    
   3099000   293.4017       320.05269      290.32712     -103.98036      102.41086      29.72557     
   3100000   292.3042       318.70954      278.137       -104.07717      103.85895      40.572536    
   3101000   293.28313      311.10739      280.39061     -106.94426      102.64766      30.716782    
   3102000   292.95958      309.66874      284.81868     -106.77751      105.80395      24.850054    
   3103000   293.35797      307.0769       293.95755     -105.01854      103.56227      13.119349    
   3104000   293.80106      315.94089      282.05505     -106.7922       107.25124      33.88584     
   3105000   293.87008      315.94689      300.07483     -106.36952      103.95915      15.872068    
   3106000   296.37814      317.45357      274.45576     -108.56037      108.34981      42.997805    
   3107000   295.20266      311.22841      299.2633      -109.92159      105.38107      11.965108    
   3108000   294.12189      311.35493      285.97675     -106.43898      109.3709       25.378176    
   3109000   293.14142      307.66506      284.42366     -109.27666      108.86714      23.241402    
   3110000   295.58031      330.88898      278.71079     -112.56184      110.10868      52.178189    
   3111000   293.81476      319.66906      280.15941     -113.41645      111.64108      39.509655    
   3112000   294.35607      309.89242      288.7002      -112.76583      111.97247      21.192219    
   3113000   291.23079      310.69746      280.75129     -113.50572      116.11785      29.946176    
   3114000   293.43887      315.80915      286.63859     -115.75179      112.51549      29.170565    
   3115000   294.87773      323.17134      287.4942      -115.38098      114.97086      35.677139    
   3116000   295.04477      324.5261       286.38158     -117.98528      116.76458      38.144522    
   3117000   291.05742      325.82056      281.22957     -114.19348      118.916        44.590989    
   3118000   294.04983      306.92101      295.90127     -115.34102      117.7941       11.019733    
   3119000   296.16324      315.62782      290.16472     -114.52613      118.85348      25.463105    
   3120000   294.2474       302.13084      286.51238     -117.4014       119.72317      15.618461    
   3121000   292.6087       311.64777      297.56311     -120.57872      117.45426      14.084657    
   3122000   292.97958      307.72166      286.5177      -118.50669      120.73857      21.20396     
   3123000   291.63511      304.86851      294.23603     -118.52323      121.8605       10.632478    
   3124000   291.19654      319.68644      280.86297     -122.6062       123.96151      38.823466    
   3125000   293.69215      310.97066      268.3851      -121.96666      126.50656      42.585565    
   3126000   293.97199      313.22115      301.843       -124.47172      122.99255      11.378145    
   3127000   292.19812      300.12978      268.57358     -122.88544      128.40893      31.556195    
   3128000   292.40876      299.69619      279.70446     -124.30146      128.69266      19.991732    
   3129000   292.06251      303.03323      286.3027      -121.03571      125.91981      16.730522    
   3130000   295.46754      330.40222      286.14217     -124.59723      125.38682      44.260049    
   3131000   293.55989      322.97848      270.78529     -125.38471      130.58084      52.193191    
   3132000   293.83543      320.62162      285.77383     -126.03775      126.86017      34.847794    
   3133000   289.28797      318.70904      277.52431     -125.51493      128.07868      41.184722    
   3134000   292.54827      305.01723      290.94846     -124.98387      129.22055      14.068769    
   3135000   293.68815      313.18077      284.10968     -127.94727      130.17599      29.071091    
   3136000   292.46461      312.13349      270.54738     -126.37306      131.5913       41.586102    
   3137000   292.81281      316.96445      281.54238     -129.25583      132.17633      35.422071    
   3138000   293.45745      319.60659      290.10172     -131.31254      132.92572      29.504867    
   3139000   292.19804      313.15596      277.43234     -129.84604      135.85943      35.723618    
   3140000   295.00003      319.35749      291.84832     -129.62646      133.27937      27.509172    
   3141000   292.52123      314.56147      285.95055     -131.84905      135.17123      28.610921    
   3142000   292.88542      316.03961      279.31224     -131.53684      137.22033      36.727363    
   3143000   294.10905      313.07817      293.73481     -134.18422      136.66639      19.343363    
   3144000   291.50588      325.98656      278.95127     -136.44775      139.33953      47.035291    
   3145000   291.98223      314.57916      277.87372     -135.03699      140.9666       36.705439    
   3146000   293.31795      305.48089      287.0863      -133.84369      138.21484      18.394591    
   3147000   292.67435      321.7069       289.28657     -136.55141      141.58814      32.420327    
   3148000   291.30244      309.00448      282.82695     -138.365        143.11162      26.177533    
   3149000   292.4408       311.08092      292.85646     -139.84263      144.91863      18.224458    
   3150000   292.90988      315.85061      291.6665      -139.68457      145.44624      24.184114    
   3151000   293.68635      318.99509      272.78732     -140.41351      145.90961      46.207769    
   3152000   291.65702      304.74199      282.42627     -141.03022      145.65538      22.315717    
   3153000   289.80228      310.64231      295.74073     -141.43305      148.77138      14.901581    
   3154000   294.5473       321.35693      281.40312     -144.37935      147.69448      39.953808    
   3155000   295.93795      311.28718      277.52336     -144.56655      147.07641      33.763821    
   3156000   292.98638      324.82215      279.7616      -145.07512      149.87344      45.060548    
   3157000   293.81009      313.42469      286.88583     -145.08268      149.34314      26.538858    
   3158000   291.85656      311.41815      285.7306      -146.64723      151.4787       25.687546    
   3159000   293.24989      315.97173      300.9366      -146.58152      152.06714      15.035133    
   3160000   291.33893      320.91791      278.30547     -147.89201      158.50014      42.61244     
   3161000   293.6809       314.97994      289.65803     -149.5602       155.84558      25.321906    
   3162000   292.37786      325.86405      286.06219     -150.39301      157.4148       39.801861    
   3163000   292.02875      323.99951      284.12887     -150.31922      157.78326      39.870636    
   3164000   289.02076      322.56619      275.41173     -151.80789      158.51176      47.154468    
   3165000   290.72545      304.14993      280.46213     -149.02966      160.18599      23.687801    
   3166000   289.01381      307.17164      282.1283      -152.17171      160.76812      25.043348    
   3167000   291.85236      317.97793      283.63214     -154.40711      163.90991      34.345789    
   3168000   292.9321       308.62946      287.85441     -153.47588      159.98035      20.775048    
   3169000   290.42277      310.34611      287.98386     -153.93746      163.61686      22.362245    
   3170000   290.46328      314.96767      288.20016     -158.1157       163.10575      26.76751     
   3171000   292.4955       315.12867      296.0198      -159.57449      163.589        19.108866    
   3172000   291.65826      322.01647      292.01216     -158.31399      167.12601      30.004302    
   3173000   293.0569       320.47377      280.51468     -160.77175      167.36655      39.959086    
   3174000   293.79555      309.00249      279.82297     -160.14346      169.33467      29.179525    
   3175000   292.20828      308.71142      288.6713      -161.85705      166.20613      20.040124    
   3176000   292.61204      321.53934      286.11211     -163.46064      169.67487      35.427232    
   3177000   293.28265      303.3467       280.47743     -163.07781      169.08298      22.869268    
   3178000   291.48399      296.87351      289.41376     -161.34537      168.18691      7.4597494    
   3179000   293.92864      320.67684      284.54922     -164.50864      170.98951      36.127615    
   3180000   294.2786       310.49898      285.1579      -166.36892      172.66067      25.341074    
   3181000   293.38896      319.40631      291.86626     -166.72838      172.62143      27.540044    
   3182000   293.33939      322.43391      279.60284     -168.67081      174.31963      42.831065    
   3183000   291.32324      306.75706      282.71565     -165.45758      175.81135      24.04141     
   3184000   294.35667      317.03743      289.89107     -167.83175      176.22851      27.146355    
   3185000   294.2352       328.7429       297.35614     -170.93839      172.28091      31.386765    
   3186000   294.01596      309.86091      283.33931     -172.47613      174.26406      26.521603    
   3187000   293.00196      317.93891      286.69        -172.82767      175.78115      31.248912    
   3188000   295.41496      325.03688      297.48296     -176.67587      174.74408      27.55392     
   3189000   293.11315      308.42393      293.07291     -175.08476      176.62104      15.35102     
   3190000   294.02278      312.2227       283.90256     -179.30174      178.60621      28.320144    
   3191000   291.8806       304.44966      281.09635     -175.09241      180.62146      23.353306    
   3192000   289.98476      316.13836      278.95269     -177.24417      179.88484      37.185676    
   3193000   294.57979      311.10563      290.40793     -179.52651      179.12989      20.697706    
   3194000   294.36714      311.3762       280.45535     -178.67932      182.9727       30.920853    
   3195000   293.66613      317.21209      290.08384     -180.7766       179.91136      27.128245    
   3196000   292.62596      305.56532      282.28829     -177.56009      183.37796      23.277027    
   3197000   293.99788      297.33761      294.04139     -175.79356      181.0716       3.2962209    
   3198000   293.4996       308.09277      282.85076     -181.22187      183.31368      25.242013    
   3199000   295.72529      306.86335      285.89774     -179.96807      182.19509      20.965608    
   3200000   293.54873      310.82076      292.7503      -181.7065       183.79261      18.070458    
   3201000   291.66114      312.00876      282.84005     -183.33634      186.61415      29.168704    
   3202000   291.27011      324.75273      274.12671     -185.63511      188.60014      50.626019    
   3203000   291.42738      320.08901      281.44315     -182.4986       190.29606      38.645855    
   3204000   291.83725      315.24894      281.19088     -186.00206      188.59986      34.058069    
   3205000   292.37211      308.39537      279.44235     -185.08709      190.6966       28.953011    
   3206000   292.08247      304.13637      279.56466     -186.68519      193.72705      24.571717    
   3207000   292.20805      312.39055      268.05854     -187.02694      195.16802      44.332008    
   3208000   293.38629      324.01956      288.97507     -188.31748      195.04164      35.044488    
   3209000   290.34712      321.44332      283.71472     -191.72173      198.09412      37.728598    
   3210000   293.75717      299.02831      284.44264     -189.38156      195.81834      14.585677    
   3211000   293.28574      329.03009      281.8458      -195.73597      198.36863      47.184289    
   3212000   292.953        307.01909      280.63764     -192.62055      196.51515      26.381448    
   3213000   295.23593      305.60319      281.1616      -195.58646      196.55639      24.441589    
   3214000   293.89813      317.3634       283.15376     -196.55265      197.6804       34.209643    
   3215000   293.79899      316.28958      293.00477     -196.86841      197.76127      23.284808    
   3216000   293.23981      318.07061      278.87023     -197.03561      200.95885      39.20038     
   3217000   294.25048      329.9043       288.51958     -199.78906      199.81525      41.384722    
   3218000   293.53156      332.17303      278.52935     -200.75065      201.38652      53.643679    
   3219000   293.14332      312.80958      286.50339     -202.65842      202.10547      26.306186    
   3220000   292.61242      318.3644       283.32617     -202.4699       204.01267      35.038228    
   3221000   293.738        319.6063       288.14296     -204.15049      204.72677      31.463346    
   3222000   296.47844      314.07146      297.86145     -203.70567      204.96306      16.210005    
   3223000   292.48769      326.14799      274.20596     -206.66684      208.42903      51.942033    
   3224000   292.54559      311.7937       286.53001     -204.22067      204.10416      25.26369     
   3225000   293.47129      321.39352      280.5112      -206.19542      208.53751      40.88232     
   3226000   294.45397      323.91413      293.17142     -209.07029      208.96761      30.742704    
   3227000   291.49643      307.36996      288.607       -205.985        211.93362      18.762967    
   3228000   293.46498      313.03963      272.01989     -209.73281      213.23132      41.019741    
   3229000   290.98656      307.11579      290.95605     -209.64778      213.00218      16.159744    
   3230000   293.00613      310.79057      276.61266     -212.54999      217.85743      34.177917    
   3231000   292.29338      310.57171      292.68149     -212.90593      214.49724      17.89022     
   3232000   293.61385      325.7906       270.75066     -218.55706      219.89799      55.039943    
   3233000   292.28581      319.94673      276.39907     -218.76192      222.07395      43.547665    
   3234000   292.17191      308.92108      290.93832     -217.39636      220.60631      17.982762    
   3235000   291.04785      304.21424      283.87533     -216.66224      221.68712      20.338907    
   3236000   293.92615      320.12683      284.72456     -219.56202      219.18784      35.402274    
   3237000   291.82877      310.3803       289.84914     -220.90615      222.25663      20.531164    
   3238000   292.94015      313.44418      269.0705      -218.5714       225.30285      44.373677    
   3239000   292.55083      294.02905      281.32221     -216.11298      224.00081      12.706835    
   3240000   292.43103      301.29124      292.8792      -217.235        222.7262       8.4120371    
   3241000   295.58133      306.34879      301.63674     -223.10663      217.42073      4.712046     
   3242000   293.19831      319.2021       270.22991     -226.69165      223.1922       48.972189    
   3243000   293.74909      302.3759       279.48204     -223.72113      222.92773      22.893856    
   3244000   295.189        310.62855      290.00154     -228.75994      222.57955      20.627013    
   3245000   293.33792      310.11184      286.83007     -229.89492      226.75605      23.281771    
   3246000   295.37316      316.82685      281.02294     -233.66437      228.26865      35.803906    
   3247000   295.29978      315.37799      291.16059     -229.39367      226.72889      24.217401    
   3248000   294.93535      304.67852      290.46615     -228.8458       227.99806      14.212367    
   3249000   295.84371      310.78708      285.1293      -232.314        229.38075      25.657784    
   3250000   295.23385      323.33587      287.6582      -233.79245      229.44192      35.677675    
   3251000   294.74378      338.81569      283.16974     -237.99959      232.39075      55.64595     
   3252000   295.07799      304.37129      279.99092     -231.11259      231.62393      24.380374    
   3253000   294.84043      314.69726      288.19861     -236.53878      233.76789      26.498653    
   3254000   292.65864      304.44491      289.38253     -234.48737      237.88058      15.062379    
   3255000   292.88398      307.89519      275.17593     -236.99276      240.81313      32.719252    
   3256000   294.9199       316.93613      287.48122     -236.74419      238.61431      29.454911    
   3257000   294.85465      319.56157      281.28144     -239.23318      240.24298      38.280125    
   3258000   294.76946      317.27041      289.62952     -237.77674      242.18324      27.640888    
   3259000   292.39695      303.25482      283.28087     -237.69738      242.93816      19.973943    
   3260000   294.73156      315.02678      282.41452     -241.62154      243.51513      32.612265    
   3261000   294.06643      305.97334      291.02252     -242.33985      242.60986      14.950828    
   3262000   294.19788      302.39892      282.5409      -242.3106       245.4913       19.858022    
   3263000   293.35708      306.90146      292.87483     -242.49012      244.50876      14.02663     
   3264000   293.39074      318.45311      289.33562     -245.71016      246.82914      29.11749     
   3265000   294.61539      319.96749      286.73467     -246.35688      246.19808      33.232824    
   3266000   291.86486      296.95523      301.30654     -246.76378      244.0389      -4.3513087    
   3267000   296.12933      332.1159       288.48805     -250.17724      246.6831       43.627851    
   3268000   296.02089      315.35614      292.31712     -249.34077      246.60316      23.039014    
   3269000   293.7195       314.17992      294.30197     -248.29719      245.84682      19.877949    
   3270000   292.80342      305.71543      277.19303     -248.93972      249.47216      28.522395    
   3271000   294.21972      316.53561      281.5172      -252.25257      247.35658      35.018413    
   3272000   294.83284      308.67709      303.074       -250.58451      249.17078      5.603094     
   3273000   294.88546      318.41147      297.44705     -253.86067      248.02786      20.96442     
   3274000   293.17241      302.93526      271.2431      -253.07179      255.18078      31.692164    
   3275000   294.3436       324.62557      283.56452     -254.16176      253.84565      41.061056    
   3276000   296.58608      321.70164      284.08398     -258.42015      253.40814      37.617657    
   3277000   293.45062      316.48724      278.40307     -256.06178      252.03191      38.084173    
   3278000   295.1348       313.59534      280.80415     -256.27654      257.14874      32.791197    
   3279000   294.57863      306.20397      280.11322     -254.33073      255.19535      26.090752    
   3280000   294.07496      308.58628      284.85285     -257.59415      255.56372      23.73343     
   3281000   294.35998      321.427        288.5494      -257.67267      254.49525      32.877597    
   3282000   292.24862      314.36444      292.82582     -257.63566      256.62629      21.538616    
   3283000   292.3704       317.00979      292.30127     -259.13511      256.54872      24.708514    
   3284000   294.16434      310.52642      289.68049     -259.24676      258.2583       20.845932    
   3285000   292.62749      316.55607      288.52519     -260.26441      257.08886      28.030876    
   3286000   294.09801      304.36093      296.53099     -258.33283      260.32411      7.82994      
   3287000   292.63958      319.1429       281.22434     -259.61687      265.65463      37.918557    
   3288000   292.24216      315.08288      278.05281     -260.04562      263.76934      37.030074    
   3289000   293.97896      328.28851      296.58919     -264.63063      264.70066      31.699323    
   3290000   294.67366      321.10816      290.74205     -263.34649      263.47909      30.366112    
   3291000   290.46891      314.41453      267.41243     -264.81993      268.52727      47.002101    
   3292000   294.90578      328.3002       275.04702     -264.01268      268.62916      53.253178    
   3293000   293.58138      309.67372      284.51903     -261.39186      263.73049      25.154689    
   3294000   293.42677      306.93126      288.21343     -267.26565      262.51136      18.717828    
   3295000   295.41703      321.39558      292.25424     -269.64451      261.06543      29.141344    
   3296000   293.47117      316.58599      281.04222     -269.66763      262.23203      35.543769    
   3297000   292.49987      320.1444       279.37038     -269.35158      266.23697      40.774016    
   3298000   294.68175      305.66087      295.93793     -267.58558      264.11396      9.7229392    
   3299000   295.94482      320.09807      285.52244     -272.41508      264.00169      34.575628    
   3300000   295.77986      307.59873      293.36942     -272.25024      266.84935      14.229309    
   3301000   295.57511      314.5701       283.658       -276.51992      269.51117      30.912096    
   3302000   296.8768       328.22175      281.95902     -282.08387      270.44461      46.262732    
   3303000   295.96         307.03716      270.83843     -279.85391      271.42991      36.198729    
   3304000   295.07124      295.78975      283.05311     -280.90848      271.02765      12.736634    
   3305000   296.66985      311.1115       292.91545     -282.52003      271.92631      18.196043    
   3306000   295.32442      313.17906      270.04852     -283.42089      278.57665      43.130538    
   3307000   295.4279       318.03204      289.34779     -285.17332      275.47619      28.684248    
   3308000   295.37195      308.26279      286.53888     -284.02864      275.25322      21.723906    
   3309000   295.66369      325.34549      278.63753     -286.65856      280.73838      46.707958    
   3310000   296.37835      319.38251      284.54587     -286.20764      278.87361      34.836647    
   3311000   294.13576      318.99004      279.1485      -291.6566       281.81809      39.841539    
   3312000   293.23287      316.19522      285.80935     -291.28925      280.45493      30.385867    
   3313000   295.34834      320.06345      286.49066     -292.31599      283.26955      33.572782    
   3314000   294.56415      306.8218       281.78405     -288.16379      281.38087      25.037754    
   3315000   296.93818      312.10654      291.36685     -289.71539      280.41022      20.739685    
   3316000   294.59983      317.37961      284.64715     -291.50508      282.66185      32.73246     
   3317000   297.47508      302.43428      277.57691     -289.40956      283.39813      24.857364    
   3318000   295.33883      319.03572      288.77191     -291.30471      284.93274      30.263808    
   3319000   292.99936      318.66571      285.08478     -291.90776      285.01316      33.58093     
   3320000   295.37976      314.53295      289.08092     -293.20934      284.9325       25.452025    
   3321000   296.54046      323.26436      301.33692     -297.36479      285.70287      21.927433    
   3322000   296.37604      312.44963      293.62955     -297.35134      285.91045      18.820081    
   3323000   293.05867      307.4143       285.50752     -294.31885      289.03747      21.906782    
   3324000   297.09216      333.57234      283.3914      -301.06542      288.80979      50.180946    
   3325000   294.97828      321.47964      288.27406     -298.50331      290.79543      33.205581    
   3326000   295.97419      320.38953      296.74619     -299.3141       289.43174      23.643342    
   3327000   295.05865      295.5091       276.81123     -298.18322      291.97758      18.697873    
   3328000   296.0754       298.25703      289.74102     -300.63052      292.04043      8.5160078    
   3329000   297.3122       316.21951      289.84376     -303.47259      293.23905      26.375745    
   3330000   294.18162      312.43009      281.16059     -302.33098      297.03901      31.269495    
   3331000   294.58783      317.79133      275.66225     -305.43054      296.41555      42.129082    
   3332000   294.63416      309.46134      281.16219     -304.44761      298.44523      28.299152    
   3333000   292.76873      305.11323      284.41541     -306.00038      304.67745      20.69782     
   3334000   295.59497      309.34384      299.11426     -307.01785      300.03412      10.229582    
   3335000   294.78652      312.76048      290.15168     -308.75913      300.21529      22.608794    
   3336000   294.9119       321.70936      291.36079     -306.90889      301.46068      30.348568    
   3337000   292.00767      312.41385      278.96931     -306.25593      305.69927      33.444545    
   3338000   293.44073      312.59014      278.69066     -309.12343      307.43947      33.899474    
   3339000   292.85848      305.44623      279.19496     -308.31571      306.34521      26.25127     
   3340000   293.18471      308.77949      271.47942     -312.63027      309.43736      37.300073    
   3341000   294.17061      305.76901      291.00167     -311.91436      308.42406      14.76733     
   3342000   297.91756      325.58612      292.75325     -316.03694      309.42336      32.832874    
   3343000   294.3279       316.93296      276.88579     -313.51524      312.6211       40.047168    
   3344000   291.6241       309.53634      288.68993     -313.61467      313.18625      20.84641     
   3345000   296.16184      318.16647      286.08422     -315.40329      314.5306       32.082248    
   3346000   295.76262      317.96918      280.67667     -315.88557      314.42326      37.29251     
   3347000   291.63891      307.77821      281.39795     -315.20084      313.86117      26.380264    
   3348000   296.94089      317.86798      284.60803     -317.67929      314.16064      33.259956    
   3349000   292.79924      305.38882      278.41743     -318.37661      314.61821      26.971398    
   3350000   296.94396      315.20579      312.0237      -319.76826      310.37182      3.1820915    
   3351000   294.81275      308.00613      277.51193     -320.73119      317.39513      30.494199    
   3352000   296.35065      320.70049      277.60572     -322.30845      318.05067      43.094765    
   3353000   293.53633      309.92656      287.57895     -321.68364      317.56584      22.347615    
   3354000   294.21904      323.12722      280.4871      -325.64884      319.08031      42.640128    
   3355000   294.22677      313.91148      282.13333     -322.75507      319.88475      31.778152    
   3356000   294.0541       314.19089      270.91769     -326.71663      324.40589      43.273201    
   3357000   295.59472      321.76356      286.88672     -327.89004      324.79194      34.876845    
   3358000   294.99002      306.36811      282.1257      -329.63257      323.35332      24.242415    
   3359000   294.66396      322.50072      285.41338     -333.24584      321.44015      37.087337    
   3360000   297.21165      321.03248      290.57707     -332.67369      322.30344      30.45541     
   3361000   296.02366      316.74572      279.28335     -333.40335      324.29367      37.462369    
   3362000   295.29185      326.53823      293.87886     -334.48704      322.05832      32.659368    
   3363000   296.8323       311.18852      292.62947     -333.04986      322.96151      18.559057    
   3364000   295.95597      300.1146       293.67854     -334.08107      324.9641       6.4360648    
   3365000   296.07786      330.77113      271.76889     -337.47595      331.44276      59.002241    
   3366000   294.68297      304.8484       290.43111     -334.25984      330.16588      14.417288    
   3367000   295.80696      318.08724      300.2017      -337.14597      332.13998      17.885541    
   3368000   294.62593      306.66112      268.87874     -335.96046      334.91805      37.782379    
   3369000   295.61309      325.02092      288.43665     -341.11969      336.19451      36.58427     
   3370000   291.57475      294.62384      277.91167     -337.00447      340.15504      16.712175    
   3371000   293.73092      312.10897      291.42732     -341.05403      338.06167      20.681646    
   3372000   296.23739      308.53355      289.6004      -340.05329      338.72319      18.933148    
   3373000   294.08442      306.58107      287.44554     -343.18591      340.64529      19.135533    
   3374000   294.08257      324.65744      281.00273     -344.45149      338.47099      43.654715    
   3375000   293.89531      309.73725      272.3641      -344.73054      339.5958       37.373153    
   3376000   297.65964      323.59086      284.12123     -348.71577      337.89545      39.469632    
   3377000   295.70568      307.09644      281.96087     -346.506        338.77464      25.135565    
   3378000   294.60611      314.35472      285.28762     -349.35667      339.78237      29.067099    
   3379000   296.80586      320.09077      290.47624     -353.0094       340.07125      29.614534    
   3380000   294.99704      319.08458      270.86645     -350.84766      342.21019      48.218134    
   3381000   297.35306      317.63455      289.8315      -355.7108       337.94946      27.803048    
   3382000   295.66306      321.61314      279.27394     -354.55544      343.17911      42.3392      
   3383000   296.47795      314.42005      298.07223     -356.64397      340.38038      16.347822    
   3384000   294.99349      308.67451      280.71787     -356.88449      341.80668      27.956646    
   3385000   295.97513      306.16645      278.14216     -355.95531      341.84694      28.024285    
   3386000   296.81582      310.21318      285.162       -358.04461      344.7575       25.051184    
   3387000   295.12858      327.20202      287.14106     -359.93615      347.33043      40.060958    
   3388000   296.41739      306.01677      307.47301     -359.49619      347.07879     -1.4562431    
   3389000   295.13656      322.22391      283.39471     -363.34656      347.90593      38.829201    
   3390000   294.30944      304.98557      282.83857     -360.93914      352.67262      22.147001    
   3391000   293.95324      306.37511      299.16697     -359.58497      350.84965      7.2081395    
   3392000   293.27374      313.08284      281.02896     -363.04325      351.12011      32.053885    
   3393000   296.87302      311.33747      281.42253     -364.65856      352.09037      29.914945    
   3394000   295.73539      316.22922      299.52964     -360.49781      350.04823      16.699575    
   3395000   294.19169      316.86801      288.25331     -362.27558      350.75171      28.614706    
   3396000   293.52249      312.30611      282.54534     -362.85405      353.1804       29.760773    
   3397000   297.05841      304.43633      297.30382     -363.05361      353.2076       7.1325084    
   3398000   293.99268      311.69341      284.69792     -364.10953      356.36443      26.995494    
   3399000   294.96413      313.76307      294.44932     -364.92133      357.10626      19.313746    
   3400000   294.51489      297.93484      280.96652     -361.64994      357.88366      16.968317    
   3401000   294.97762      320.5208       282.25839     -365.45247      360.32567      38.262412    
   3402000   296.17691      329.36921      292.69115     -371.45216      359.52781      36.678063    
   3403000   293.12838      307.4568       287.63912     -368.1412       363.3215       19.81768     
   3404000   294.16066      299.63489      289.54484     -365.97885      363.31902      10.090054    
   3405000   295.87931      321.33729      277.01164     -372.49224      364.24048      44.325648    
   3406000   296.14833      323.49505      284.00232     -374.93425      364.05285      39.492725    
   3407000   297.32826      334.66505      286.35849     -376.07082      366.06797      48.306559    
   3408000   292.66636      297.39117      275.34431     -371.06765      367.93404      22.046866    
   3409000   295.40428      319.40769      271.22737     -371.45851      368.24226      48.180326    
   3410000   294.26614      308.46297      298.61533     -371.85375      367.44752      9.8476422    
   3411000   295.83072      320.44347      287.38289     -373.54054      369.28841      33.060577    
   3412000   294.11339      318.22972      288.33311     -373.4381       366.63306      29.896612    
   3413000   294.36901      317.30471      279.85363     -373.87259      370.05241      37.451088    
   3414000   297.54947      336.26844      284.90646     -377.41251      366.03844      51.361977    
   3415000   295.3215       310.93752      286.63372     -370.67695      367.1364       24.303803    
   3416000   294.72788      316.10482      293.29304     -370.20059      366.96173      22.811781    
   3417000   294.84392      297.30589      283.68357     -367.53237      368.3456       13.622316    
   3418000   295.87554      323.57144      290.44327     -373.30857      369.35103      33.128169    
   3419000   294.24446      305.81111      284.68802     -375.09316      368.63396      21.123098    
   3420000   295.06498      306.213        289.19373     -372.02718      368.52183      17.019272    
   3421000   294.2602       324.10392      271.68392     -376.97438      371.83687      52.419993    
   3422000   294.23473      326.95167      284.42635     -376.37997      370.5017       42.52532     
   3423000   295.5272       326.70153      280.13032     -383.2541       371.93862      46.571219    
   3424000   294.77927      325.10316      272.11219     -386.12211      373.26917      52.990968    
   3425000   295.3162       298.4874       280.39011     -382.27323      371.32399      18.097294    
   3426000   295.89976      332.82223      284.96476     -388.07532      376.74061      47.857473    
   3427000   295.10637      314.53198      296.2214      -385.5415       370.84298      18.310584    
   3428000   297.84816      316.2712       285.44778     -388.60212      374.60168      30.823415    
   3429000   296.53875      319.08108      268.0162      -389.21314      376.45533      51.064879    
   3430000   295.06455      319.06037      285.48932     -387.61235      375.79419      33.571057    
   3431000   296.60058      298.56229      283.436       -384.96901      375.75501      15.126285    
   3432000   294.44158      305.2346       281.47503     -388.41212      377.35863      23.759566    
   3433000   295.21213      300.00189      289.93417     -386.51566      376.1151       10.067728    
   3434000   295.09284      322.07372      269.1678      -388.88626      379.60885      52.905916    
   3435000   295.7225       312.16088      280.94242     -389.54522      378.01721      31.218453    
   3436000   297.15453      318.55132      282.22735     -390.03159      382.73159      36.323967    
   3437000   297.47537      307.90279      291.3296      -389.72497      380.85853      16.573195    
   3438000   296.59835      317.69727      299.64367     -392.26969      380.31642      18.053603    
   3439000   294.71276      312.9107       275.22908     -393.44829      385.35519      37.681623    
   3440000   294.17647      315.31257      289.77557     -396.63329      384.24227      25.536999    
   3441000   291.64245      303.66132      272.6213      -394.67106      390.61116      31.040016    
   3442000   295.51284      319.61076      285.83401     -396.74268      388.00165      33.776746    
   3443000   294.82481      324.24883      295.57282     -398.57947      387.44623      28.676017    
   3444000   291.95693      321.75919      279.9091      -398.85488      389.98934      41.850092    
   3445000   293.57917      312.12927      284.74521     -398.93788      389.80385      27.38406     
   3446000   295.77253      330.79366      280.87504     -399.23783      393.68886      49.918617    
   3447000   294.26677      316.95219      287.54154     -398.22393      392.79703      29.41065     
   3448000   294.00995      307.23351      274.50855     -399.10904      398.73775      32.724957    
   3449000   294.99751      318.46549      285.84772     -400.6541       397.11809      32.617771    
   3450000   292.98592      313.74815      277.00587     -402.08484      400.59482      36.74228     
   3451000   296.15778      310.28655      275.34899     -402.74494      399.49529      34.937565    
   3452000   293.00487      307.45614      285.23497     -403.71215      399.21149      22.221162    
   3453000   293.86421      313.42086      272.30646     -404.20308      403.60163      41.114399    
   3454000   294.31137      324.45889      290.19617     -405.25691      399.57546      34.262719    
   3455000   294.334        323.47824      280.19483     -409.33726      401.60754      43.283404    
   3456000   294.92259      314.78148      292.02399     -408.26232      401.6549       22.757498    
   3457000   295.82733      318.40346      287.18552     -409.29764      401.05319      31.217939    
   3458000   296.76492      331.91009      291.54106     -409.95494      403.62592      40.369033    
   3459000   293.33875      315.39088      278.4741      -407.57039      405.18898      36.916782    
   3460000   291.93793      308.27772      284.40796     -406.03618      406.81701      23.869762    
   3461000   293.70195      308.80196      281.42804     -408.20223      406.78422      27.373919    
   3462000   297.39763      319.77218      298.8962      -410.66829      404.00702      20.875973    
   3463000   296.17125      321.87111      284.98679     -410.01002      404.95113      36.884315    
   3464000   294.91424      317.59043      282.67433     -410.52517      403.31901      34.916097    
   3465000   293.34982      301.77532      274.0811      -409.42646      404.51935      27.694223    
   3466000   292.60675      320.98953      275.84116     -413.35293      403.10631      45.148365    
   3467000   296.85526      326.0503       292.21636     -415.32072      404.75229      33.833947    
   3468000   295.66973      311.94923      290.96909     -411.9843       404.55803      20.980136    
   3469000   297.78989      323.2058       285.90238     -413.69431      406.66447      37.303422    
   3470000   295.30317      333.63402      277.71727     -417.42913      409.25011      55.91675     
   3471000   295.79127      327.38009      295.63947     -417.01691      407.40616      31.740621    
   3472000   296.98542      328.48417      284.34327     -420.62597      410.15572      44.140898    
   3473000   296.43082      316.14473      287.38172     -416.99302      410.59872      28.763014    
   3474000   293.73224      313.80207      273.26522     -417.03084      413.79738      40.536846    
   3475000   295.2341       312.22833      284.66284     -419.30314      412.64128      27.565486    
   3476000   295.64478      321.63403      284.93166     -424.06538      414.64232      36.702374    
   3477000   294.29687      309.91844      287.89809     -423.34064      414.97655      22.020345    
   3478000   295.056        314.24394      284.50245     -424.09062      414.64641      29.741492    
   3479000   295.12175      309.86982      279.55969     -425.13075      415.66847      30.310125    
   3480000   295.97477      304.90986      286.79946     -423.88417      417.26724      18.110405    
   3481000   292.95877      304.97325      286.18112     -424.84614      417.5666       18.792132    
   3482000   297.32547      324.07783      280.42544     -430.46906      418.83671      43.652395    
   3483000   294.73692      315.43956      298.70525     -428.35543      418.95225      16.734314    
   3484000   294.93248      312.55174      293.65225     -432.06341      420.30828      18.899493    
   3485000   297.27742      308.18222      294.2612      -431.21358      420.15332      13.92102     
   3486000   295.28119      320.9312       290.52462     -431.54407      421.67035      30.406579    
   3487000   294.03152      329.32359      269.23625     -431.31133      425.09623      60.08734     
   3488000   296.00327      309.21834      274.41897     -433.51014      422.92403      34.799374    
   3489000   297.14341      314.72286      289.44711     -433.40359      421.72115      25.275755    
   3490000   298.72498      326.60311      280.61873     -438.02391      422.19963      45.984376    
   3491000   297.06139      323.58366      288.71047     -439.65933      424.34291      34.873197    
   3492000   297.60272      325.73402      299.35907     -440.7016       423.93271      26.37495     
   3493000   296.82393      318.83057      291.35033     -441.01811      426.48188      27.480239    
   3494000   296.55608      303.27392      278.37109     -439.45165      431.23733      24.90283     
   3495000   295.7116       309.60687      280.3125      -440.63855      431.20604      29.294371    
   3496000   296.5187       319.8585       280.62931     -444.33311      431.00761      39.229193    
   3497000   296.94017      306.18301      287.96234     -440.72938      432.66883      18.220672    
   3498000   295.91539      307.94825      278.19065     -442.57504      433.06843      29.757607    
   3499000   299.77674      319.2061       287.20589     -448.06097      433.13592      32.000205    
   3500000   295.35006      305.35555      281.19575     -446.20801      434.65028      24.159801    
   3501000   294.03386      313.24514      288.288       -447.92845      437.00871      24.957135    
   3502000   292.7524       307.36464      278.26045     -446.5713       439.30138      29.104192    
   3503000   295.96042      306.40138      289.13909     -444.59178      435.22006      17.262295    
   3504000   296.29172      323.33165      299.11042     -447.94603      433.88934      24.22123     
   3505000   294.14965      314.54861      288.50027     -451.72651      440.03076      26.048338    
   3506000   298.24141      321.22306      289.76508     -449.56937      440.9638       31.457983    
   3507000   295.74763      315.26043      296.63258     -451.81246      439.58939      18.627852    
   3508000   293.82421      317.52909      291.59465     -453.97699      441.96205      25.934435    
   3509000   294.88167      306.33403      290.19172     -452.71471      443.59893      16.142307    
   3510000   296.95735      320.90067      297.75139     -454.21542      442.86565      23.149278    
   3511000   296.64682      310.09547      297.80391     -454.48608      444.34852      12.291555    
   3512000   296.31294      323.80742      289.68948     -459.25781      447.10407      34.117935    
   3513000   295.95802      314.5496       293.34233     -460.35872      449.51381      21.207266    
   3514000   296.57475      318.77358      285.6094      -458.93591      451.09027      33.164183    
   3515000   297.74373      321.52172      303.57267     -461.24996      447.70951      17.949043    
   3516000   295.09237      306.66891      289.93884     -462.30465      451.0875       16.730077    
   3517000   294.56311      314.84066      275.50935     -463.44147      453.15096      39.331319    
   3518000   295.31869      302.1247       285.23164     -460.12125      453.65545      16.893054    
   3519000   295.21828      308.23238      280.98356     -465.3482       454.16284      27.248821    
   3520000   294.11722      312.08543      275.94727     -465.4193       455.88994      36.138163    
   3521000   295.78066      316.15523      290.27589     -468.34505      452.81877      25.879335    
   3522000   294.46837      309.97317      279.80157     -466.21509      454.61252      30.171602    
   3523000   296.17623      322.05483      290.43379     -468.96154      453.71371      31.621032    
   3524000   296.64954      308.09105      283.35023     -467.92259      458.89348      24.740821    
   3525000   293.81749      303.35151      278.26662     -467.96136      455.99944      25.084892    
   3526000   295.74384      303.92657      295.40328     -469.85418      457.63925      8.5232968    
   3527000   298.73029      327.39216      288.02627     -474.88486      460.86573      39.365888    
   3528000   296.53547      339.49069      294.99361     -479.91013      459.01334      44.497081    
   3529000   296.88382      302.6545       287.07723     -477.615        463.20183      15.577269    
   3530000   295.08395      314.35436      284.13249     -476.40683      462.43218      30.221871    
   3531000   296.73003      315.66903      293.9701      -478.44546      462.70016      21.698927    
   3532000   295.15991      313.71948      285.52282     -474.62783      467.20311      28.196656    
   3533000   295.28181      307.56943      291.06504     -474.55951      465.80111      16.504393    
   3534000   295.65686      323.55314      290.91954     -480.67622      464.83067      32.633605    
   3535000   293.44175      308.91337      276.53303     -477.72483      471.45231      32.380337    
   3536000   297.40257      333.80726      286.56121     -481.59446      473.39158      47.246051    
   3537000   294.17351      317.82254      282.09928     -479.20052      472.29342      35.723261    
   3538000   294.95728      316.41612      295.22593     -479.18417      469.97833      21.190183    
   3539000   293.30843      314.27614      273.38276     -479.79881      475.37934      40.893371    
   3540000   293.45343      302.26286      293.483       -479.09691      474.50974      8.779869     
   3541000   295.32997      325.41236      280.4708      -482.41605      471.36329      44.941561    
   3542000   294.8653       313.79096      274.15399     -481.36327      474.71924      39.636966    
   3543000   294.28286      313.33176      293.71061     -482.67412      476.28488      19.621151    
   3544000   294.28553      319.75524      275.49138     -484.02937      478.07207      44.263862    
   3545000   296.43077      315.64754      290.47899     -483.4094       475.01748      25.16855     
   3546000   293.90808      318.15812      275.13858     -484.7214       477.32162      43.019546    
   3547000   295.90584      296.83442      286.82269     -482.46183      476.48582      10.01173     
   3548000   293.74713      313.36318      280.06735     -485.7198       478.35865      33.295832    
   3549000   296.93737      321.43792      288.55084     -488.59096      475.87096      32.887076    
   3550000   296.51565      327.91639      293.43756     -486.98393      475.63954      34.478836    
   3551000   294.00736      308.12074      282.95159     -486.82258      479.28221      25.169142    
   3552000   294.48685      325.18939      284.62052     -488.74991      479.17435      40.568876    
   3553000   293.75156      313.53151      296.9258      -487.60106      477.81981      16.605708    
   3554000   296.38493      302.68442      286.47092     -488.8241       483.15286      16.213502    
   3555000   294.82634      306.56459      292.39833     -487.22725      482.61386      14.166263    
   3556000   294.90943      313.88235      277.59453     -491.28569      484.95881      36.287812    
   3557000   294.9392       313.1537       279.24576     -491.12001      485.54199      33.907945    
   3558000   293.94786      322.5608       293.75578     -490.56574      485.7598       28.805019    
   3559000   294.15852      306.1591       295.46063     -488.98823      483.67106      10.698464    
   3560000   295.14771      309.50857      292.29082     -492.88895      485.31971      17.217755    
   3561000   298.29194      331.91753      285.41702     -498.0602       489.05929      46.500513    
   3562000   294.66758      307.12109      282.05021     -495.9156       490.92273      25.070878    
   3563000   294.58188      308.63591      291.92533     -496.95065      488.56812      16.71058     
   3564000   291.93195      326.476        266.87598     -497.05899      493.16777      59.600019    
   3565000   294.49153      307.942        293.65565     -496.50258      488.35606      14.286349    
   3566000   295.76682      322.63235      291.64442     -499.30863      492.66776      30.987933    
   3567000   296.07949      319.55642      274.63501     -500.50246      493.53292      44.921413    
   3568000   294.39748      308.45371      285.40561     -498.02222      492.4519       23.048103    
   3569000   292.47975      320.17817      289.18509     -498.51816      494.34368      30.993089    
   3570000   294.78751      319.06121      282.94282     -496.69749      496.28887      36.118391    
   3571000   292.23628      313.71236      283.72927     -497.92767      495.85792      29.983088    
   3572000   294.96864      322.7568       297.55592     -500.45167      495.45098      25.200878    
   3573000   292.08214      305.85417      283.68146     -496.88557      500.38963      22.172707    
   3574000   294.01087      313.53787      283.54866     -498.70484      499.29451      29.989207    
   3575000   293.15336      304.78586      277.84121     -502.50386      499.6379       26.944647    
   3576000   292.40162      310.71119      276.70704     -501.33749      502.18844      34.004157    
   3577000   295.63336      316.82172      283.77744     -504.21455      504.07121      33.044278    
   3578000   291.13794      306.07137      279.09042     -501.71551      504.01223      26.980958    
   3579000   293.88377      307.25007      283.48506     -504.66642      505.20299      23.765011    
   3580000   293.93365      309.23635      288.4196      -506.12007      506.6136       20.816744    
   3581000   292.02274      307.61544      295.03279     -505.41904      505.33948      12.582649    
   3582000   294.09911      320.45641      271.9688      -513.98412      508.72875      48.48761     
   3583000   294.01739      334.29664      273.30929     -513.94438      511.60782      60.987351    
   3584000   294.1024       310.20729      277.22131     -512.82526      512.25074      32.985974    
   3585000   292.84162      314.47637      293.58038     -514.19746      510.35489      20.895999    
   3586000   293.33399      318.2842       278.1184      -513.7666       512.74551      40.165801    
   3587000   294.18044      317.15647      276.21703     -515.75002      514.66603      40.939442    
   3588000   294.29947      300.68634      280.61103     -513.24733      514.09194      20.075306    
   3589000   292.95149      315.47433      276.25591     -516.56055      516.8468       39.218416    
   3590000   293.4382       319.70387      285.56196     -516.60459      513.89304      34.14191     
   3591000   295.4239       324.5898       286.39337     -519.84281      515.03728      38.196427    
   3592000   294.30013      319.18068      296.65511     -521.08792      516.79185      22.525565    
   3593000   293.4471       317.55906      278.00479     -520.19636      517.13307      39.55427     
   3594000   295.44563      308.86847      285.69242     -519.80626      519.48548      23.17605     
   3595000   295.14407      316.57139      289.88443     -521.71353      518.99534      26.686963    
   3596000   295.28917      322.93176      282.14624     -522.47497      519.76192      40.78552     
   3597000   293.65836      306.40879      280.07696     -522.67814      520.70612      26.331826    
   3598000   294.53991      319.1876       285.24692     -526.15317      522.17109      33.940678    
   3599000   293.88095      301.41759      282.62062     -521.46096      523.52719      18.796963    
   3600000   292.91224      318.69803      275.65013     -523.3753       525.4041       43.047893    
   3601000   294.64948      307.69941      290.40904     -522.93291      523.54745      17.290361    
   3602000   292.09423      313.14347      286.56249     -526.9912       522.93065      26.580975    
   3603000   293.76795      307.99587      303.97563     -525.60847      524.14737      4.0202377    
   3604000   292.36935      307.0062       279.60962     -526.58566      526.66719      27.396583    
   3605000   292.14958      297.7214       275.5928      -526.36475      530.60443      22.128601    
   3606000   294.4896       318.57307      275.84865     -530.17051      531.82298      42.72442     
   3607000   293.46536      301.91396      291.091       -528.23116      528.23939      10.82296     
   3608000   293.97865      315.28151      282.90381     -531.73932      529.1053       32.37771     
   3609000   294.78132      300.69441      291.83194     -530.91333      527.09476      8.8624629    
   3610000   292.21931      313.6654       293.19764     -535.12582      530.80592      20.467754    
   3611000   295.8887       314.76126      289.06419     -532.89314      531.67006      25.697071    
   3612000   294.62548      321.55402      291.40044     -534.38337      531.89581      30.153584    
   3613000   292.86553      319.89249      287.00261     -537.29793      534.24448      32.889885    
   3614000   291.75883      300.17943      281.61965     -534.41785      535.99998      18.55978     
   3615000   296.27838      309.95266      275.99987     -536.628        536.32577      33.952781    
   3616000   295.26954      309.81213      282.61026     -536.8257       539.6386       27.201874    
   3617000   293.29385      295.99396      296.45999     -535.74305      534.99515     -0.46602984   
   3618000   293.27826      315.01872      290.45695     -538.78134      540.13536      24.561767    
   3619000   293.08505      320.21743      290.93914     -543.0626       538.55042      29.278293    
   3620000   293.05765      303.03873      279.94769     -542.45156      539.52767      23.091041    
   3621000   294.21327      306.96554      282.74551     -545.88125      541.6441       24.220027    
   3622000   293.88295      308.0217       270.96479     -545.83389      542.7742       37.056904    
   3623000   294.78886      318.75416      286.23311     -547.84926      541.90159      32.521055    
   3624000   295.21305      308.8978       287.28105     -548.27468      544.51241      21.616749    
   3625000   296.31874      316.59877      293.49053     -548.72284      543.29132      23.10824     
   3626000   293.58909      320.30646      280.20167     -550.89597      545.44043      40.104793    
   3627000   293.78546      326.14527      281.17269     -549.60975      545.98158      44.972586    
   3628000   293.11692      315.85942      284.86636     -550.65418      546.13818      30.99306     
   3629000   295.07897      309.20083      290.60888     -552.61972      547.94675      18.591943    
   3630000   295.9841       312.60517      287.20532     -554.19114      547.55211      25.399852    
   3631000   291.94248      303.77803      278.00724     -551.09916      551.62387      25.770788    
   3632000   296.00656      327.95041      279.52574     -555.40235      548.50961      48.424673    
   3633000   293.30693      307.49301      297.94108     -556.63079      548.43495      9.551935     
   3634000   293.37487      308.46273      278.06434     -554.81821      552.68185      30.39839     
   3635000   295.8056       318.15808      284.49231     -557.01224      554.99395      33.66577     
   3636000   293.99319      311.71296      289.01685     -558.74576      554.10708      22.696119    
   3637000   296.49778      332.05478      285.66276     -562.06029      553.01788      46.392028    
   3638000   293.69357      327.18059      278.18339     -559.98204      556.18281      48.997194    
   3639000   293.11493      311.54607      283.84014     -560.88599      556.62976      27.70593     
   3640000   297.98785      323.25028      287.51544     -565.96421      556.74888      35.734833    
   3641000   293.93465      314.26845      287.33187     -563.05136      556.84718      26.936583    
   3642000   293.76004      329.83173      280.4771      -565.40607      560.16184      49.354629    
   3643000   296.25047      314.38275      284.10037     -563.05716      558.88887      30.282374    
   3644000   294.88912      320.84231      281.85677     -565.80566      560.04938      38.985546    
   3645000   296.6866       319.46726      299.82361     -568.37988      556.78712      19.643651    
   3646000   293.9677       293.68376      288.36676     -563.50587      560.06861      5.3170024    
   3647000   294.08444      310.73858      276.77818     -566.87511      561.63702      33.960409    
   3648000   295.22583      315.76683      283.22997     -566.30212      561.25714      32.536856    
   3649000   291.91877      321.84554      284.06217     -569.4624       563.50621      37.783369    
   3650000   294.29247      328.068        282.34145     -571.61208      562.51913      45.726548    
   3651000   296.70037      312.88585      283.15906     -571.78282      564.35373      29.726789    
   3652000   295.16478      311.7682       276.08747     -570.29785      566.26652      35.680728    
   3653000   293.12363      321.63997      277.73711     -571.57796      567.4322       43.902861    
   3654000   294.42632      312.82018      287.37689     -570.24428      568.29653      25.443289    
   3655000   295.95698      319.85332      292.78399     -574.31503      567.83843      27.06933     
   3656000   296.2129       305.3634       296.08502     -570.57866      567.70478      9.2783793    
   3657000   292.71141      319.17779      270.11395     -572.08873      571.91066      49.06384     
   3658000   294.99976      315.87632      280.03084     -575.62761      571.24511      35.845483    
   3659000   292.89614      312.40169      290.26225     -576.10494      572.22922      22.139439    
   3660000   291.73116      328.59725      262.58119     -578.48113      575.35367      66.016057    
   3661000   294.93937      321.70506      288.18677     -577.62352      573.91144      33.51829     
   3662000   293.34511      307.57866      276.8338      -578.10682      577.47528      30.744858    
   3663000   294.87636      320.83563      292.54626     -581.15978      576.65009      28.289363    
   3664000   294.33431      323.45626      281.67398     -581.02234      578.3866       41.782282    
   3665000   293.37894      316.33276      279.97854     -579.3438       579.57108      36.354217    
   3666000   295.05725      321.07162      289.17531     -583.60387      580.7529       31.896308    
   3667000   293.94628      316.84101      280.90991     -581.57928      578.43694      35.931101    
   3668000   291.93186      310.60756      274.91675     -581.70497      583.42486      35.690818    
   3669000   294.32034      314.45559      285.86995     -583.82966      585.23872      28.585636    
   3670000   293.24434      314.71514      281.04549     -584.36511      581.88081      33.66965     
   3671000   292.37152      318.94065      278.70736     -586.30374      586.03639      40.233295    
   3672000   294.887        317.6469       273.68839     -586.45699      587.69316      43.958517    
   3673000   293.27358      319.41855      295.75826     -589.21955      583.15821      23.66029     
   3674000   294.52862      331.64391      266.39246     -591.94961      589.84652      65.251457    
   3675000   294.02065      314.44173      285.57369     -592.28099      589.93908      28.868036    
   3676000   292.76901      317.94901      288.12581     -589.83787      590.26031      29.823196    
   3677000   290.13761      321.55137      283.09832     -589.15946      592.73529      38.453049    
   3678000   292.51953      305.19692      282.19554     -587.29603      592.1713       23.001383    
   3679000   293.39138      314.18143      285.62299     -589.62795      593.91358      28.558436    
   3680000   294.91604      318.19942      284.14596     -590.62447      595.08991      34.053452    
   3681000   294.07808      321.27953      287.90745     -592.73793      593.13371      33.372076    
   3682000   294.53754      329.95197      291.64301     -594.27855      595.17072      38.308963    
   3683000   295.04974      318.04377      294.11245     -592.50585      597.33546      23.931319    
   3684000   293.62904      329.55583      288.14737     -594.70214      599.72639      41.408462    
   3685000   292.58728      313.89961      278.36683     -592.95506      602.11435      35.532773    
   3686000   291.29133      314.89412      282.53601     -592.96065      600.97663      32.358107    
   3687000   291.52725      325.6188       291.21161     -597.70595      603.41996      34.407192    
   3688000   294.9381       321.74234      287.89708     -598.17364      605.75823      33.845257    
   3689000   288.83441      314.34132      283.68888     -598.22702      605.28256      30.65244     
   3690000   292.062        310.96711      295.64367     -597.78193      605.11148      15.32344     
   3691000   292.80722      314.00815      290.95583     -597.48789      607.5976       23.052321    
   3692000   293.78941      333.85232      283.6337      -603.34218      608.98516      50.218622    
   3693000   292.98603      310.1017       295.20253     -602.07651      607.79189      14.899172    
   3694000   293.25449      325.04349      282.80668     -603.99327      608.53703      42.236808    
   3695000   292.88053      317.87732      274.3915      -603.41633      611.98815      43.485822    
   3696000   291.64064      320.32977      282.67842     -606.06628      609.5063       37.651343    
   3697000   294.04143      325.11905      279.41409     -603.81006      610.99106      45.704958    
   3698000   292.42912      322.14803      281.11845     -607.11628      610.78109      41.029581    
   3699000   292.40016      312.15957      285.90008     -606.36815      610.22196      26.259487    
   3700000   293.93749      314.87755      289.05233     -607.49957      611.3247       25.825223    
   3701000   292.45958      319.17149      290.94066     -606.91364      612.78975      28.230826    
   3702000   293.16748      326.98739      285.72455     -607.29054      612.63446      41.262841    
   3703000   292.37508      316.0573       291.23142     -606.53159      613.32867      24.82588     
   3704000   291.19453      319.56363      277.17082     -606.02054      614.59576      42.392804    
   3705000   292.4342       311.87124      278.02032     -606.74228      615.64416      33.85092     
   3706000   293.09915      300.98238      292.01589     -606.49065      615.03776      8.966485     
   3707000   292.59149      315.88871      286.48319     -608.78781      619.33123      29.405522    
   3708000   290.92136      301.87625      281.54174     -609.72729      619.92426      20.334511    
   3709000   293.61965      322.96578      293.20757     -613.84467      618.2513       29.758213    
   3710000   293.28817      310.47418      291.25114     -615.94345      622.19769      19.223039    
   3711000   293.21074      309.38082      282.49452     -614.96043      625.36242      26.8863      
   3712000   293.23213      313.96844      284.0172      -616.49906      622.0941       29.951244    
   3713000   291.8698       319.40941      275.06021     -618.90919      625.27464      44.349205    
   3714000   293.09492      336.16548      275.89605     -621.93797      626.51554      60.269426    
   3715000   293.89778      313.4101       289.50886     -621.18299      626.13759      23.901241    
   3716000   294.34766      320.40239      285.45363     -621.22913      626.03531      34.948762    
   3717000   292.58391      324.32391      299.29506     -625.20082      624.90389      25.028845    
   3718000   292.27216      311.05758      291.80469     -621.67909      629.29402      19.252893    
   3719000   292.33367      315.66905      282.04545     -622.26973      630.36761      33.623601    
   3720000   290.67855      315.07531      272.08799     -620.54995      631.29622      42.987322    
   3721000   291.15844      316.08092      272.18518     -621.76112      632.74353      43.895736    
   3722000   292.86491      318.88253      278.97666     -623.6935       632.20943      39.905867    
   3723000   293.92684      306.37669      279.64536     -622.42472      631.27822      26.73133     
   3724000   293.03369      320.29428      283.64486     -627.65908      634.08034      36.649425    
   3725000   294.61964      323.05476      284.50818     -630.34756      633.39048      38.546587    
   3726000   293.26767      321.51488      282.13302     -629.17651      633.26307      39.381861    
   3727000   292.65518      308.04733      279.94478     -629.31858      635.2244       28.102554    
   3728000   292.31872      323.56383      295.56989     -635.611        634.80009      27.993936    
   3729000   295.83219      327.13492      286.76711     -637.51973      634.99546      40.367807    
   3730000   295.51853      324.55519      293.77844     -638.14425      635.10763      30.776747    
   3731000   294.88682      313.74968      278.8673      -637.19942      636.47836      34.88238     
   3732000   295.24199      318.91451      276.41539     -640.64531      638.31173      42.499123    
   3733000   293.84015      320.54578      292.51543     -640.97385      635.12389      28.030352    
   3734000   295.4117       317.39033      276.70916     -642.11632      637.15708      40.681172    
   3735000   294.39155      322.46069      288.01917     -645.79996      634.67568      34.44152     
   3736000   295.83065      314.58165      271.2258      -644.12352      637.37478      43.355846    
   3737000   297.502        327.79567      284.31349     -645.45626      636.03629      43.482186    
   3738000   296.81441      322.13908      297.13635     -647.05719      634.194        25.002726    
   3739000   295.63495      314.43679      290.65409     -648.09128      635.68549      23.782699    
   3740000   294.43182      326.46038      289.96729     -649.72374      636.27116      36.49309     
   3741000   297.42747      323.8651       291.51074     -650.95054      635.0526       32.354354    
   3742000   294.05036      313.71561      272.225       -648.57766      638.72523      41.490613    
   3743000   296.32171      317.26175      288.95957     -650.18455      638.09659      28.302184    
   3744000   296.60218      325.55561      277.63389     -652.53622      640.46092      47.921725    
   3745000   295.78919      310.04466      278.0203      -651.27129      640.89277      32.024353    
   3746000   296.91339      324.12241      283.67363     -653.34686      639.98725      40.448781    
   3747000   295.61465      316.2631       273.841       -652.88239      639.90339      42.4221      
   3748000   297.6129       316.8936       300.66549     -653.37897      636.6821       16.228111    
   3749000   295.57368      316.67853      283.10596     -652.87056      640.54754      33.572564    
   3750000   297.75149      324.65392      282.89044     -655.5086       642.44881      41.763482    
   3751000   297.95659      313.04674      282.5016      -652.05449      638.7978       30.545138    
   3752000   298.13975      318.92043      279.25283     -657.79766      639.06668      39.667593    
   3753000   297.60905      336.3376       290.73916     -663.55527      639.1417       45.598436    
   3754000   295.62731      303.18031      280.06679     -659.45687      641.48511      23.113514    
   3755000   298.47139      313.87879      285.74121     -663.89835      644.3823       28.137573    
   3756000   299.3005       318.42498      295.68004     -662.76701      642.41602      22.744942    
   3757000   296.97342      316.88824      282.01569     -664.15762      645.0019       34.872547    
   3758000   296.9709       321.92345      274.8052      -667.95252      646.66237      47.11825     
   3759000   298.52598      329.77666      277.72594     -666.34134      647.02606      52.050722    
   3760000   298.54996      313.6143       284.02686     -664.32128      644.64569      29.587441    
   3761000   296.88964      322.28473      290.37685     -665.37993      644.65336      31.907885    
   3762000   296.26331      317.30996      280.62166     -668.59741      644.70338      36.688303    
   3763000   298.66703      323.26787      289.84567     -669.17027      646.06859      33.422202    
   3764000   297.38905      304.83344      298.46006     -668.30175      646.87868      6.3733854    
   3765000   298.46153      326.28978      282.21489     -671.26689      649.81415      44.074887    
   3766000   297.18906      323.78557      298.07802     -674.12605      649.37041      25.707555    
   3767000   298.74943      309.83223      287.04472     -670.8137       650.92016      22.787516    
   3768000   296.14398      327.70793      273.87904     -675.42028      656.01582      53.828888    
   3769000   296.84105      310.25059      275.57269     -677.40235      654.72827      34.677907    
   3770000   297.17738      318.02164      273.07854     -675.34922      657.72341      44.9431      
   3771000   296.18478      317.85134      278.08366     -673.77372      658.4993       39.767679    
   3772000   297.50199      332.63988      288.91567     -678.07592      657.12018      43.724203    
   3773000   297.29763      322.07588      286.09082     -680.41852      657.288        35.985064    
   3774000   299.04109      307.52889      287.60045     -677.77062      662.65378      19.928435    
   3775000   295.1352       307.90733      293.80775     -679.82071      663.05696      14.099584    
   3776000   296.57026      323.36752      282.26705     -682.61458      666.0499       41.100477    
   3777000   297.26122      313.67911      283.80359     -682.20142      667.98418      29.875512    
   3778000   296.19467      325.06809      279.35563     -683.43921      667.66927      45.712465    
   3779000   295.37736      315.12312      280.82045     -685.36884      667.99074      34.302665    
   3780000   299.33169      307.33254      291.83732     -681.55642      666.79587      15.495217    
   3781000   293.90239      303.35293      278.74595     -681.77543      673.85101      24.606976    
   3782000   295.92961      312.9297       282.77986     -684.0774       675.20907      30.149848    
   3783000   294.71545      303.01111      291.09199     -686.6432       674.12116      11.919113    
   3784000   294.53444      311.4515       282.45886     -687.98575      675.92049      28.992645    
   3785000   293.62017      305.9987       279.37141     -687.36403      676.07795      26.627289    
   3786000   295.99185      309.4208       288.70752     -688.48863      677.8126       20.71328     
   3787000   295.6652       317.54559      291.98164     -693.75818      678.1931       25.563946    
   3788000   298.11315      315.14581      288.8377      -692.67075      682.96044      26.308113    
   3789000   296.8793       314.90055      296.60085     -692.94249      683.10507      18.299704    
   3790000   300.29623      326.3442       287.68084     -694.76463      686.32304      38.663361    
   3791000   296.82404      317.86677      288.46121     -696.1331       686.7321       29.405557    
   3792000   295.89213      318.90331      287.14169     -697.60716      689.21389      31.761613    
   3793000   295.7349       293.85626      273.48413     -695.55192      691.20227      20.372126    
   3794000   295.12811      306.34797      293.10671     -697.14085      688.32618      13.241258    
   3795000   297.02875      324.85114      292.34954     -704.1126       690.12144      32.501598    
   3796000   294.83449      310.19628      293.8262      -701.29559      690.98805      16.370088    
   3797000   295.14194      305.29687      288.62848     -701.7459       692.50282      16.668385    
   3798000   295.8983       322.09978      282.03756     -706.61537      694.12547      40.062227    
   3799000   295.73307      309.13532      285.46806     -705.16075      695.52381      23.667261    
   3800000   296.126        307.57238      281.19382     -707.09138      698.11436      26.378556    
   3801000   296.15233      318.08843      302.80086     -706.87468      695.05845      15.287572    
   3802000   295.93455      319.25269      279.36934     -708.54333      699.64986      39.883354    
   3803000   296.23893      322.88354      282.94029     -710.30458      699.89922      39.943252    
   3804000   295.91178      332.41927      290.95104     -712.01557      698.69492      41.468227    
   3805000   294.8931       311.56477      263.42858     -708.52505      704.17988      48.136187    
   3806000   294.40974      318.99256      271.49371     -711.43984      703.90317      47.49885     
   3807000   296.96949      317.56689      290.98067     -713.03635      702.6945       26.586214    
   3808000   295.43753      323.36335      278.88707     -715.41751      706.36793      44.476274    
   3809000   296.00231      306.73726      292.25789     -715.20217      704.75256      14.47937     
   3810000   295.01782      313.52092      290.93663     -713.47158      705.75697      22.584288    
   3811000   295.93501      307.34256      289.37634     -714.40413      706.20656      17.966224    
   3812000   294.5163       315.61778      282.28429     -716.02337      708.55154      33.333491    
   3813000   295.67206      302.72444      287.5445      -714.43975      708.69108      15.179939    
   3814000   295.13693      304.28526      290.3568      -716.12373      708.73679      13.928459    
   3815000   295.04875      317.78051      285.42934     -719.0602       711.28368      32.351177    
   3816000   296.20978      322.44508      277.55278     -716.17263      712.00086      44.892293    
   3817000   294.17209      314.15541      283.16789     -718.69309      711.40731      30.987519    
   3818000   294.17948      313.31563      277.92988     -718.25717      714.45735      35.385751    
   3819000   293.37242      312.61186      281.38918     -719.82106      714.1357       31.222673    
   3820000   294.5835       303.55681      290.0718      -719.64327      712.8179       13.485016    
   3821000   294.85695      318.63321      282.33776     -723.39081      716.80926      36.295453    
   3822000   292.81295      310.73149      284.13578     -721.64418      716.87008      26.59571     
   3823000   297.25743      302.25596      293.66953     -722.12725      716.57046      8.5864321    
   3824000   294.78348      312.00337      294.45805     -725.25914      716.69859      17.545317    
   3825000   294.65487      309.75936      278.11495     -725.13826      720.90187      31.644416    
   3826000   295.04917      315.44164      283.84353     -725.57498      723.96675      31.598106    
   3827000   293.46234      315.19588      283.00526     -729.51185      722.54369      32.190615    
   3828000   295.57407      324.46612      281.99722     -728.91602      722.6871       42.468908    
   3829000   293.95378      291.10504      293.77381     -724.29734      723.67584     -2.6687662    
   3830000   293.26568      329.05314      291.82762     -729.51998      724.3164       37.225519    
   3831000   293.76156      306.92506      284.33003     -727.78474      724.65741      22.595033    
   3832000   295.81027      327.37055      284.41403     -731.45559      724.3819       42.95652     
   3833000   295.55982      314.72836      294.23996     -731.70459      726.3921       20.488408    
   3834000   294.83767      313.71074      277.39025     -733.35536      726.76587      36.320495    
   3835000   294.61973      307.33173      289.83273     -730.93917      726.91637      17.499007    
   3836000   294.17094      307.10818      285.64753     -733.15133      728.4142       21.460655    
   3837000   295.96524      331.93415      282.28804     -737.14439      731.10896      49.646112    
   3838000   295.61306      325.90686      289.46588     -737.15578      731.72049      36.440975    
   3839000   294.63227      317.39552      287.49046     -737.86482      733.00573      29.905062    
   3840000   295.70428      333.55446      288.71952     -739.26485      734.80705      44.834934    
   3841000   296.41142      306.85537      290.9737      -736.4684       735.79668      15.88167     
   3842000   295.67981      314.73526      286.87147     -736.53549      737.62992      27.863788    
   3843000   292.29293      307.38335      281.48935     -737.54617      739.0262       25.894003    
   3844000   295.42502      304.35299      295.29588     -737.16372      740.39018      9.0571074    
   3845000   294.29697      327.80018      277.75493     -742.47089      744.65562      50.045253    
   3846000   291.20975      317.17336      289.14085     -743.60394      743.37315      28.032501    
   3847000   293.43288      303.07759      285.86405     -742.77742      743.87553      17.213536    
   3848000   291.87194      298.17297      298.19538     -742.87995      745.14962     -0.022406124  
   3849000   291.08069      303.66465      287.61262     -743.3828       747.73128      16.05203     
   3850000   294.65529      317.19232      286.31257     -745.05677      747.12047      30.879744    
   3851000   293.43821      315.15239      296.52588     -746.89446      744.70282      18.626513    
   3852000   293.06433      320.02832      279.92309     -750.64498      748.60795      40.105228    
   3853000   293.70548      312.76468      286.38149     -749.51059      750.22445      26.383188    
   3854000   294.19433      306.95296      281.29121     -752.31565      752.5179       25.661749    
   3855000   297.02484      316.6269       288.28814     -751.97814      749.58495      28.338757    
   3856000   294.64156      319.53432      292.09316     -753.20676      751.36451      27.441163    
   3857000   293.07121      302.47007      286.50107     -752.73127      751.80923      15.969       
   3858000   294.09958      309.99215      288.09058     -754.87062      752.14981      21.901575    
   3859000   293.36217      314.9271       290.86431     -755.8617       753.01864      24.062793    
   3860000   291.4145       309.48956      287.05115     -755.57204      757.06652      22.43841     
   3861000   292.11877      312.4069       275.852       -754.666        757.92715      36.554891    
   3862000   292.29491      314.08326      283.02202     -755.43096      762.09782      31.061242    
   3863000   295.25792      311.9924       292.25554     -760.82435      758.14749      19.736864    
   3864000   295.78106      326.83644      286.59352     -762.07222      763.02274      40.242916    
   3865000   294.16201      331.25588      281.03453     -758.91376      764.4069       50.221345    
   3866000   291.04699      318.24605      283.13029     -759.04072      767.15686      35.11576     
   3867000   290.58598      324.82414      287.32577     -758.32327      767.5045       37.498373    
   3868000   293.37716      315.57324      282.38767     -757.92555      764.97864      33.185572    
   3869000   291.51763      319.5485       283.79847     -762.12126      770.47621      35.750029    
   3870000   293.37571      317.07371      287.2711      -762.95185      769.54544      29.802603    
   3871000   293.33729      310.46842      296.56308     -762.32228      769.09667      13.90534     
   3872000   294.74754      323.36759      286.80855     -764.64736      769.78298      36.55904     
   3873000   292.12972      295.74249      285.19023     -762.03914      771.94109      10.552264    
   3874000   292.04755      309.46115      288.18449     -762.1901       772.49613      21.276668    
   3875000   295.66691      317.45396      291.03423     -769.50791      771.03677      26.419727    
   3876000   291.99208      321.85634      277.23798     -770.85766      774.01333      44.61836     
   3877000   292.76439      306.56176      279.95438     -769.12834      772.32848      26.607373    
   3878000   293.6063       312.64614      278.54701     -772.37417      771.60109      34.099134    
   3879000   292.24114      313.78268      283.73568     -773.57757      773.11432      30.047003    
   3880000   294.13183      303.19198      271.00282     -772.12568      776.07783      32.189163    
   3881000   292.10725      312.1294       273.16146     -775.79304      778.19695      38.967934    
   3882000   294.67264      326.53461      280.2288      -779.95279      777.48814      46.305816    
   3883000   290.96166      307.39261      271.76979     -777.29378      779.4666       35.62282     
   3884000   294.9416       320.82309      287.90085     -779.73488      779.47981      32.922241    
   3885000   295.02708      296.73841      278.55077     -778.79408      779.31803      18.18764     
   3886000   295.88377      311.54363      296.00109     -780.61056      779.15701      15.542533    
   3887000   293.99705      315.22928      281.18651     -782.34702      780.4894       34.042769    
   3888000   294.49325      310.75273      290.62771     -780.95017      779.90457      20.125021    
   3889000   292.38952      311.05734      282.74709     -785.58399      782.2121       28.31025     
   3890000   293.99597      311.82539      287.21285     -785.61911      785.7131       24.612542    
   3891000   293.15334      325.15009      293.51592     -789.06714      786.80613      31.634163    
   3892000   294.72443      310.8364       287.66074     -790.28434      786.48526      23.17566     
   3893000   295.72368      313.16496      294.23473     -790.84158      788.98302      18.930236    
   3894000   294.48652      309.86168      294.41384     -790.9093       788.82316      15.44784     
   3895000   294.78537      316.23167      284.81037     -791.88394      792.918        31.421304    
   3896000   292.31226      323.85327      282.0879      -796.97306      794.54998      41.76537     
   3897000   292.89186      320.68477      282.71841     -794.01418      790.96106      37.966367    
   3898000   291.7976       307.47888      280.5408      -793.45394      793.62411      26.938086    
   3899000   295.72726      320.21501      272.23431     -796.83495      795.06371      47.980703    
   3900000   295.44256      320.43342      288.64203     -799.38955      795.28584      31.79139     
   3901000   294.43138      325.95583      274.14359     -799.73752      796.82724      51.81224     
   3902000   294.96753      323.14979      289.31905     -800.37806      798.30893      33.830742    
   3903000   293.37399      310.27176      278.37551     -799.31895      800.2719       31.896251    
   3904000   294.53036      326.42899      286.82452     -799.09199      799.56974      39.604467    
   3905000   293.09004      313.68505      281.51636     -800.10337      803.4698       32.168686    
   3906000   295.80185      320.86009      292.64139     -802.02182      802.10379      28.218702    
   3907000   292.89122      314.80533      289.63286     -802.46106      803.15627      25.172474    
   3908000   291.61276      299.10687      289.56036     -804.34373      806.03898      9.5465147    
   3909000   294.3403       321.01857      284.4992      -807.19209      804.95991      36.519373    
   3910000   293.7957       318.59104      281.07467     -805.52843      806.12429      37.516376    
   3911000   293.08352      316.65432      286.19836     -808.11389      805.73198      30.455966    
   3912000   294.52842      316.95087      284.72669     -808.05559      809.32555      32.224182    
   3913000   291.8327       320.37669      289.86956     -808.26281      807.31932      30.507132    
   3914000   295.5659       318.22734      287.71239     -811.26052      810.14449      30.514951    
   3915000   290.76535      314.3452       293.19888     -811.91285      809.29301      21.146321    
   3916000   294.35101      317.10811      287.83506     -812.26523      810.67298      29.273055    
   3917000   293.18359      307.93033      296.35868     -810.34477      810.88318      11.571642    
   3918000   290.63604      304.02243      281.82008     -810.81566      813.30759      22.202342    
   3919000   293.03975      306.28625      292.14358     -810.72807      815.26905      14.142674    
   3920000   293.33519      312.43848      281.35013     -815.53481      816.84803      31.088355    
   3921000   295.49546      319.24965      292.51673     -819.19127      816.86655      26.732923    
   3922000   292.70803      302.96017      280.5936      -815.88399      819.88234      22.366568    
   3923000   292.10154      299.88611      278.91966     -815.21255      822.51144      20.966447    
   3924000   292.29153      311.86466      299.91991     -820.12091      820.17096      11.944747    
   3925000   293.22303      319.23299      301.68516     -819.44351      821.88847      17.547826    
   3926000   293.82611      305.73597      284.29108     -818.03125      823.88649      21.444884    
   3927000   293.94654      314.46823      291.99872     -821.67643      825.74666      22.469503    
   3928000   293.4785       329.56365      293.4586      -824.92523      826.18213      36.105051    
   3929000   293.57546      315.42442      282.20388     -822.81669      826.81205      33.22054     
   3930000   291.52762      321.28104      289.44867     -825.82118      829.67234      31.832372    
   3931000   293.68988      312.82378      293.42223     -827.22532      827.97922      19.40155     
   3932000   292.74229      306.56939      280.51754     -825.03641      829.93587      26.05185     
   3933000   292.40565      313.13483      274.61112     -827.09351      833.07506      38.523718    
   3934000   292.44781      307.25716      277.54945     -825.87247      833.14565      29.707708    
   3935000   291.59407      321.58518      280.26602     -828.74481      833.6905       41.319158    
   3936000   290.74573      314.53439      282.59568     -828.68632      835.14979      31.938713    
   3937000   291.67577      317.59316      283.54526     -829.32339      836.45214      34.047898    
   3938000   294.03502      308.58604      275.55293     -831.05019      839.76346      33.033103    
   3939000   291.74998      309.61176      286.27434     -832.24675      835.82351      23.337419    
   3940000   293.9316       305.27013      287.07661     -833.57042      838.12593      18.193519    
   3941000   293.23379      318.80906      293.3719      -837.57043      837.39972      25.437156    
   3942000   293.82711      319.8547       302.21113     -837.79048      836.49694      17.643577    
   3943000   292.97581      294.31611      281.69856     -833.77918      843.11743      12.617551    
   3944000   293.21096      307.19424      276.70148     -837.72335      846.417        30.49276     
   3945000   293.03052      318.80184      290.89463     -839.96591      843.3814       27.907217    
   3946000   294.15784      323.11372      286.9892      -843.05194      844.53108      36.124518    
   3947000   292.87348      319.69588      280.98411     -841.25575      844.80894      38.711776    
   3948000   293.37405      314.32916      293.32259     -842.67372      849.24953      21.006568    
   3949000   292.43213      311.21735      279.87478     -842.28561      850.83301      31.342567    
   3950000   293.46107      318.8894       293.89388     -844.22566      850.66019      24.995521    
   3951000   294.5219       316.21672      287.30539     -848.42955      853.28919      28.91133     
   3952000   293.64568      334.26307      284.52403     -852.50015      853.84748      49.739038    
   3953000   291.14566      312.0757       291.63187     -848.26568      854.11381      20.443826    
   3954000   294.94045      336.883        276.51736     -852.95         853.74572      60.365641    
   3955000   291.46599      324.20977      282.89267     -852.27472      855.26712      41.317099    
   3956000   293.84419      302.65673      268.82045     -849.63539      857.44349      33.836289    
   3957000   292.26286      306.09332      284.08923     -850.92954      858.47915      22.004094    
   3958000   291.6966       303.56448      278.61891     -851.15063      859.46299      24.945573    
   3959000   291.75488      309.02421      288.85473     -855.02902      859.54512      20.169484    
   3960000   292.52005      306.70024      281.85461     -854.13303      861.02031      24.84563     
   3961000   292.87834      313.22031      266.35528     -856.70194      860.81387      46.865029    
   3962000   293.57125      321.36014      289.45712     -859.20224      861.27714      31.903023    
   3963000   295.19292      313.44322      285.61507     -859.27674      864.91555      27.82815     
   3964000   293.06044      318.57013      274.51839     -863.93346      867.71205      44.051739    
   3965000   291.21583      303.06575      294.63857     -862.53926      865.56272      8.4271764    
   3966000   295.06554      312.85312      280.46373     -868.22754      868.3874       32.389393    
   3967000   293.87929      299.12973      287.97089     -867.06737      867.76786      11.158832    
   3968000   295.17043      312.77145      284.9017      -870.50494      869.7333       27.869749    
   3969000   293.30704      309.92205      282.68383     -871.13385      868.35271      27.238223    
   3970000   295.09289      313.53057      290.21546     -871.89889      869.94499      23.315115    
   3971000   293.77911      300.47933      279.91056     -868.09038      872.78255      20.568764    
   3972000   294.19927      308.08273      284.7987      -872.50365      871.66988      23.284024    
   3973000   294.44022      324.58963      283.90589     -876.43226      872.59461      40.683736    
   3974000   293.9937       317.20456      284.15403     -875.98863      877.36755      33.050523    
   3975000   295.31417      309.43175      295.22474     -876.53621      874.01749      14.207009    
   3976000   294.74337      326.37004      276.76981     -881.25454      879.19572      49.600225    
   3977000   293.77367      320.86738      276.97073     -882.13757      878.90596      43.896649    
   3978000   293.67826      316.89968      282.56283     -883.12353      881.40148      34.33685     
   3979000   294.75844      323.9685       286.27029     -882.00175      879.52306      37.698208    
   3980000   292.32907      302.56199      289.66066     -884.5621       883.25461      12.901332    
   3981000   294.71754      319.9498       282.2711      -888.05642      884.61544      37.6787      
   3982000   292.76612      313.73552      275.94577     -887.06228      883.98084      37.789754    
   3983000   294.81417      308.62855      278.42588     -885.51165      885.09456      30.202666    
   3984000   294.36618      323.1204       279.0042      -890.54992      884.3626       44.116207    
   3985000   295.41783      300.60174      290.84191     -889.85306      882.64957      9.7598343    
   3986000   295.60414      314.40604      274.67517     -888.9916       887.21336      39.730872    
   3987000   293.50784      320.60577      271.1248      -889.81675      889.74422      49.480966    
   3988000   292.48014      317.14127      281.27913     -889.12634      889.49368      35.862136    
   3989000   293.63844      324.37993      290.25545     -891.61301      889.68278      34.124484    
   3990000   296.87647      329.66939      280.71365     -894.03552      891.28403      48.955736    
   3991000   293.13188      313.11853      294.8127      -892.74121      888.13925      18.305831    
   3992000   295.04115      302.53483      291.42954     -893.56824      889.12398      11.105287    
   3993000   293.93885      305.54377      281.51824     -896.39752      890.53212      24.025528    
   3994000   293.00819      318.55285      291.1616      -895.99484      891.91906      27.391251    
   3995000   294.17321      320.9358       293.47217     -896.32516      893.21432      27.463627    
   3996000   292.62048      311.72923      296.77584     -896.89016      896.92599      14.953387    
   3997000   294.21886      316.45791      282.61055     -897.22548      897.07172      33.847359    
   3998000   294.95955      324.35179      286.59654     -898.89949      897.4442       37.755256    
   3999000   290.6695       302.3573       300.14988     -896.966        897.51668      2.2074164    
   4000000   295.14613      308.66216      288.65092     -896.99852      900.02048      20.011235    
Loop time of 2187.83 on 16 procs for 1000000 steps with 21568 atoms

Performance: 19.746 ns/day, 1.215 hours/ns, 457.073 timesteps/s, 9.858 Matom-step/s
1498.8% CPU use with 1 MPI tasks x 16 OpenMP threads

MPI task timing breakdown:
Section |  min time  |  avg time  |  max time  |%varavg| %total
---------------------------------------------------------------
Pair    | 1859.1     | 1859.1     | 1859.1     |   0.0 | 84.97
Neigh   | 0.48975    | 0.48975    | 0.48975    |   0.0 |  0.02
Comm    | 27.283     | 27.283     | 27.283     |   0.0 |  1.25
Output  | 0.14575    | 0.14575    | 0.14575    |   0.0 |  0.01
Modify  | 281.12     | 281.12     | 281.12     |   0.0 | 12.85
Other   |            | 19.72      |            |       |  0.90

Nlocal:          21568 ave       21568 max       21568 min
Histogram: 1 0 0 0 0 0 0 0 0 0
Nghost:           7623 ave        7623 max        7623 min
Histogram: 1 0 0 0 0 0 0 0 0 0
Neighs:              0 ave           0 max           0 min
Histogram: 1 0 0 0 0 0 0 0 0 0

Total # of neighbors = 0
Ave neighs/atom = 0
Neighbor list builds = 38
Dangerous builds = 0

#3rd stage (NEMD)

reset_timestep  0

unfix           hot
unfix           cold

compute         ke all ke/atom
variable        temp atom c_ke/(1.5*${kB})
variable        temp atom c_ke/(1.5*8.617e-05)

fix             hot hot langevin ${thi} ${thi} ${tdamp} 63777 tally yes zero yes
fix             hot hot langevin 315 ${thi} ${tdamp} 63777 tally yes zero yes
fix             hot hot langevin 315 315 ${tdamp} 63777 tally yes zero yes
fix             hot hot langevin 315 315 0.05 63777 tally yes zero yes
fix             cold cold langevin ${tlo} ${tlo} ${tdamp} 23666 tally yes zero yes
fix             cold cold langevin 285 ${tlo} ${tdamp} 23666 tally yes zero yes
fix             cold cold langevin 285 285 ${tdamp} 23666 tally yes zero yes
fix             cold cold langevin 285 285 0.05 23666 tally yes zero yes
fix_modify      hot temp THSource
fix_modify      cold temp THsink

fix             ave gMobile ave/time 10 100 1000 v_tdiff ave running
thermo_style    custom step temp c_THSource c_THsink f_hot f_cold v_tdiff f_ave
WARNING: New thermo_style command, previous thermo_modify settings will be lost (src/output.cpp:912)
thermo_modify   colname c_THSource Temp_hot colname c_THsink Temp_cold                 colname f_hot E_hot colname f_cold E_cold                 colname v_tdiff dTemp_step colname f_ave dTemp

compute         layers gMobile chunk/atom bin/1d y lower 0.01 units reduced
fix             temp_profile gMobile ave/chunk 10 100 1000 layers v_temp file profile.langevin
fix 			E_out gMobile print 1000 "${Time}  ${EL}  ${ER}" file Ener_equ.dat title "Time  E_hot  E_cold" screen no

dump            1 all custom 50000 dump.optimize id type x y z c_peratom fx fy fz vx vy vz

#variable        start_time equal time
#variable        lx equal 228.251736
#variable        ly equal 119.80809
#variable        lz equal 3.4

run             4000000   # 8 ns for data collection
Hybrid pair style last /omp style lj/cut
Last active /omp style is pair_style lj/cut
Per MPI rank memory allocation (min/avg/max) = 110.5 | 110.5 | 110.5 Mbytes
   Step          Temp         Temp_hot      Temp_cold        E_hot          E_cold       dTemp_step       dTemp     
         0   295.14613      308.66216      288.65092     -0             -0              20.011235      0            
      1000   293.29731      316.3001       295.92419     -4.8785475      1.6758172      20.375917      29.728734    
      2000   291.95643      310.59138      286.36129     -3.7745456      5.4325568      24.230086      29.602319    
      3000   293.50384      309.39486      277.48447     -5.6391407      6.4861384      31.910389      29.956662    
      4000   291.97187      320.76573      287.75824     -8.0538922      10.383584      33.007486      30.878202    
      5000   290.79615      317.15959      287.28845     -5.8762402      9.5018764      29.871138      29.899948    
      6000   293.08055      305.48166      289.76252     -8.4023908      7.6169616      15.71915       30.074227    
      7000   293.36986      323.00023      280.91001     -11.195217      9.500662       42.09022       30.201837    
      8000   293.67733      310.7448       288.95134     -8.5296225      8.2032732      21.793462      30.310068    
      9000   291.85167      318.24993      281.95314     -12.711456      9.6471752      36.29679       30.716124    
     10000   294.69249      325.521        285.9409      -14.842111      12.691405      39.580097      31.443284    
     11000   293.47966      321.14746      286.76204     -12.48447       15.076854      34.385419      31.75579     
     12000   294.50243      322.46156      282.66218     -14.261674      15.420216      39.799378      31.769714    
     13000   293.73362      312.51638      280.80068     -14.975354      15.682806      31.715704      31.35198     
     14000   292.0332       317.8413       274.83516     -17.541162      16.115899      43.006142      30.956668    
     15000   293.39733      315.184        291.55388     -17.218311      14.780806      23.630125      30.99148     
     16000   290.02187      306.80031      291.06559     -15.616876      17.006733      15.734722      30.839221    
     17000   293.23461      319.86765      302.01539     -18.904038      17.307964      17.852259      30.585359    
     18000   293.61367      317.47055      281.53989     -21.898861      20.423127      35.930657      30.503907    
     19000   294.57998      313.49058      289.60938     -21.184753      18.805022      23.881206      30.860983    
     20000   294.77779      316.03976      283.47328     -21.141323      21.157712      32.566484      30.729564    
     21000   291.01339      310.54168      282.70911     -22.74969       24.072237      27.832571      30.911002    
     22000   292.90888      305.63868      299.16511     -22.566484      26.319015      6.4735683      30.573878    
     23000   291.59345      311.17103      294.39313     -23.50646       25.578644      16.777893      30.430291    
     24000   291.51233      302.28251      286.31823     -21.215364      26.12832       15.964278      30.380996    
     25000   293.0721       322.78311      292.79943     -22.666798      26.932822      29.983678      30.015586    
     26000   294.04593      321.81711      300.10592     -21.30991       26.136969      21.711192      29.992016    
     27000   291.9058       312.96777      278.92951     -24.341634      30.594673      34.038259      30.035478    
     28000   291.0636       311.30768      284.77363     -21.831727      31.150162      26.534053      29.948466    
     29000   291.02058      309.12257      280.73507     -24.000073      32.912989      28.387499      29.848047    
     30000   290.18087      297.05009      289.83639     -25.182124      31.443201      7.2136958      29.825368    
     31000   293.49452      317.732        284.25419     -26.451204      34.253047      33.477804      29.825915    
     32000   293.18727      333.6933       275.18186     -30.63417       36.199875      58.511435      29.928569    
     33000   290.89005      307.80209      276.29869     -30.099619      36.204758      31.503399      29.918623    
     34000   291.277        312.08291      279.55296     -30.786552      38.968492      32.529945      29.988664    
     35000   293.59665      317.87281      287.20105     -31.120761      39.05136       30.671755      29.892286    
     36000   293.44616      313.57755      293.35651     -31.958813      37.694124      20.221044      29.88786     
     37000   292.07943      299.4598       294.35698     -30.615132      39.334145      5.1028161      29.853645    
     38000   293.36145      321.93985      281.9272      -34.291004      40.237227      40.012657      29.759173    
     39000   292.71267      314.63452      281.81129     -33.704177      40.582391      32.823222      29.630115    
     40000   293.11372      313.05755      298.91955     -34.951944      40.612887      14.137999      29.589608    
     41000   292.78286      326.55191      285.1833      -36.438822      45.48553       41.368607      29.671242    
     42000   290.53436      302.74089      279.80112     -35.039779      46.950004      22.939769      29.510405    
     43000   291.36361      315.53338      289.37022     -41.935368      43.85319       26.163155      29.556122    
     44000   290.46719      310.15908      292.52845     -38.714057      44.592282      17.63063       29.574258    
     45000   292.1878       314.31753      288.37921     -38.51076       48.565717      25.938322      29.566727    
     46000   292.24357      308.2767       283.86761     -39.8569        48.559556      24.409085      29.560987    
     47000   289.99254      307.86154      286.02504     -41.455883      48.342858      21.836503      29.5714      
     48000   292.4742       311.52153      285.84078     -42.104283      50.856026      25.680747      29.465218    
     49000   290.1764       310.56113      279.62616     -43.387687      53.909841      30.934967      29.399312    
     50000   290.99413      318.66135      277.19648     -42.877218      54.095362      41.464875      29.44489     
     51000   292.79908      298.46737      289.27544     -42.873741      51.990797      9.1919302      29.455482    
     52000   291.45964      311.04796      275.54249     -46.277576      54.594683      35.505468      29.472133    
     53000   292.41615      326.51303      294.39694     -49.292311      53.284488      32.116085      29.521348    
     54000   291.77557      303.81375      289.18126     -48.556305      56.040993      14.632494      29.45676     
     55000   292.37588      311.33718      293.62103     -50.616062      53.394466      17.716151      29.430431    
     56000   291.77447      310.70045      294.10944     -49.626626      56.392609      16.591014      29.356167    
     57000   292.39989      307.53155      284.2796      -48.727915      56.500781      23.251943      29.309472    
     58000   293.60531      317.79434      288.97402     -52.315992      58.719698      28.82032       29.266739    
     59000   292.67672      307.7843       295.76792     -53.689164      60.100997      12.016383      29.259526    
     60000   288.79139      314.73414      280.08192     -55.565521      63.833266      34.652227      29.194611    
     61000   291.68062      313.24316      281.27506     -55.45169       63.229272      31.968094      29.278217    
     62000   292.79782      324.12776      286.62874     -58.107576      64.966129      37.499022      29.311709    
     63000   292.32857      316.74488      284.5116      -56.726226      65.427885      32.233276      29.329501    
     64000   292.49863      313.91458      284.94894     -58.29914       66.064172      28.965635      29.422241    
     65000   291.75359      311.44205      290.56206     -60.837445      65.164162      20.879997      29.352451    
     66000   293.8069       306.02928      287.20245     -59.94839       65.663283      18.826826      29.367515    
     67000   293.22814      314.45551      278.51213     -63.867727      66.631725      35.943385      29.316906    
     68000   292.50353      299.52161      303.82171     -58.458469      64.675777     -4.3001055      29.306378    
     69000   293.97704      319.1582       281.10336     -62.437239      68.20213       38.054846      29.295028    
     70000   292.302        319.92693      277.8537      -66.370177      70.722511      42.073231      29.30827     
     71000   292.77828      312.59816      280.27358     -66.985002      72.361108      32.324579      29.303148    
     72000   294.40022      319.16007      278.01151     -66.502024      73.451698      41.148562      29.356143    
     73000   291.62685      315.43184      279.59174     -65.834334      75.230403      35.840096      29.333396    
     74000   291.87415      310.41628      274.95244     -66.183202      75.413362      35.463844      29.263522    
     75000   293.42363      314.79945      283.34431     -68.940872      75.213986      31.455141      29.192079    
     76000   292.5263       309.41429      281.15347     -68.5343        77.349938      28.260821      29.277102    
     77000   292.36111      311.45874      285.09695     -69.641916      77.25665       26.361786      29.213962    
     78000   294.00138      324.19969      285.23336     -74.432986      75.741343      38.966336      29.258039    
     79000   289.82709      324.53164      276.79589     -75.465104      79.750057      47.735757      29.30407     
     80000   292.77702      311.64324      299.18449     -72.544661      76.051241      12.458754      29.397567    
     81000   290.34863      308.45469      275.26864     -75.094111      80.017385      33.186047      29.406409    
     82000   292.83566      320.2146       281.45158     -79.13379       80.380641      38.763012      29.400315    
     83000   291.08335      305.03513      286.8723      -76.661384      79.749501      18.162836      29.462605    
     84000   291.24195      309.59464      285.76435     -80.684009      79.738955      23.830296      29.407852    
     85000   295.82257      330.7423       297.23463     -86.887536      78.311308      33.507667      29.462578    
     86000   291.94732      319.01166      273.50806     -86.662871      83.900234      45.503599      29.511234    
     87000   294.64602      307.43119      274.91253     -83.249166      82.766467      32.518656      29.535295    
     88000   293.70278      327.67753      271.97023     -88.735124      83.639137      55.707301      29.5163      
     89000   294.77781      316.85054      280.84091     -88.263813      82.791926      36.009636      29.547738    
     90000   296.39392      325.14081      279.28929     -90.212369      83.523157      45.851526      29.532805    
     91000   294.41464      324.92854      284.31634     -91.766876      82.595796      40.612202      29.595925    
     92000   291.87647      314.92967      286.14129     -89.181872      84.169228      28.788379      29.570897    
     93000   295.95163      329.50676      284.93717     -94.369289      84.859535      44.569591      29.557238    
     94000   293.74219      311.39433      295.96584     -93.855688      86.232955      15.428491      29.524372    
     95000   293.45538      307.91941      285.82044     -93.313758      90.401169      22.098972      29.459677    
     96000   293.33326      326.81083      293.48569     -99.92162       90.27498       33.325136      29.504852    
     97000   292.99508      318.81268      281.84088     -98.475092      93.74986       36.971799      29.497092    
     98000   292.68423      312.08156      274.55584     -97.963586      95.228783      37.525717      29.46576     
     99000   292.99364      302.73205      276.83635     -97.6458        93.670359      25.895699      29.44166     
    100000   295.68209      314.18914      282.75838     -102.60029      96.803391      31.430764      29.449597    
    101000   294.46373      329.7665       284.48866     -104.24793      93.951955      45.27784       29.47743     
    102000   293.65636      300.94211      290.67463     -101.84762      93.618704      10.267482      29.451298    
    103000   293.14978      318.91402      279.71612     -106.60393      97.346331      39.197897      29.537339    
    104000   294.61534      315.40236      293.30012     -108.22551      98.248131      22.102238      29.48091     
    105000   295.38032      316.99046      296.1508      -107.008        99.062025      20.839655      29.489576    
    106000   291.99688      314.74968      279.30136     -105.5842       102.98653      35.448324      29.5301      
    107000   294.97296      315.31901      296.37318     -107.24538      102.82645      18.945824      29.531416    
    108000   294.03803      322.671        286.4703      -109.57675      105.21404      36.200695      29.521406    
    109000   293.03683      307.67209      278.00673     -106.9514       108.73642      29.665361      29.554988    
    110000   294.96698      315.26444      272.71026     -110.02916      108.85186      42.554184      29.52378     
    111000   293.48297      310.18351      277.19709     -110.58012      108.69995      32.986414      29.441555    
    112000   292.82492      317.85788      288.76783     -112.52859      112.63417      29.090051      29.408658    
    113000   294.18076      316.90563      292.69285     -112.26302      111.97477      24.21278       29.435575    
    114000   294.69153      322.20952      283.76221     -110.63166      112.53876      38.447305      29.441364    
    115000   293.53706      303.36596      290.56952     -114.15713      112.74732      12.796446      29.45959     
    116000   291.60009      297.45358      273.79368     -113.8357       116.37017      23.659904      29.43192     
    117000   294.07507      313.66968      283.88089     -117.41732      117.28867      29.788794      29.397738    
    118000   292.79371      307.97903      280.88566     -118.52934      117.54586      27.093365      29.396871    
    119000   292.35525      302.78409      284.0938      -117.55358      118.1407       18.690295      29.357372    
    120000   292.6567       322.34422      285.3529      -120.40367      118.76271      36.991323      29.401282    
    121000   293.30055      319.42457      277.49502     -121.70249      121.5304       41.929549      29.37268     
    122000   294.73149      333.37719      292.56635     -125.50686      121.54246      40.810842      29.38645     
    123000   292.81629      308.82997      289.1543      -121.53996      121.2501       19.675672      29.40723     
    124000   295.67893      328.7813       291.66176     -123.21783      120.10934      37.11954       29.347685    
    125000   292.68007      310.37784      282.8835      -121.12069      124.41829      27.494349      29.328159    
    126000   292.96291      323.82086      290.8798      -127.39433      125.7855       32.941054      29.333901    
    127000   296.25646      312.8799       288.11486     -128.53271      124.39504      24.765038      29.318144    
    128000   293.25184      314.54339      283.69864     -128.98105      125.22912      30.844751      29.353446    
    129000   292.61964      305.91947      280.33555     -129.04157      129.34813      25.583929      29.333809    
    130000   295.0682       315.00485      303.94493     -132.64559      125.0543       11.05992       29.340569    
    131000   294.19128      298.94117      285.73109     -129.76742      129.45921      13.210074      29.355111    
    132000   291.59805      307.37608      279.57127     -135.95311      130.27258      27.804807      29.368852    
    133000   292.9898       315.28058      288.44494     -135.46936      129.85907      26.835641      29.420468    
    134000   293.7338       329.34258      277.93341     -139.51939      134.11463      51.40917       29.40439     
    135000   294.27258      306.9292       289.53607     -138.6598       133.29244      17.393128      29.396832    
    136000   295.13789      326.7826       279.08637     -143.59656      135.90603      47.696232      29.398813    
    137000   295.67528      322.98905      297.88781     -138.67694      133.6659       25.101241      29.442542    
    138000   293.04894      310.51047      282.68758     -137.9299       135.63923      27.822893      29.409501    
    139000   294.30993      316.1724       299.55386     -141.22858      136.20709      16.618535      29.403253    
    140000   294.06269      326.322        279.20985     -141.04         137.32714      47.112147      29.396451    
    141000   293.31127      308.1569       280.76892     -143.90856      138.52886      27.38798       29.412858    
    142000   294.63997      305.02593      290.89439     -143.80942      137.03878      14.131539      29.411366    
    143000   293.4205       316.71408      292.00142     -146.12152      137.45278      24.712656      29.406114    
    144000   293.48503      326.63113      282.82026     -146.98335      139.24263      43.810875      29.411147    
    145000   295.99291      327.72335      279.68696     -148.46093      141.56847      48.036389      29.431141    
    146000   292.01082      305.83455      287.45619     -147.4159       142.7507       18.378363      29.461225    
    147000   294.75702      306.98952      290.42021     -146.99564      142.33893      16.56931       29.450591    
    148000   294.54317      308.58988      293.22069     -148.00699      143.69451      15.369194      29.440413    
    149000   292.11943      310.13759      280.77531     -149.15172      147.8741       29.362279      29.426906    
    150000   293.19276      321.12226      285.49187     -149.15193      146.43958      35.630384      29.455367    
    151000   293.40677      307.01089      276.11        -152.46246      149.91785      30.900883      29.46101     
    152000   292.65742      319.30632      281.20414     -152.42055      147.21354      38.10218       29.450713    
    153000   293.58051      310.76445      283.24791     -151.43458      146.1433       27.51654       29.425067    
    154000   294.10116      322.21931      275.02687     -151.82272      151.63762      47.19244       29.416133    
    155000   293.85968      315.57665      281.25408     -152.634        152.21399      34.322566      29.385004    
    156000   293.48075      309.54117      278.28216     -154.91942      152.76453      31.259012      29.387459    
    157000   293.15282      318.40564      288.18199     -153.17848      151.17742      30.223655      29.386445    
    158000   293.69401      301.42224      273.17762     -153.50572      151.51304      28.24462       29.416946    
    159000   293.06445      294.12694      283.70636     -154.85211      153.11398      10.420575      29.396781    
    160000   293.41184      323.75425      295.44412     -161.15536      153.40776      28.31012       29.437177    
    161000   294.94642      319.66409      285.61255     -159.67546      153.32112      34.051537      29.404342    
    162000   294.61946      319.62405      280.23171     -157.91002      157.59888      39.392344      29.406413    
    163000   293.30205      319.84562      284.35594     -162.90927      152.53839      35.489681      29.403787    
    164000   296.73562      316.95152      299.21203     -164.39054      151.62601      17.739484      29.414519    
    165000   295.57544      318.54333      296.59565     -166.77763      153.13371      21.947676      29.452044    
    166000   295.0687       314.54918      280.60303     -163.8041       155.43697      33.946155      29.431826    
    167000   294.53914      319.33346      282.34951     -164.84098      158.02428      36.983948      29.423532    
    168000   295.32381      329.44306      276.21331     -168.07626      159.19169      53.229756      29.43003     
    169000   293.16092      312.31801      286.55716     -167.0456       157.60022      25.760857      29.433314    
    170000   296.11776      318.20157      289.74174     -169.53462      159.61921      28.459837      29.430352    
    171000   294.83722      304.40149      274.50996     -165.6585       160.67761      29.891535      29.449546    
    172000   293.71154      312.26595      294.01218     -166.05935      158.88759      18.253772      29.44498     
    173000   294.79858      308.75182      270.13647     -169.1092       163.77678      38.61535       29.426946    
    174000   296.67449      319.20715      285.01218     -171.81736      160.70313      34.194968      29.406311    
    175000   295.28025      314.92775      286.3857      -169.79391      162.48146      28.542048      29.406142    
    176000   293.47259      305.11678      271.11255     -173.85832      165.18608      34.004228      29.402265    
    177000   295.93243      298.25807      289.89211     -170.98922      161.36151      8.3659637      29.359942    
    178000   295.5796       314.44187      282.22672     -175.46331      164.30898      32.215148      29.349432    
    179000   294.08921      314.1105       274.79287     -175.34249      166.10486      39.317628      29.323384    
    180000   293.27126      313.35876      285.05714     -176.1417       165.33174      28.301614      29.336391    
    181000   294.65235      321.95985      282.91437     -180.7782       165.61697      39.045476      29.331215    
    182000   293.81594      314.28637      281.09193     -180.01702      167.435        33.194433      29.302003    
    183000   294.12473      321.28026      280.09158     -181.10255      170.0596       41.188674      29.315265    
    184000   292.91769      317.5973       277.44751     -180.44971      168.42838      40.149791      29.306931    
    185000   296.42379      324.18602      276.85751     -182.62646      172.41457      47.328508      29.306344    
    186000   294.26791      314.31146      291.93832     -177.82442      171.85304      22.373143      29.302346    
    187000   293.38657      306.38574      286.476       -180.19732      175.56584      19.909745      29.296751    
    188000   295.22823      305.55659      288.38079     -180.2949       175.22513      17.175795      29.269923    
    189000   292.82263      313.0539       285.18696     -180.12915      177.94807      27.86694       29.256225    
    190000   292.6194       319.55888      275.45436     -184.02178      181.20941      44.104525      29.276324    
    191000   295.15178      316.74237      289.05321     -185.70768      180.73259      27.689165      29.277378    
    192000   293.5735       328.6116       289.02967     -188.16244      182.31153      39.581926      29.290883    
    193000   292.73134      310.76983      278.54229     -182.4463       184.11175      32.227546      29.295007    
    194000   293.9709       307.58563      278.84035     -185.97435      184.99212      28.745277      29.315571    
    195000   294.2571       311.8312       279.93867     -188.34576      186.23154      31.892526      29.305092    
    196000   294.82884      314.05231      287.07313     -188.34793      188.40961      26.97918       29.290728    
    197000   294.42679      320.36255      287.7467      -190.92673      189.46838      32.615848      29.2812      
    198000   294.99222      320.14346      297.67099     -193.40006      189.75526      22.47247       29.288598    
    199000   294.66767      319.71054      290.99569     -194.19823      190.57641      28.714855      29.275426    
    200000   293.2504       315.14821      281.53267     -194.47086      190.77489      33.615534      29.278303    
    201000   293.81258      315.13604      279.04611     -196.24529      192.44438      36.08993       29.277274    
    202000   295.55633      332.34718      278.50324     -199.4859       191.72391      53.84394       29.255743    
    203000   292.23211      320.23573      289.13734     -198.37006      194.95199      31.098383      29.269764    
    204000   292.25659      309.63615      289.1707      -195.77394      193.54138      20.465454      29.274876    
    205000   296.51594      327.99707      288.53643     -200.42583      192.56618      39.460639      29.266788    
    206000   294.06049      316.66589      285.28649     -199.04069      196.70093      31.379391      29.270106    
    207000   295.24568      322.91037      281.07539     -204.8045       199.81812      41.834981      29.26201     
    208000   294.85558      321.29954      291.49653     -204.46078      199.05802      29.803011      29.275756    
    209000   293.48316      313.85008      275.71793     -204.50164      203.52926      38.132154      29.274613    
    210000   291.75559      310.98076      283.15865     -206.48589      203.31264      27.822114      29.273793    
    211000   293.98708      302.74358      285.98261     -204.71447      203.7138       16.760969      29.299347    
    212000   293.92497      327.20827      292.67072     -207.24197      205.46149      34.537541      29.300365    
    213000   292.94205      318.00132      281.11495     -207.39224      205.40056      36.886367      29.300859    
    214000   293.56563      305.92373      301.18754     -204.72335      202.05308      4.7361889      29.25965     
    215000   293.51784      309.88715      289.108       -204.48357      203.15242      20.779152      29.253025    
    216000   291.14991      293.3144       286.21551     -202.22804      205.61285      7.0988907      29.238985    
    217000   292.90319      327.56226      291.95103     -211.57196      206.16609      35.611228      29.234738    
    218000   295.28831      327.67589      281.90323     -211.54895      209.18141      45.772663      29.239351    
    219000   294.35469      317.46213      260.51111     -209.41856      211.97771      56.951013      29.26815     
    220000   292.30582      318.77092      294.01402     -210.92162      208.42738      24.756894      29.282874    
    221000   294.50557      317.81462      291.71383     -210.82464      207.92741      26.10079       29.313493    
    222000   293.21378      319.23714      285.03083     -211.43258      210.77423      34.206305      29.316561    
    223000   294.57967      317.09142      284.96695     -211.69705      210.66978      32.12447       29.308003    
    224000   293.91054      325.16571      284.62592     -217.84928      214.67831      40.53979       29.331232    
    225000   294.76798      325.55767      284.85463     -219.32226      213.56412      40.703046      29.335308    
    226000   294.76262      321.13618      287.82674     -217.41516      213.56627      33.309443      29.348081    
    227000   295.33478      303.50691      281.51806     -217.38243      215.32129      21.988853      29.329741    
    228000   295.05782      312.02047      291.01616     -218.99198      213.7193       21.004316      29.325932    
    229000   294.41186      311.72317      279.85133     -218.57636      215.14809      31.871841      29.302442    
    230000   294.35624      318.39878      287.89549     -223.47368      213.86167      30.503285      29.303384    
    231000   294.86079      312.89321      283.94989     -223.26379      216.17946      28.943321      29.303439    
    232000   295.52805      296.49038      287.69068     -225.72666      217.67735      8.7997063      29.278955    
    233000   294.97985      309.98617      292.05256     -227.45468      215.00404      17.933606      29.260709    
    234000   295.26967      303.79707      297.60971     -228.05567      218.09559      6.1873615      29.245564    
    235000   295.36811      327.11792      293.98308     -230.11473      218.86825      33.134842      29.250464    
    236000   295.06702      311.40094      280.47653     -231.19516      220.91844      30.924411      29.259552    
    237000   294.79916      319.45223      278.47534     -232.19526      221.50542      40.976892      29.256137    
    238000   296.22589      333.06276      292.39275     -234.83246      222.37601      40.670014      29.239844    
    239000   294.99656      307.4326       280.46815     -232.10765      225.91997      26.964451      29.240724    
    240000   295.69728      320.62501      284.6886      -232.30814      227.00404      35.936409      29.23036     
    241000   293.11727      304.8868       280.81487     -232.86485      227.13126      24.071936      29.223098    
    242000   292.35627      317.67341      282.04522     -235.07193      227.34641      35.628192      29.225524    
    243000   295.19331      312.86687      286.96624     -238.50853      227.51394      25.900634      29.23709     
    244000   294.22767      306.96194      297.87367     -237.06141      228.82183      9.0882779      29.223338    
    245000   296.42961      326.36255      290.64808     -238.05047      228.99617      35.714469      29.228562    
    246000   294.01078      315.03675      274.20937     -241.56087      231.90701      40.827377      29.230699    
    247000   296.05401      315.18111      279.59812     -240.43101      233.33727      35.582992      29.244234    
    248000   294.66267      289.2163       285.27961     -240.63383      234.23383      3.9366901      29.238778    
    249000   294.38508      320.86944      282.06895     -244.25885      232.84874      38.800496      29.238846    
    250000   293.80655      315.17861      293.34322     -241.07231      233.38056      21.835393      29.240013    
    251000   295.34694      302.09454      291.8286      -239.67827      234.93988      10.265943      29.224408    
    252000   292.62934      301.59078      283.70006     -241.52243      236.69453      17.890721      29.230676    
    253000   294.6349       325.7975       284.21405     -244.61216      238.43102      41.583452      29.209955    
    254000   295.69618      312.98279      295.26693     -246.9366       238.72431      17.715862      29.191727    
    255000   293.42149      306.56376      278.18779     -245.95507      242.51935      28.375974      29.196667    
    256000   293.59727      330.49815      279.32379     -249.27271      244.53036      51.174363      29.215643    
    257000   292.58303      324.97187      279.07567     -250.95429      243.36565      45.896199      29.230115    
    258000   293.49707      309.14672      295.27455     -250.50771      241.53557      13.872169      29.235894    
    259000   293.86777      314.05882      280.79517     -253.2162       243.88765      33.26365       29.246183    
    260000   296.53679      308.90236      294.38942     -255.28213      243.37245      14.512938      29.265075    
    261000   295.40825      334.16316      272.06594     -258.54936      246.58228      62.097224      29.284094    
    262000   297.25603      327.66939      296.14834     -260.38307      245.88573      31.521052      29.283647    
    263000   295.18463      322.94466      286.10893     -257.12754      246.83767      36.835737      29.27834     
    264000   295.5566       314.70858      286.71617     -260.8714       246.94819      27.992415      29.269821    
    265000   296.52987      304.8567       273.74163     -258.80221      249.07494      31.115075      29.273406    
    266000   295.30444      311.18156      278.64298     -261.33932      248.40803      32.538573      29.239362    
    267000   294.47754      309.85416      284.55883     -260.46429      249.89463      25.295337      29.215848    
    268000   295.86319      323.37725      273.22912     -262.46761      249.89151      50.148126      29.202256    
    269000   295.40636      307.38576      285.34763     -261.10573      251.28298      22.038132      29.18598     
    270000   294.66664      324.91318      276.16846     -264.45859      253.68283      48.744724      29.188038    
    271000   293.14048      318.78232      283.68735     -264.87773      253.72325      35.094971      29.198285    
    272000   294.87292      310.97572      283.22531     -260.45811      256.62158      27.75041       29.209668    
    273000   292.76638      317.36328      283.78947     -262.41796      257.87466      33.573817      29.207056    
    274000   293.97493      310.98149      294.1379      -265.19387      258.61034      16.843594      29.224966    
    275000   292.89399      296.27174      294.29706     -264.00578      257.08912      1.9746853      29.212693    
    276000   295.01552      332.96471      299.43581     -268.9116       257.38267      33.528898      29.205102    
    277000   293.10644      304.6387       287.88999     -264.87135      260.83143      16.74871       29.218399    
    278000   293.77107      305.18201      283.74199     -270.07177      259.92856      21.440021      29.203737    
    279000   293.97888      320.24542      280.15101     -269.01303      266.38737      40.094408      29.186821    
    280000   294.06248      311.58096      274.93765     -266.63837      267.8761       36.643304      29.183477    
    281000   294.25284      307.78785      278.345       -268.44369      266.66858      29.44285       29.184649    
    282000   294.91294      311.72128      285.52641     -267.62959      265.07351      26.194872      29.16116     
    283000   293.06521      309.50127      281.42589     -267.77417      266.44787      28.075382      29.177324    
    284000   293.49302      300.80986      294.37366     -270.41456      264.95009      6.4361998      29.156832    
    285000   295.51504      322.9011       284.20685     -274.40113      266.6047       38.694252      29.15107     
    286000   294.07045      318.95786      284.99971     -274.81037      268.17988      33.958151      29.154463    
    287000   295.19111      320.36638      288.00954     -275.5054       268.51133      32.356837      29.16209     
    288000   293.88784      310.28239      271.12624     -275.06008      272.49741      39.156159      29.15923     
    289000   293.47816      309.31864      300.71979     -274.85474      269.80571      8.5988509      29.159521    
    290000   293.59467      316.43423      283.75238     -277.41645      272.61497      32.681848      29.144098    
    291000   295.35711      314.57743      273.83045     -281.69743      275.12973      40.74698       29.147913    
    292000   294.75897      315.60503      279.0874      -283.95835      275.77848      36.517631      29.160778    
    293000   295.10763      299.38005      280.82121     -283.18373      275.00438      18.55884       29.162606    
    294000   293.56212      309.58018      289.04323     -284.41286      275.17832      20.536948      29.154047    
    295000   294.5219       306.9152       287.16193     -284.7541       276.7574       19.753263      29.14376     
    296000   293.8796       305.94026      286.49321     -285.51121      278.59246      19.447044      29.153051    
    297000   295.31634      304.29615      285.16125     -285.06332      278.75454      19.134907      29.145558    
    298000   294.98224      316.30382      289.48234     -291.77768      277.64914      26.821483      29.134721    
    299000   293.86884      304.56376      278.56082     -291.60291      280.37612      26.002937      29.130388    
    300000   294.88836      308.5031       282.81811     -289.16382      282.67944      25.684985      29.139581    
    301000   294.68148      310.91695      290.16759     -289.23434      281.45785      20.749366      29.137056    
    302000   292.5437       307.98978      282.94373     -287.93043      284.85867      25.046043      29.134542    
    303000   294.16415      308.55171      289.9761      -286.91959      283.08525      18.575609      29.132981    
    304000   295.33957      315.53752      304.49183     -290.01473      282.40643      11.04569       29.123921    
    305000   295.55749      306.97495      289.82725     -291.07879      285.15022      17.1477        29.108153    
    306000   294.9643       324.33048      284.56615     -290.62244      288.80427      39.76433       29.094673    
    307000   293.8237       317.26287      287.63524     -291.79897      289.14553      29.627632      29.086457    
    308000   293.2075       322.38361      284.01765     -294.94537      289.92383      38.365952      29.088221    
    309000   295.89408      325.84572      279.22443     -295.71445      290.67228      46.621292      29.100952    
    310000   294.66523      320.64399      269.27782     -295.67711      290.59003      51.366168      29.11837     
    311000   295.36047      313.89877      287.73629     -297.81788      289.17039      26.162484      29.114708    
    312000   294.81015      313.78535      277.33745     -299.48835      291.755        36.447907      29.120343    
    313000   294.35493      320.39351      289.86768     -299.913        292.58557      30.525831      29.123573    
    314000   293.98797      307.5362       279.75753     -300.19455      291.10425      27.77867       29.122385    
    315000   294.50895      307.87877      289.06501     -301.37986      293.99316      18.813761      29.128963    
    316000   292.31272      311.27928      283.4912      -305.09555      294.41274      27.788078      29.144743    
    317000   292.15832      319.304        274.57131     -307.4725       295.72172      44.732688      29.151824    
    318000   295.28178      312.91693      296.26938     -305.02748      293.38396      16.647542      29.136114    
    319000   293.65853      298.92895      286.83477     -305.12098      295.91922      12.094176      29.143703    
    320000   294.51174      313.0024       278.48078     -307.12281      297.15432      34.521623      29.153244    
    321000   295.44671      303.12283      287.31952     -307.67745      295.5799       15.803314      29.142358    
    322000   297.35169      321.97071      292.25651     -311.95786      294.06781      29.714193      29.131161    
    323000   294.21672      312.64684      289.29697     -312.25483      294.77835      23.34987       29.120679    
    324000   296.12946      329.45113      291.10236     -314.94985      296.92304      38.348769      29.130535    
    325000   293.40824      308.38439      284.92342     -312.33462      298.32487      23.460978      29.143024    
    326000   296.80757      308.80154      300.27895     -313.74139      294.61183      8.5225928      29.140461    
    327000   295.78231      320.36185      281.25328     -314.00373      298.23229      39.108568      29.135083    
    328000   296.77221      331.51027      280.31502     -318.11628      300.01791      51.195244      29.144049    
    329000   294.86021      320.7665       286.31146     -317.55979      301.45083      34.455039      29.134575    
    330000   295.46778      298.72689      286.5617      -317.78157      301.85192      12.165189      29.132762    
    331000   296.12812      310.71217      285.43259     -321.26624      303.2399       25.279583      29.122391    
    332000   296.13181      303.77755      288.56045     -319.956        304.5033       15.217101      29.114554    
    333000   295.7291       309.95585      283.26795     -324.87938      307.3092       26.687899      29.115036    
    334000   294.6305       303.82051      278.19133     -322.87327      305.5535       25.629178      29.118088    
    335000   298.12446      333.37705      285.96633     -329.92586      307.06609      47.410716      29.129959    
    336000   295.19973      323.00223      277.71754     -326.92061      307.87028      45.284686      29.137119    
    337000   295.21258      310.78389      290.52885     -327.02989      309.20748      20.255041      29.127385    
    338000   297.71751      309.94869      287.03353     -329.1014       308.34101      22.915168      29.124378    
    339000   297.94633      328.81316      277.32631     -331.54941      311.70995      51.486852      29.109412    
    340000   296.28826      314.24747      275.2331      -334.46364      312.1653       39.014371      29.126456    
    341000   296.08982      308.27133      282.52195     -335.27915      312.22259      25.74938       29.117355    
    342000   297.20222      317.47562      288.48311     -335.87803      313.77954      28.992511      29.105478    
    343000   295.1497       306.14079      283.70934     -334.45491      314.20197      22.431453      29.1152      
    344000   295.88281      310.665        301.13447     -334.8762       313.97765      9.5305277      29.104949    
    345000   295.41795      307.89576      282.70842     -336.53005      316.43519      25.187337      29.10254     
    346000   296.48549      314.27118      275.59395     -333.69124      321.67618      38.677228      29.112695    
    347000   294.02962      301.50547      293.33105     -333.17753      319.51013      8.1744148      29.107308    
    348000   294.54545      312.90356      279.77376     -335.61607      321.38948      33.129804      29.097927    
    349000   293.60601      314.6101       280.91624     -338.09725      326.44557      33.693866      29.091452    
    350000   296.90873      303.97346      280.8979      -333.49613      325.61984      23.075559      29.092758    
    351000   295.57763      310.99538      289.46094     -337.84476      326.26347      21.534439      29.083104    
    352000   295.13472      311.33537      287.34869     -339.30136      327.06052      23.986681      29.079682    
    353000   297.02667      310.5459       299.80892     -338.93466      322.85891      10.736973      29.061691    
    354000   295.94986      329.13704      284.54083     -344.27875      323.85637      44.596204      29.05988     
    355000   296.90228      317.57019      286.62916     -342.0431       326.19064      30.941028      29.055098    
    356000   296.99201      317.50339      289.90341     -343.85981      328.3752       27.599983      29.054254    
    357000   296.25928      317.82126      285.27555     -343.28156      327.61199      32.545703      29.057898    
    358000   295.07397      317.68655      295.63749     -343.04121      328.90884      22.04906       29.059739    
    359000   295.61569      324.97338      284.90339     -343.49289      334.52723      40.069995      29.06799     
    360000   295.06985      313.91487      290.51178     -344.49194      335.67864      23.403088      29.081107    
    361000   295.39352      321.18802      285.31273     -345.423        339.38239      35.875291      29.073669    
    362000   293.6335       318.68033      277.56748     -344.84849      338.33768      41.112846      29.068535    
    363000   294.37864      325.35055      286.33403     -346.33523      338.31936      39.016521      29.076175    
    364000   291.7733       314.30977      265.83044     -344.28357      341.83575      48.479325      29.070108    
    365000   292.41053      304.2151       288.7815      -344.63349      342.01988      15.433607      29.065141    
    366000   292.28794      313.51968      284.38413     -345.1989       342.24338      29.135548      29.063452    
    367000   294.45786      309.61593      285.90495     -345.53275      344.63582      23.710979      29.072395    
    368000   291.46143      317.03482      266.69143     -344.44686      349.41529      50.343382      29.071602    
    369000   294.12031      310.56358      283.0596      -346.98281      349.06492      27.503981      29.075489    
    370000   293.09708      320.85791      292.38666     -346.27982      346.08265      28.471256      29.080079    
    371000   293.62912      313.97066      281.40647     -349.3647       350.87448      32.56419       29.073748    
    372000   291.39549      312.703        283.02035     -345.71767      352.51014      29.682654      29.071165    
    373000   293.23931      303.26821      286.38599     -346.63853      350.80911      16.882216      29.080672    
    374000   294.82836      302.31343      285.79408     -349.36441      352.10765      16.519348      29.068079    
    375000   294.42443      307.60342      289.46465     -353.83804      354.25408      18.138765      29.064277    
    376000   292.21541      313.67899      275.68957     -355.57985      354.45259      37.989424      29.071138    
    377000   291.7211       305.80764      281.4741      -352.75989      355.62098      24.333536      29.074689    
    378000   294.53483      311.08847      287.07563     -354.1294       355.48197      24.012839      29.085224    
    379000   291.48032      320.64357      286.29011     -355.59334      356.49322      34.35346       29.073924    
    380000   292.27957      320.75929      278.59227     -358.0812       360.2803       42.167026      29.071284    
    381000   292.78056      315.47721      281.68741     -360.11462      358.56206      33.789803      29.075562    
    382000   294.1488       307.85635      284.13197     -357.93983      360.03092      23.724382      29.077637    
    383000   292.84328      330.99461      282.5414      -361.09045      363.15469      48.453211      29.083217    
    384000   291.83695      309.86606      287.26529     -359.72063      362.88254      22.600773      29.076913    
    385000   293.78419      309.31634      295.98558     -361.20503      360.75349      13.330752      29.088926    
    386000   292.32981      317.53362      281.3541      -361.74845      363.36358      36.179527      29.076148    
    387000   293.34134      312.81271      294.0518      -365.04748      361.25057      18.760906      29.074036    
    388000   292.41868      319.6453       271.31748     -367.23828      366.13046      48.327823      29.084618    
    389000   295.72501      331.94891      285.39878     -368.00087      365.01318      46.550127      29.084509    
    390000   291.7563       320.15457      292.90077     -368.44455      365.50279      27.253802      29.079418    
    391000   295.33347      316.53547      290.95465     -364.35873      366.61803      25.580821      29.081507    
    392000   293.43098      308.94614      289.04034     -365.51395      367.69703      19.905801      29.074684    
    393000   293.67387      305.81983      288.39023     -370.2734       370.02565      17.4296        29.063348    
    394000   292.36489      316.88097      274.17102     -369.49869      373.69096      42.709951      29.067139    
    395000   292.70857      317.85859      291.35029     -371.43624      371.57715      26.508304      29.069389    
    396000   291.52352      308.00065      281.91178     -370.01395      376.59429      26.088877      29.078283    
    397000   291.8602       310.65897      275.97892     -368.31645      376.90104      34.680054      29.08776     
    398000   292.56942      307.1474       285.23303     -370.18177      375.58359      21.914379      29.082453    
    399000   290.20582      309.96106      282.14983     -369.39701      376.82845      27.811232      29.085189    
    400000   294.86805      326.15093      300.59348     -374.68254      375.24766      25.55745       29.087185    
    401000   292.81069      318.46604      281.58962     -375.09741      379.46361      36.876413      29.085117    
    402000   294.1614       305.54778      292.4658      -374.0606       375.84588      13.081982      29.085719    
    403000   291.10638      317.97039      271.2027      -379.56781      381.47125      46.767696      29.08508     
    404000   293.01057      304.22971      277.02252     -376.57145      381.76465      27.207193      29.089203    
    405000   293.39978      310.89995      290.8583      -377.27966      380.74622      20.041645      29.086207    
    406000   292.56713      309.58861      288.11538     -377.93467      383.16587      21.473237      29.07834     
    407000   293.06278      309.30657      304.23072     -379.37481      379.13669      5.075855       29.063712    
    408000   291.99862      301.60987      283.63855     -379.91306      384.42623      17.971315      29.059736    
    409000   291.35383      311.86023      288.25542     -381.59697      384.40576      23.604809      29.063778    
    410000   292.50418      319.52759      287.24016     -382.00353      386.66021      32.287431      29.048414    
    411000   294.33559      314.98089      289.65122     -384.64691      386.56159      25.329665      29.048604    
    412000   292.7524       303.61079      285.76701     -382.36534      389.53521      17.843782      29.066555    
    413000   290.7108       318.67614      293.29605     -384.34607      385.85933      25.380097      29.072929    
    414000   294.71843      322.63408      305.58784     -385.57643      386.98985      17.04624       29.063256    
    415000   291.38505      307.88215      285.923       -386.13353      389.06467      21.959152      29.063119    
    416000   293.24777      320.66958      279.39695     -390.11802      390.04854      41.272631      29.06498     
    417000   293.9227       320.79376      291.51752     -391.15865      391.9725       29.276232      29.068984    
    418000   293.05316      313.96097      297.47822     -394.39892      391.83275      16.482748      29.068576    
    419000   292.86512      309.16215      272.92297     -392.62155      395.73616      36.239179      29.060019    
    420000   293.25172      296.10158      284.96037     -392.7973       396.38394      11.141212      29.056737    
    421000   293.30658      320.008        290.25111     -395.06433      394.08555      29.756889      29.038377    
    422000   292.23603      306.81982      278.05586     -393.35488      396.85426      28.763961      29.036817    
    423000   292.93132      309.59751      283.39029     -395.71222      395.46247      26.207224      29.031814    
    424000   292.33652      301.18791      282.60921     -396.90345      396.30694      18.578693      29.022546    
    425000   296.1805       316.35259      288.25328     -401.11894      397.06101      28.09931       29.017346    
    426000   293.28441      323.73768      281.15946     -404.90932      398.30278      42.578221      29.017104    
    427000   290.80847      315.34976      283.17667     -402.79936      401.67127      32.173087      29.020416    
    428000   292.96974      322.14758      282.99068     -405.00761      402.23834      39.156901      29.006355    
    429000   291.73246      312.12854      292.70475     -405.60182      401.60154      19.423793      29.011081    
    430000   291.81891      305.16741      274.19269     -405.90428      407.16         30.974718      29.024666    
    431000   293.11212      316.56515      292.76673     -407.71938      403.90806      23.798418      29.01627     
    432000   290.42945      312.76365      279.07667     -405.97907      406.62407      33.686985      29.019583    
    433000   292.70676      306.78916      278.38523     -404.60454      406.30389      28.403928      29.026387    
    434000   293.6159       310.68735      284.5971      -407.1316       407.27592      26.090246      29.027921    
    435000   295.77038      330.12058      291.45583     -410.24567      408.4427       38.66475       29.012572    
    436000   294.44029      319.54343      283.05425     -412.17449      412.70926      36.489182      29.018947    
    437000   293.42436      299.23828      287.72108     -407.05105      409.92438      11.517201      29.022417    
    438000   291.40706      304.13059      290.08091     -410.43867      412.67881      14.049679      29.008332    
    439000   293.63463      310.79647      288.62798     -411.37512      411.27664      22.168496      29.00917     
    440000   292.96542      328.95586      278.23739     -415.65316      412.01866      50.71847       29.018165    
    441000   295.02778      336.50364      278.27838     -417.98583      414.57491      58.225257      29.034646    
    442000   295.03016      304.2385       281.09754     -413.45763      411.79536      23.140954      29.035681    
    443000   294.23578      313.57285      273.20046     -414.57092      415.70375      40.372396      29.038127    
    444000   293.67186      307.33951      283.86689     -418.42466      414.47466      23.472616      29.033356    
    445000   293.21372      311.42572      274.87485     -420.67974      417.31734      36.550878      29.038467    
    446000   294.73912      306.89633      291.73793     -416.72539      414.73326      15.158406      29.040544    
    447000   291.93817      317.76187      277.99056     -421.2762       416.11184      39.771315      29.039352    
    448000   292.51091      295.83051      282.87801     -418.27362      420.76981      12.952503      29.041461    
    449000   292.43859      309.24969      304.72722     -422.20878      418.80329      4.5224778      29.035079    
    450000   292.72294      311.74103      272.14331     -420.60936      422.22743      39.59772       29.034944    
    451000   293.20219      323.72877      277.59427     -424.0051       425.29749      46.1345        29.03989     
    452000   292.57693      305.75789      273.89798     -424.08691      425.4314       31.859905      29.040823    
    453000   292.222        313.57695      285.69102     -426.36479      424.52697      27.885931      29.031841    
    454000   292.09898      310.67947      283.6791      -427.68133      425.71966      27.000369      29.042556    
    455000   292.17471      313.60033      287.725       -426.329        427.62142      25.875335      29.058299    
    456000   295.85707      329.30772      283.12721     -431.62082      429.65712      46.180509      29.068566    
    457000   292.5607       308.28443      289.65787     -430.65212      428.89976      18.62656       29.068824    
    458000   294.02441      323.82663      277.33512     -432.87652      430.3604       46.491505      29.072619    
    459000   291.00929      321.39505      270.48801     -435.12154      433.36612      50.907037      29.07196     
    460000   292.5785       297.08651      292.01726     -432.56779      430.85092      5.0692539      29.070094    
    461000   293.82122      320.97061      281.55061     -437.45424      433.05764      39.420004      29.0707      
    462000   295.94728      315.91852      286.84095     -438.07944      430.74354      29.077564      29.068198    
    463000   297.00796      311.14105      288.35449     -436.50928      432.54955      22.78656       29.074856    
    464000   293.66319      308.35921      282.59137     -437.94551      435.1361       25.76784       29.066415    
    465000   294.65949      300.0661       286.35661     -438.90466      433.46107      13.709488      29.052185    
    466000   294.85634      316.6935       283.45633     -440.69845      434.8844       33.237174      29.062016    
    467000   296.51917      314.74985      279.5825      -443.26707      435.04897      35.167352      29.06612     
    468000   293.0121       313.32317      294.58811     -443.24442      430.74823      18.735059      29.062489    
    469000   295.79426      320.30804      291.29704     -447.21757      431.45889      29.010999      29.064973    
    470000   294.43901      318.70424      284.36272     -446.34559      432.48288      34.341521      29.058148    
    471000   295.10227      310.39298      287.24958     -445.57558      435.59112      23.143399      29.06467     
    472000   295.90628      313.68406      293.61856     -450.07759      433.90552      20.065502      29.059422    
    473000   294.2022       310.20634      277.20021     -448.35193      437.81465      33.006128      29.054204    
    474000   294.6896       309.64364      280.96623     -450.769        435.7676       28.677402      29.058552    
    475000   297.34392      319.15293      275.5178      -452.83955      438.60275      43.635122      29.06126     
    476000   296.0358       314.31762      278.28252     -449.46431      438.8525       36.035097      29.05608     
    477000   294.21147      315.79084      302.16504     -452.19822      437.80806      13.625792      29.049425    
    478000   296.8221       311.90472      292.87324     -453.30792      439.30254      19.031484      29.035347    
    479000   297.69627      307.50066      283.80656     -453.99024      440.91956      23.694105      29.025222    
    480000   296.35395      311.27792      287.57459     -453.27476      444.5364       23.703329      29.023529    
    481000   296.76696      318.3477       276.261       -456.63183      446.73954      42.086696      29.026444    
    482000   295.12557      317.10958      279.11416     -460.37819      444.7939       37.995419      29.031237    
    483000   293.85781      312.39592      290.44067     -459.86735      446.50092      21.955247      29.030477    
    484000   294.15197      322.60406      290.76699     -459.11633      447.50476      31.837067      29.018902    
    485000   293.96623      307.79517      275.13527     -460.69472      451.23845      32.659896      29.023127    
    486000   295.07643      322.81543      279.98163     -461.06705      452.27771      42.833803      29.019396    
    487000   295.24465      327.14963      288.21107     -463.90132      450.12667      38.938556      29.027901    
    488000   294.60575      312.39724      299.35353     -464.13513      450.19163      13.043704      29.029022    
    489000   296.47182      325.43412      274.50278     -467.99412      454.85482      50.931333      29.038101    
    490000   296.17139      315.54414      287.95068     -467.23059      454.96542      27.593464      29.039836    
    491000   295.38755      322.42446      284.00802     -470.51939      458.42823      38.416436      29.060953    
    492000   295.47208      320.42594      288.37203     -469.35325      457.29242      32.053906      29.072715    
    493000   295.2301       307.20977      288.54521     -467.41045      457.84149      18.664561      29.06781     
    494000   294.0349       306.81599      289.5341      -469.66215      456.14353      17.281895      29.061375    
    495000   296.53557      307.93645      282.95413     -468.56677      458.91867      24.98232       29.063967    
    496000   294.96524      313.89534      280.58631     -469.76893      459.79966      33.309027      29.06913     
    497000   297.127        321.51683      296.075       -472.24135      459.71329      25.441836      29.06913     
    498000   294.98119      326.98414      285.01444     -472.39043      458.23242      41.969702      29.063663    
    499000   298.50289      331.12018      279.83651     -473.39904      462.94771      51.283671      29.068986    
    500000   294.70004      315.51552      295.43815     -471.55606      460.65676      20.077376      29.07828     
    501000   295.7729       317.2848       292.97714     -473.25185      465.07615      24.307655      29.070569    
    502000   296.37367      324.7845       290.30487     -477.68147      466.02365      34.479625      29.066521    
    503000   294.14427      306.70691      276.79737     -474.17359      467.88192      29.909546      29.088318    
    504000   297.17577      309.30564      292.45806     -477.23846      465.78366      16.847577      29.083555    
    505000   293.25241      320.83195      281.5317      -475.43056      467.52669      39.300242      29.080554    
    506000   296.24426      325.1046       274.55461     -477.78454      467.28413      50.549992      29.079541    
    507000   297.70848      314.26702      292.59718     -475.30435      463.54199      21.669835      29.076983    
    508000   293.04331      320.13982      277.45771     -477.96155      467.08709      42.682115      29.083971    
    509000   293.82131      313.46706      272.96271     -479.5994       467.14998      40.504349      29.082143    
    510000   296.49615      302.10975      283.78963     -479.22808      465.76004      18.320121      29.09809     
    511000   297.88909      319.54558      292.71079     -483.74359      464.4179       26.834791      29.104344    
    512000   299.10218      331.92446      293.50471     -488.50735      469.1059       38.41975       29.107956    
    513000   296.37106      319.14004      290.01419     -487.00999      468.68296      29.125845      29.122039    
    514000   296.32795      320.10786      281.47405     -487.31223      473.12931      38.633815      29.122601    
    515000   294.46375      313.25868      274.54315     -485.89318      474.20037      38.715537      29.123304    
    516000   295.43077      298.13695      285.01203     -485.00468      475.13268      13.124921      29.123287    
    517000   297.68405      331.23428      278.33165     -490.19357      476.9598       52.902627      29.131451    
    518000   295.06492      309.173        296.2633      -487.06661      474.57741      12.909708      29.142036    
    519000   296.52903      312.50468      301.2175      -489.47883      474.27627      11.287175      29.146459    
    520000   295.59442      310.42443      284.24881     -491.38219      477.29731      26.175617      29.145887    
    521000   297.11582      311.35154      278.22003     -491.41956      479.03214      33.131513      29.14565     
    522000   295.71639      311.55796      289.13734     -490.7662       477.0944       22.420623      29.139943    
    523000   295.17068      311.23267      285.6004      -491.58443      479.79325      25.632275      29.134539    
    524000   295.79814      325.3896       274.42678     -493.86414      482.83992      50.962815      29.141452    
    525000   294.68369      321.28935      278.84388     -495.5954       485.68331      42.445474      29.135704    
    526000   295.57172      317.88154      283.01594     -496.48125      483.80979      34.865606      29.141369    
    527000   294.68977      310.37938      293.139       -494.93841      486.30394      17.240377      29.128121    
    528000   297.57233      315.25058      290.54508     -499.63305      486.90217      24.705498      29.126406    
    529000   294.88527      321.80157      287.95407     -498.698        486.96082      33.847498      29.114732    
    530000   295.72431      324.61064      282.98934     -501.141        489.31296      41.621299      29.118961    
    531000   296.72413      304.41901      286.83267     -499.28254      490.45771      17.586334      29.124086    
    532000   294.2711       311.60554      278.87101     -502.60624      492.70969      32.734526      29.131897    
    533000   296.60721      307.49286      293.60442     -500.06658      490.93291      13.88844       29.127104    
    534000   294.80421      315.581        282.41169     -500.66977      497.95203      33.169314      29.124442    
    535000   292.97566      309.15317      291.34633     -499.72189      496.65714      17.806834      29.126487    
    536000   295.67928      319.20971      285.41633     -502.43331      498.16982      33.793385      29.122958    
    537000   296.39904      309.03088      287.01335     -506.04569      496.66904      22.017536      29.108328    
    538000   292.75656      309.92004      286.32704     -505.59099      498.11111      23.593007      29.111236    
    539000   296.39202      326.00984      279.61659     -508.34843      496.01459      46.393248      29.107277    
    540000   292.69993      305.70582      283.83063     -506.01108      499.2887       21.875188      29.097498    
    541000   293.79186      305.45545      279.96172     -506.84566      500.304        25.493734      29.090197    
    542000   295.45642      320.54647      296.44593     -512.43989      501.96198      24.100538      29.081068    
    543000   295.6867       325.18886      300.71418     -515.94898      501.17365      24.474681      29.074638    
    544000   294.66773      322.98064      283.40445     -514.13483      503.53745      39.576194      29.06835     
    545000   294.54298      318.53789      276.21273     -514.25137      503.76662      42.325156      29.070975    
    546000   294.36085      310.29186      289.46864     -513.83885      505.03265      20.823216      29.068349    
    547000   294.6119       314.32501      294.95247     -515.23091      503.10547      19.372544      29.072767    
    548000   296.69289      318.55464      285.50694     -519.44408      505.444        33.047697      29.077078    
    549000   295.54857      311.00894      289.60691     -519.04093      504.0874       21.402035      29.077596    
    550000   296.28234      315.02633      278.30691     -523.43523      507.96513      36.719411      29.082323    
    551000   296.53496      320.08773      287.99346     -523.76068      506.0162       32.094272      29.078378    
    552000   296.35399      324.09669      282.65784     -524.51537      508.43171      41.438847      29.095031    
    553000   297.64233      326.99073      291.10234     -524.20707      507.25998      35.888399      29.097515    
    554000   294.91392      318.85867      281.43037     -523.8984       510.81777      37.428299      29.102252    
    555000   295.84771      306.60632      282.78718     -523.6317       509.42172      23.819137      29.095159    
    556000   297.02049      328.95329      284.18759     -526.11749      510.11174      44.765701      29.091191    
    557000   295.33776      322.2832       279.66247     -526.16347      509.73761      42.62073       29.092907    
    558000   296.59973      312.76111      277.25911     -525.34945      513.23654      35.501998      29.098894    
    559000   297.26673      302.26433      274.08535     -523.0185       510.69161      28.178983      29.097411    
    560000   295.262        308.74137      280.18073     -527.21695      511.93429      28.560633      29.096574    
    561000   297.7483       327.34398      297.52811     -531.75824      508.69466      29.815876      29.099506    
    562000   299.06639      320.37542      289.57366     -532.56884      512.87868      30.801762      29.10658     
    563000   298.26481      313.65721      294.94289     -532.0161       513.25236      18.714317      29.097905    
    564000   296.15999      310.63161      289.52307     -532.93942      513.80093      21.108544      29.08888     
    565000   296.51185      311.58508      283.09327     -534.15006      516.66903      28.491816      29.080763    
    566000   298.83873      318.88358      283.82287     -535.50061      516.5722       35.060705      29.073786    
    567000   301.55349      319.37452      292.55728     -539.21878      515.64803      26.817241      29.071463    
    568000   295.77535      307.4008       298.59189     -537.24381      514.76137      8.8089118      29.075026    
    569000   296.14954      304.70264      280.08706     -540.00516      519.04376      24.615581      29.073123    
    570000   297.99678      327.69949      280.14541     -543.09874      522.47519      47.554078      29.070936    
    571000   297.30118      312.73648      286.75618     -542.42555      522.61965      25.980302      29.077612    
    572000   297.80536      311.91888      285.6687      -539.43257      525.24189      26.250182      29.080161    
    573000   298.91207      310.57331      289.79273     -541.24139      522.16901      20.780572      29.085491    
    574000   297.73689      313.17978      295.33831     -543.06776      521.96544      17.84148       29.076341    
    575000   297.62954      311.10197      294.64919     -545.69443      524.01735      16.452779      29.069826    
    576000   299.5127       308.87545      290.27954     -544.08445      524.6433       18.595906      29.065203    
    577000   292.55566      317.55214      284.13496     -547.98041      528.4948       33.417182      29.065997    
    578000   295.90883      314.86095      287.98635     -550.53499      527.2914       26.874599      29.072816    
    579000   295.74475      316.17154      286.45888     -548.80616      527.44779      29.71266       29.078231    
    580000   298.20379      302.27889      287.04241     -548.65756      529.48665      15.236477      29.079963    
    581000   296.73958      311.93087      291.07741     -552.40891      529.54766      20.853452      29.081747    
    582000   294.39824      297.98204      280.87141     -549.45966      535.29792      17.110635      29.079385    
    583000   295.94655      305.07947      283.98145     -550.41201      535.24252      21.098021      29.085945    
    584000   295.57783      329.33073      291.70035     -552.31053      534.14581      37.630377      29.074698    
    585000   296.3848       313.6012       287.04835     -551.46962      535.16318      26.552845      29.085602    
    586000   298.18063      325.16296      286.34887     -554.32755      535.80253      38.814086      29.080814    
    587000   295.8945       308.80273      280.27925     -552.89042      539.74268      28.523474      29.07934     
    588000   295.36895      313.57724      281.83975     -554.79471      540.45496      31.737492      29.076095    
    589000   296.7288       332.69973      276.36705     -560.79635      540.69293      56.332685      29.071327    
    590000   294.49069      312.76557      279.26829     -555.0872       541.44177      33.497279      29.0645      
    591000   294.73682      318.61624      280.30936     -558.49541      542.93033      38.306878      29.067833    
    592000   296.73866      316.97059      269.77206     -560.75826      547.08331      47.198529      29.066252    
    593000   297.38533      309.83308      280.72286     -559.98083      548.12955      29.110215      29.065993    
    594000   292.60681      309.57158      269.95638     -559.36652      547.3516       39.615204      29.068599    
    595000   293.61704      325.41558      271.02428     -564.10492      550.67809      54.391295      29.071773    
    596000   297.10928      323.37079      288.84574     -564.87126      551.50366      34.525053      29.076379    
    597000   295.7484       324.96315      280.84745     -564.20605      552.39407      44.115697      29.073074    
    598000   295.0078       322.44555      289.84793     -562.86095      550.71941      32.597617      29.069899    
    599000   293.86868      313.96065      283.22769     -566.06555      554.36083      30.732962      29.075832    
    600000   296.07037      319.31636      284.67742     -567.7626       554.34162      34.638948      29.081265    
    601000   297.73519      328.93263      284.34369     -569.84739      553.72271      44.588944      29.09469     
    602000   294.27092      315.50052      290.47551     -567.07751      554.99146      25.025013      29.092604    
    603000   294.97132      324.7573       281.08975     -570.94047      556.4726       43.667554      29.099582    
    604000   296.87943      306.65871      282.50149     -567.16526      558.30533      24.157226      29.101036    
    605000   293.47175      315.97154      286.25435     -566.53974      559.18585      29.717188      29.100255    
    606000   295.91403      325.8602       290.23514     -568.24428      560.39845      35.625068      29.102815    
    607000   294.34808      316.44656      274.22999     -568.08204      561.67559      42.216567      29.115462    
    608000   293.65856      313.47484      279.14343     -565.57313      562.15962      34.331413      29.115902    
    609000   294.67064      319.20638      275.35297     -568.57168      561.50135      43.85341       29.118293    
    610000   294.15584      309.44078      287.73324     -568.7583       562.29924      21.707535      29.109551    
    611000   294.86303      304.99993      292.15814     -566.30062      563.70328      12.841786      29.111425    
    612000   294.73461      312.87858      282.7861      -568.4965       566.06876      30.092472      29.114575    
    613000   293.60072      330.63765      292.64918     -572.23701      565.40552      37.988462      29.122416    
    614000   293.4174       322.55907      283.83137     -574.42532      565.8804       38.727704      29.122603    
    615000   296.75461      323.23334      294.89828     -575.15197      565.7562       28.335054      29.132401    
    616000   294.17842      322.61708      307.83603     -576.52258      563.6765       14.781053      29.141115    
    617000   294.78578      312.08211      282.20025     -575.86274      571.03809      29.881863      29.143094    
    618000   295.83612      323.80284      286.43191     -577.73878      570.08194      37.370933      29.144821    
    619000   294.05537      314.53548      286.09408     -578.76538      568.94405      28.441408      29.13926     
    620000   295.32028      311.23421      301.87971     -577.72058      567.42691      9.3544967      29.136452    
    621000   296.70224      311.76707      299.18964     -580.67388      568.22733      12.577431      29.140934    
    622000   294.87735      302.39422      294.05812     -582.63243      571.30456      8.3361007      29.146402    
    623000   293.75881      321.17711      275.27477     -581.45898      574.53491      45.902337      29.152262    
    624000   294.35324      314.097        288.14758     -582.82466      569.25365      25.949418      29.151994    
    625000   294.9212       315.46608      284.78021     -580.88411      573.22177      30.685865      29.154692    
    626000   291.9744       308.21501      281.20882     -580.90153      574.98599      27.006188      29.146363    
    627000   292.28481      312.30184      285.89547     -584.45391      576.18889      26.406369      29.145662    
    628000   295.93114      311.98564      262.03756     -584.20817      579.13973      49.948083      29.149614    
    629000   294.58846      309.71412      281.47905     -588.50959      578.9558       28.235064      29.147613    
    630000   295.24286      321.46144      283.78126     -587.33129      579.42228      37.680183      29.152022    
    631000   293.22343      304.99622      280.29225     -586.80565      580.07348      24.703977      29.148204    
    632000   294.62209      314.49451      277.88316     -587.92018      581.25895      36.611352      29.141618    
    633000   293.61402      316.75062      289.38191     -592.52271      581.2137       27.368719      29.143029    
    634000   295.91463      320.58668      292.2624      -595.23346      583.86341      28.32428       29.143283    
    635000   294.77865      322.15806      282.48101     -594.44448      585.88697      39.677051      29.153855    
    636000   295.60822      314.10206      291.17674     -593.68256      586.87583      22.925325      29.147717    
    637000   294.76738      321.4184       286.3002      -596.85316      588.43612      35.118196      29.147084    
    638000   295.20119      323.49752      281.01966     -597.82907      590.94994      42.477863      29.153151    
    639000   295.60851      327.10913      290.36688     -598.30937      590.40281      36.742254      29.153801    
    640000   293.57347      317.25151      277.64951     -597.98231      591.99394      39.601994      29.154392    
    641000   292.87068      334.20606      279.67776     -601.46677      593.46273      54.528304      29.163615    
    642000   293.49635      307.79861      274.98847     -598.41843      595.43368      32.810148      29.167383    
    643000   294.46005      316.98957      281.89243     -602.12236      593.30947      35.097138      29.159084    
    644000   293.46259      317.80336      277.00392     -603.76862      595.95519      40.799442      29.159798    
    645000   294.96964      326.21779      293.14994     -605.15284      597.22819      33.067853      29.165513    
    646000   293.72682      314.02388      289.26169     -602.74645      596.57399      24.762193      29.172851    
    647000   294.96742      305.48309      277.74294     -602.68891      598.0704       27.740149      29.170704    
    648000   294.26625      324.03004      272.22881     -605.65373      600.91322      51.801227      29.167149    
    649000   296.53749      327.80079      280.8476      -604.60917      597.92773      46.95319       29.168058    
    650000   294.39476      314.76239      285.44967     -604.89626      600.215        29.312716      29.169266    
    651000   294.08423      314.29047      295.47402     -604.81335      598.98846      18.816443      29.166656    
    652000   294.17664      298.57158      276.74988     -606.8297       602.71667      21.821696      29.171836    
    653000   295.25741      317.981        285.45221     -609.18632      601.27002      32.52879       29.175012    
    654000   291.68694      304.42555      284.00828     -606.90631      602.90669      20.417272      29.171461    
    655000   294.95143      317.01726      272.03439     -613.70913      606.66187      44.982871      29.169269    
    656000   293.56497      319.63582      291.56724     -612.5034       607.68487      28.068575      29.171633    
    657000   294.17744      322.90311      290.16873     -615.78146      608.81206      32.734382      29.178144    
    658000   293.48023      318.88694      293.4173      -616.58625      609.55642      25.469633      29.189157    
    659000   292.64127      307.88006      295.21383     -617.16354      609.08561      12.666232      29.191279    
    660000   296.70689      312.3878       278.97623     -618.91231      609.80345      33.411569      29.184819    
    661000   295.99148      317.52065      267.58769     -621.95637      614.18478      49.932963      29.188254    
    662000   294.24924      310.74719      290.74247     -622.55326      609.83849      20.004721      29.190915    
    663000   292.62454      309.03815      276.57582     -622.44335      611.91154      32.462335      29.195741    
    664000   296.49601      309.57798      281.25404     -622.65043      614.2047       28.323942      29.203825    
    665000   296.18238      328.9996       287.59639     -626.70976      612.57961      41.403214      29.207177    
    666000   295.91967      317.4411       291.43965     -623.18739      611.51212      26.001445      29.206732    
    667000   295.30915      323.32758      287.88744     -627.35578      614.92806      35.440135      29.207425    
    668000   294.7432       306.15688      288.0617      -624.53492      615.88412      18.095176      29.203737    
    669000   293.6604       327.91717      286.67782     -628.81772      618.88964      41.239349      29.19834     
    670000   293.33724      315.87531      269.05609     -630.29669      621.45419      46.819226      29.202568    
    671000   294.82285      318.76075      288.0461      -630.1828       621.77962      30.714653      29.201732    
    672000   293.51905      312.62982      274.9103      -629.69836      621.96611      37.719522      29.208922    
    673000   297.30276      317.69046      290.28971     -630.55752      624.17616      27.400752      29.216942    
    674000   291.65532      307.36316      278.51644     -629.41849      626.64715      28.846726      29.215863    
    675000   293.56191      305.64466      281.14177     -632.40624      626.63806      24.502894      29.216481    
    676000   293.96939      309.41748      278.23996     -633.83315      626.84029      31.177518      29.209472    
    677000   295.08176      315.46178      297.2578      -639.07316      625.50664      18.203982      29.216715    
    678000   294.75939      317.4935       278.75019     -638.9913       631.70071      38.743302      29.218323    
    679000   296.96388      323.35501      302.09815     -638.91534      630.04577      21.256866      29.225653    
    680000   293.81242      319.84634      278.191       -642.22755      633.95607      41.655343      29.232673    
    681000   295.01465      312.15109      285.50578     -641.40944      634.37949      26.645303      29.241061    
    682000   293.12435      301.00754      274.5936      -641.04249      638.49773      26.41394       29.240714    
    683000   292.95709      318.67075      272.25068     -641.45316      637.22031      46.420073      29.244645    
    684000   294.23845      297.45292      291.40369     -639.34648      637.18494      6.0492296      29.241518    
    685000   293.07893      306.82969      284.7254      -638.73378      639.85998      22.10429       29.243097    
    686000   292.91203      309.70023      288.85422     -641.2487       638.62918      20.846014      29.243399    
    687000   294.6473       327.1643       286.53864     -646.12226      641.30031      40.625652      29.243702    
    688000   293.39982      307.64734      291.04191     -643.14174      641.97685      16.605424      29.242537    
    689000   295.12801      319.10995      298.22832     -646.22946      638.1142       20.881629      29.244837    
    690000   294.99409      314.01532      277.47178     -646.27872      642.71132      36.54354       29.249195    
    691000   292.05104      319.54985      272.31055     -644.26231      645.98836      47.239299      29.256102    
    692000   293.67505      318.14968      283.83112     -646.34508      646.1131       34.31856       29.254187    
    693000   293.91602      313.80403      277.52861     -647.1248       645.86714      36.275416      29.260463    
    694000   293.91646      326.33419      281.78839     -650.20339      648.07994      44.545793      29.259833    
    695000   294.1764       317.63006      283.63666     -648.24567      648.54028      33.993403      29.262063    
    696000   293.61951      327.45216      282.06129     -648.89284      646.86164      45.390873      29.261693    
    697000   290.75686      314.31574      282.19008     -649.32377      649.24549      32.125667      29.267765    
    698000   292.53667      313.4289       280.10297     -649.89346      648.18523      33.325935      29.268811    
    699000   294.80502      323.56494      295.80417     -652.98792      646.66531      27.760769      29.272522    
    700000   292.32401      318.98221      294.03808     -649.38023      645.61377      24.944125      29.278479    
    701000   293.79163      319.34483      281.40077     -651.20217      648.32543      37.944057      29.271278    
    702000   294.74079      322.26038      284.6536      -655.44719      650.52115      37.606785      29.269206    
    703000   293.59455      315.54771      288.49469     -654.03618      651.48335      27.053023      29.263679    
    704000   294.39468      317.83974      276.17052     -655.36223      653.50831      41.669216      29.277191    
    705000   293.03672      310.67062      281.49389     -656.29521      652.64734      29.176731      29.276709    
    706000   291.96425      311.13353      290.38177     -658.37953      650.54371      20.751763      29.276432    
    707000   293.00549      314.77884      284.84179     -660.52254      653.49565      29.937047      29.267496    
    708000   293.95308      318.50397      280.25942     -661.29016      657.44166      38.244549      29.265117    
    709000   293.95322      324.16634      285.91881     -661.98103      655.96628      38.247535      29.269137    
    710000   294.35296      302.12703      280.72783     -662.64912      658.80623      21.399201      29.263933    
    711000   292.64514      325.53958      276.96263     -661.32597      658.20297      48.57695       29.265618    
    712000   294.94153      320.5499       277.27933     -665.38915      658.81566      43.270571      29.267537    
    713000   291.66566      311.93537      275.95578     -664.67273      660.71981      35.979589      29.267468    
    714000   294.18985      318.99815      288.63461     -665.34176      662.43909      30.363548      29.27309     
    715000   291.55188      311.94203      291.22681     -666.7743       661.65383      20.715223      29.276111    
    716000   294.98329      322.60695      279.97773     -668.68714      663.33459      42.629225      29.276891    
    717000   294.56765      310.24767      279.68631     -668.44103      663.79011      30.561359      29.283205    
    718000   295.06879      317.17252      282.75846     -668.80243      659.87103      34.414054      29.29036     
    719000   296.0299       310.57388      292.40573     -666.96896      660.77072      18.168151      29.288869    
    720000   293.99643      312.12355      279.37149     -670.78176      665.77833      32.752059      29.28904     
    721000   293.51305      308.06663      286.61303     -671.98165      664.08056      21.453597      29.288285    
    722000   296.81159      320.96274      288.41141     -674.97405      664.85859      32.551329      29.293539    
    723000   292.82978      322.04739      272.73234     -675.2877       668.47157      49.315044      29.291464    
    724000   293.95896      307.01141      285.66044     -672.75875      666.40905      21.350974      29.291438    
    725000   293.92187      325.83685      286.12546     -673.88076      667.22811      39.711396      29.284028    
    726000   293.8667       314.68161      288.50686     -675.54347      669.57188      26.174752      29.281219    
    727000   296.1657       309.46046      279.90117     -676.03207      671.83751      29.559296      29.279676    
    728000   295.30859      312.57774      289.13332     -677.12985      671.61503      23.444421      29.279517    
    729000   295.43723      305.02077      286.35125     -679.61905      673.59905      18.669518      29.280265    
    730000   295.68257      322.09416      276.86332     -680.37511      674.99984      45.230838      29.284208    
    731000   292.96883      315.01007      286.33222     -680.93665      672.51219      28.67785       29.283785    
    732000   293.73914      312.55197      274.58811     -680.70046      677.51175      37.963854      29.279114    
    733000   293.72289      320.32261      286.7703      -685.0018       675.69867      33.55231       29.282353    
    734000   295.79659      309.52144      284.27        -682.09991      677.26298      25.251438      29.288184    
    735000   293.75291      307.50346      290.0841      -684.89334      677.41054      17.419356      29.286259    
    736000   295.7085       324.21164      300.07337     -683.80656      677.47495      24.138273      29.285567    
    737000   293.82785      312.86592      291.27903     -684.45504      682.11306      21.586893      29.284038    
    738000   291.89551      303.37865      288.70036     -684.81413      682.15442      14.678298      29.289877    
    739000   292.24509      302.69464      297.86953     -686.03575      681.47758      4.8251041      29.295592    
    740000   292.72256      319.04599      307.40081     -687.28837      679.99301      11.645172      29.29425     
    741000   291.57341      312.44814      278.89728     -689.03857      686.44762      33.550859      29.288879    
    742000   292.29315      307.4492       287.4451      -686.99834      685.34988      20.004105      29.292013    
    743000   292.33272      331.78034      292.03743     -690.26369      687.36694      39.74291       29.297456    
    744000   293.79458      316.55849      286.05149     -690.39867      689.42934      30.506993      29.297699    
    745000   293.6033       323.83358      268.75431     -692.2185       691.91678      55.079266      29.30188     
    746000   293.6605       327.05549      271.38749     -696.9021       693.67912      55.668002      29.302615    
    747000   292.94172      312.39189      289.75158     -697.12071      690.81586      22.640315      29.311156    
    748000   295.61231      322.42946      292.94878     -698.86196      691.49167      29.480681      29.311148    
    749000   294.234        311.94598      288.56217     -698.73405      693.05081      23.383816      29.310919    
    750000   294.50062      311.03305      289.17869     -701.25695      694.26078      21.854367      29.308893    
    751000   293.5229       313.01721      298.50366     -699.72822      694.33296      14.513553      29.31074     
    752000   294.08165      305.56451      293.71203     -700.34875      697.72809      11.852472      29.308796    
    753000   293.88955      312.31719      287.42652     -700.41         696.64753      24.89067       29.313309    
    754000   292.17537      313.73158      289.02765     -703.64596      695.52957      24.703932      29.314657    
    755000   293.50295      329.32284      274.64558     -705.25353      702.17571      54.677253      29.311489    
    756000   293.37981      311.68325      286.55131     -704.45243      700.42621      25.131941      29.315931    
    757000   295.38475      304.52257      305.24986     -703.54244      703.06764     -0.72729669     29.307433    
    758000   294.53909      325.53136      284.86694     -706.43229      707.35682      40.664424      29.31163     
    759000   292.87635      311.78171      283.14207     -705.94529      705.52278      28.639636      29.315702    
    760000   295.16305      314.74513      293.68458     -707.22558      706.89575      21.060545      29.316748    
    761000   292.27354      317.82435      290.14305     -709.2637       705.02808      27.681305      29.318639    
    762000   294.56357      326.86072      292.33057     -713.35215      707.08457      34.530143      29.315555    
    763000   294.53137      308.73318      278.21307     -712.68924      709.53243      30.520103      29.315645    
    764000   296.70849      331.70483      297.69837     -715.60176      704.29379      34.006458      29.318419    
    765000   293.94151      313.29382      278.63743     -714.03726      708.15245      34.656387      29.316696    
    766000   294.40986      313.98929      287.19335     -714.78266      704.9088       26.79594       29.315629    
    767000   294.91923      315.30098      277.49437     -713.68001      705.587        37.806605      29.317276    
    768000   293.09766      320.78329      283.61464     -717.78241      708.01819      37.168649      29.320428    
    769000   294.36846      306.08299      292.23603     -713.68924      710.27114      13.846958      29.324164    
    770000   292.43376      303.21489      287.21514     -715.03376      708.4466       15.999751      29.327228    
    771000   295.70938      310.17047      290.7108      -716.05453      710.44681      19.459669      29.324312    
    772000   293.93049      331.46749      277.35113     -720.82899      710.38458      54.116365      29.325835    
    773000   294.98565      326.51111      278.36327     -722.20526      712.78744      48.147847      29.336712    
    774000   293.54951      323.80522      284.02956     -722.27487      712.10967      39.775655      29.338721    
    775000   295.06858      312.00198      284.37358     -720.61974      712.19423      27.628402      29.349525    
    776000   293.87819      309.28045      287.13483     -722.23208      713.1123       22.145612      29.339432    
    777000   295.61328      315.77781      297.09572     -725.7465       714.62567      18.682095      29.335968    
    778000   295.45293      311.72791      286.23078     -727.64796      715.65543      25.497125      29.336757    
    779000   296.15172      306.18068      280.62995     -726.69436      715.70508      25.550724      29.338301    
    780000   294.92187      310.69158      281.22572     -729.98094      714.73922      29.465861      29.334156    
    781000   295.11989      310.38862      292.39877     -730.11477      716.61018      17.989848      29.331327    
    782000   295.72659      312.29205      283.13846     -730.45915      719.40759      29.15359       29.332349    
    783000   297.56269      324.69478      286.17291     -734.51296      718.66359      38.521865      29.329814    
    784000   294.00218      318.9344       285.70079     -734.18983      721.48432      33.233608      29.336256    
    785000   293.37573      319.67443      280.40867     -732.83651      723.47178      39.265763      29.337467    
    786000   293.50686      316.8484       287.59751     -734.93473      724.81533      29.250889      29.341034    
    787000   295.27642      292.4973       291.64447     -732.15168      725.11449      0.85283322     29.344398    
    788000   295.52895      308.38578      295.40806     -733.37461      726.15898      12.977722      29.344086    
    789000   297.10242      323.15572      298.81456     -736.3069       726.06291      24.34116       29.345555    
    790000   294.96044      322.99323      289.3949      -735.64282      724.92817      33.598334      29.34149     
    791000   295.4133       316.62324      285.81615     -738.27875      728.52487      30.807095      29.336611    
    792000   294.25431      316.84408      288.18349     -738.15906      729.2994       28.660596      29.342039    
    793000   296.55864      333.40214      281.55198     -742.26278      730.0674       51.850161      29.34438     
    794000   294.51707      317.40265      276.11483     -742.58723      733.39258      41.287819      29.348233    
    795000   294.59066      326.47286      278.76303     -744.44562      733.16647      47.709837      29.3517      
    796000   296.33085      325.23813      294.5622      -746.28308      732.43739      30.675934      29.353558    
    797000   294.07803      310.48795      293.34039     -748.13368      736.4958       17.14756       29.355355    
    798000   295.08254      301.49371      289.932       -749.47954      737.20975      11.561708      29.357131    
    799000   296.1178       317.28156      300.23132     -753.83871      737.98063      17.050246      29.363897    
    800000   296.02365      309.5537       292.68332     -751.00115      736.62795      16.870376      29.361153    
    801000   296.13129      310.48767      285.13403     -752.89692      739.3505       25.353645      29.361473    
    802000   294.41824      314.70708      272.22382     -752.18662      741.94712      42.483259      29.360129    
    803000   295.86135      304.07808      294.59583     -752.00412      739.70912      9.4822525      29.357374    
    804000   294.17552      304.78759      278.0735      -750.89153      744.16871      26.714088      29.364594    
    805000   294.48703      318.77448      293.01222     -755.65919      743.71072      25.762258      29.367613    
    806000   297.31523      326.84209      276.56644     -755.87056      745.86941      50.275645      29.369988    
    807000   294.21266      302.55288      287.38279     -754.29384      743.36988      15.170098      29.371169    
    808000   292.87156      306.85698      287.40235     -754.79178      745.35714      19.454635      29.373188    
    809000   292.48202      316.66716      275.16769     -757.53021      747.62605      41.499469      29.374325    
    810000   295.14063      317.43862      279.4284      -758.49224      748.67713      38.010213      29.374007    
    811000   295.26178      318.98565      296.66699     -757.60595      745.72183      22.318661      29.37689     
    812000   297.60241      332.0418       296.97204     -761.50214      747.18027      35.069757      29.370899    
    813000   295.26         296.7801       284.97304     -758.14037      749.16817      11.807065      29.373014    
    814000   294.41221      323.8549       279.87341     -759.91788      750.12523      43.98149       29.374286    
    815000   295.41375      325.76976      285.36277     -759.27355      750.48171      40.406993      29.372521    
    816000   295.99274      313.01387      284.43445     -759.93824      749.95954      28.579423      29.378186    
    817000   296.69504      311.51768      274.64145     -757.45129      752.22968      36.876228      29.375881    
    818000   293.52711      306.96816      281.22437     -761.25897      750.79414      25.743783      29.379496    
    819000   294.27281      316.02597      291.56458     -764.92596      749.16872      24.461389      29.378007    
    820000   295.45283      306.08879      302.93276     -768.00782      750.65075      3.1560271      29.373503    
    821000   295.79695      313.77834      296.90805     -767.31242      751.98828      16.870284      29.369019    
    822000   294.15849      323.12726      299.83759     -767.5792       754.85371      23.289666      29.368538    
    823000   294.61041      307.95674      270.30358     -765.23725      756.22703      37.653155      29.358503    
    824000   294.25609      321.40398      280.4374      -770.06342      758.78022      40.966572      29.352436    
    825000   294.84181      324.45556      281.59452     -767.14662      760.0805       42.861046      29.360196    
    826000   295.1758       316.42806      282.7832      -770.25789      759.23613      33.644856      29.365399    
    827000   293.78673      304.08137      287.25423     -765.17855      760.34351      16.827137      29.371103    
    828000   296.20258      316.59666      292.4013      -771.24118      762.05761      24.195366      29.375469    
    829000   295.02614      312.75875      285.30217     -771.02077      760.6784       27.456578      29.379677    
    830000   294.06049      313.92334      279.37646     -770.1017       764.56545      34.546873      29.376786    
    831000   294.92807      326.52339      284.44267     -773.2227       765.1521       42.08072       29.377215    
    832000   295.54385      316.68383      289.70754     -773.28366      765.60257      26.976285      29.370239    
    833000   294.08865      299.72533      288.70818     -772.38949      766.48642      11.017153      29.367085    
    834000   294.14757      306.939        280.18627     -774.06411      768.14564      26.752727      29.362824    
    835000   293.60781      319.55612      300.50866     -776.36482      766.44677      19.047457      29.363244    
    836000   297.08477      309.12213      283.49669     -777.32122      771.12231      25.62545       29.362912    
    837000   293.57061      322.17718      280.84868     -779.95575      769.51322      41.328495      29.364998    
    838000   294.54753      317.18953      286.80828     -778.44945      771.17384      30.381253      29.360128    
    839000   293.93737      329.79188      283.03987     -779.63974      775.81848      46.752013      29.368552    
    840000   294.11921      307.81516      290.93534     -778.23537      772.24221      16.879824      29.366169    
    841000   294.66644      316.2662       289.83793     -782.42286      776.48443      26.428271      29.371848    
    842000   294.82965      304.27528      282.34814     -784.09285      774.61341      21.92714       29.367075    
    843000   294.25451      309.22679      284.90342     -784.99105      778.56862      24.323378      29.365251    
    844000   295.15315      319.60578      270.70095     -788.54211      779.55298      48.904831      29.370954    
    845000   294.29925      299.04896      279.89524     -787.76408      780.66412      19.153719      29.370705    
    846000   295.54823      311.40184      280.30085     -792.24236      778.62376      31.100991      29.374714    
    847000   296.42162      313.40251      285.3628      -792.3864       778.49057      28.039718      29.372542    
    848000   295.72982      306.82557      290.30234     -793.08783      775.72758      16.523236      29.369892    
    849000   297.00298      316.75044      283.01238     -794.01046      778.40144      33.738057      29.371646    
    850000   296.53532      324.86382      284.77375     -795.20121      778.13349      40.090073      29.377355    
    851000   295.5881       301.78461      282.86021     -791.30655      780.05893      18.924392      29.378185    
    852000   297.72801      315.9746       287.83219     -796.84276      778.07707      28.142404      29.380598    
    853000   297.80099      327.52542      293.21885     -797.07975      779.08888      34.306575      29.382725    
    854000   295.61186      308.32693      290.52632     -797.69946      778.80292      17.800606      29.384667    
    855000   297.20773      316.45552      283.1101      -794.84799      781.77558      33.345416      29.379593    
    856000   294.57244      316.05353      286.54811     -794.79694      780.67153      29.505428      29.377783    
    857000   294.79787      318.1278       281.61032     -799.15219      781.2452       36.517481      29.378384    
    858000   295.52853      325.65537      276.48153     -797.47353      782.75421      49.173843      29.380525    
    859000   295.50472      312.5201       289.37499     -797.28946      781.28819      23.145109      29.382889    
    860000   294.6886       320.82558      271.13146     -799.30903      785.45807      49.694119      29.382775    
    861000   292.98115      307.37782      293.4131      -800.90556      784.51973      13.964726      29.38534     
    862000   296.69618      317.01596      291.32224     -800.96828      784.20249      25.693721      29.384157    
    863000   298.31972      314.06409      286.71755     -802.99968      786.91893      27.34654       29.381681    
    864000   296.41748      334.04679      284.40886     -805.3565       787.36719      49.637927      29.38564     
    865000   295.49819      313.18781      273.57918     -804.13077      789.53788      39.608636      29.39189     
    866000   295.76905      306.44966      282.36038     -801.82124      788.636        24.089283      29.395255    
    867000   296.60025      308.02322      282.21098     -803.95952      791.79062      25.812243      29.395174    
    868000   297.03025      317.91116      280.14762     -807.45809      789.91768      37.763536      29.398458    
    869000   295.98576      314.18248      277.67035     -809.08545      792.05635      36.51213       29.397012    
    870000   294.87581      315.72975      276.21241     -810.72115      795.07308      39.517338      29.394263    
    871000   294.72608      316.48872      282.06729     -810.55093      792.56968      34.421422      29.402783    
    872000   295.69697      315.55342      275.7524      -809.50707      795.44145      39.801014      29.398794    
    873000   294.99727      310.5852       277.81385     -810.60193      796.10942      32.771353      29.402037    
    874000   296.63374      318.71157      285.12233     -812.15678      796.38728      33.589238      29.395663    
    875000   294.43926      304.25071      295.63807     -811.38795      797.0551       8.6126381      29.395458    
    876000   296.83994      322.53889      283.21995     -812.88944      798.62593      39.318938      29.393291    
    877000   296.17994      311.19153      292.07555     -813.32556      802.25761      19.115974      29.392877    
    878000   294.8705       318.4753       292.16462     -814.34039      801.02538      26.310686      29.391746    
    879000   294.90376      314.34345      278.68865     -815.58371      804.0357       35.654807      29.39434     
    880000   294.16226      317.67593      282.17144     -814.49239      802.17354      35.504495      29.396953    
    881000   295.72571      322.39776      297.16498     -815.42274      801.16824      25.232786      29.404195    
    882000   296.0574       316.56355      279.15159     -814.51374      803.07471      37.411958      29.401716    
    883000   296.63214      321.97422      279.91013     -818.33448      805.71515      42.064088      29.408129    
    884000   296.48809      307.3776       290.40093     -818.43282      806.31958      16.97667       29.401624    
    885000   296.2983       316.78969      288.43929     -819.424        807.2514       28.350401      29.397997    
    886000   295.56465      312.49985      287.15433     -821.26036      807.17807      25.345525      29.395105    
    887000   295.18433      319.24168      293.91271     -824.30325      804.67051      25.32898       29.394273    
    888000   295.80939      308.21956      286.75006     -822.08318      811.16568      21.469504      29.392176    
    889000   297.23744      312.29661      290.22061     -826.15148      810.79715      22.076005      29.389095    
    890000   295.52596      311.13583      295.0487      -827.57843      809.13461      16.087134      29.387034    
    891000   297.83287      318.25513      288.43597     -829.14482      812.53949      29.819161      29.383936    
    892000   295.54645      315.04697      282.46704     -830.90302      815.93152      32.579925      29.378116    
    893000   295.75622      305.64282      297.63168     -830.71327      814.83948      8.0111387      29.377169    
    894000   296.49706      322.39408      288.91171     -833.53011      814.84714      33.482365      29.376145    
    895000   296.06573      317.79378      285.65338     -836.26041      816.24125      32.140392      29.376155    
    896000   297.45029      313.69342      292.90057     -834.08087      816.1327       20.792848      29.379349    
    897000   293.10591      311.26268      283.69933     -836.13268      821.26382      27.56335       29.381128    
    898000   294.65362      321.38263      280.47037     -835.53753      821.50796      40.912253      29.383808    
    899000   297.28617      319.60035      277.0318      -837.93188      824.67283      42.568544      29.384023    
    900000   295.67221      294.22695      281.01613     -835.60017      824.55072      13.210824      29.381693    
    901000   297.52884      335.14948      294.831       -840.41899      825.09734      40.318485      29.380433    
    902000   294.64548      309.39816      289.04307     -843.56511      826.87785      20.355082      29.379914    
    903000   294.92433      301.96531      284.87834     -843.73493      829.12882      17.086967      29.383242    
    904000   295.76516      311.16237      287.01448     -843.50626      831.59014      24.147891      29.380793    
    905000   296.95522      309.16563      286.42733     -845.55983      831.02691      22.7383        29.387388    
    906000   296.25459      307.65059      283.51012     -841.1908       832.52511      24.140478      29.386785    
    907000   297.82916      307.38222      293.97614     -844.28786      829.53461      13.406075      29.386316    
    908000   296.92973      314.66847      287.67054     -843.40362      830.70915      26.997934      29.383093    
    909000   293.27694      312.0654       278.3169      -845.95672      830.55844      33.748501      29.387608    
    910000   296.60366      319.74698      286.35726     -845.04595      832.72337      33.389714      29.384847    
    911000   297.40927      316.05787      287.50737     -847.14223      831.84325      28.550497      29.383208    
    912000   295.24972      307.00413      288.59777     -846.76319      832.05302      18.406356      29.380782    
    913000   295.19987      305.76261      279.3899      -847.04865      834.87067      26.372711      29.381105    
    914000   294.34538      303.11254      289.51376     -847.77091      836.93103      13.59878       29.37899     
    915000   294.93149      307.5338       290.61813     -848.80865      837.55927      16.915665      29.374792    
    916000   294.64278      312.10374      271.3942      -849.16582      841.49333      40.709546      29.37695     
    917000   296.07775      320.15565      287.09352     -850.08673      839.70457      33.062131      29.375533    
    918000   296.11091      317.99112      291.71079     -852.88854      838.52824      26.280333      29.36781     
    919000   293.80972      317.71951      289.60145     -855.10224      840.67875      28.118056      29.374565    
    920000   297.39688      323.61896      293.78995     -858.90961      839.77867      29.829015      29.37687     
    921000   297.23148      323.88824      290.92932     -858.5833       839.60245      32.958922      29.378211    
    922000   295.52833      310.81822      275.53246     -856.41679      842.11747      35.285755      29.378041    
    923000   296.00787      314.54136      289.76167     -858.63761      839.2924       24.779693      29.372225    
    924000   296.86376      299.27926      284.9924      -858.16606      840.63377      14.286869      29.369742    
    925000   299.67288      324.26827      298.553       -863.70878      839.28465      25.715268      29.370924    
    926000   296.63115      300.31866      273.62209     -862.53999      843.8508       26.696567      29.376094    
    927000   295.79576      315.61856      288.51298     -862.25821      842.00823      27.105574      29.383315    
    928000   296.35861      322.72474      279.33996     -865.02778      844.59827      43.38478       29.381358    
    929000   297.36126      322.89879      285.79936     -866.60749      845.03729      37.099433      29.377569    
    930000   296.29266      316.88091      276.95423     -868.6246       845.91953      39.926684      29.380123    
    931000   296.08388      316.92694      300.44602     -867.72362      843.60861      16.480917      29.378891    
    932000   296.73933      304.68722      294.82397     -869.14717      847.25601      9.8632538      29.382428    
    933000   296.6252       305.75972      296.12073     -868.55177      847.88977      9.6389878      29.37681     
    934000   293.54775      309.92045      282.94056     -869.95647      848.86089      26.979886      29.376173    
    935000   298.65158      325.10478      282.46        -872.27264      850.40603      42.644778      29.377686    
    936000   297.33832      314.17046      275.24677     -871.14754      852.0065       38.923689      29.382858    
    937000   296.03225      316.5751       291.94498     -871.61879      850.11947      24.630116      29.383748    
    938000   296.26525      312.99693      286.28628     -872.26148      851.53069      26.710644      29.384206    
    939000   294.11984      308.1943       280.55559     -871.85475      854.77978      27.638717      29.387377    
    940000   293.5022       305.6244       296.65526     -870.69801      853.024        8.9691384      29.383766    
    941000   296.6394       308.71368      281.38448     -872.36698      856.95252      27.329206      29.390821    
    942000   298.79119      323.56671      290.20439     -876.45501      855.18381      33.362322      29.389478    
    943000   295.11176      307.54949      264.50411     -873.72317      860.0994       43.045375      29.387243    
    944000   295.65873      312.76815      281.80362     -875.46074      854.96743      30.964531      29.385412    
    945000   296.61906      300.001        301.08864     -876.08851      854.45183     -1.0876381      29.381924    
    946000   297.32549      314.06866      289.14505     -876.31989      857.60191      24.923607      29.381107    
    947000   298.18129      314.99961      304.90698     -875.80475      858.29848      10.09263       29.379215    
    948000   297.13119      314.51154      287.72391     -878.71953      858.18739      26.787627      29.376386    
    949000   297.64614      329.70191      295.94537     -880.90555      857.12268      33.756539      29.372049    
    950000   295.51043      317.66255      277.51819     -880.54804      863.15017      40.144357      29.37566     
    951000   296.2539       318.93051      268.77499     -880.53576      862.70639      50.155514      29.371664    
    952000   297.12813      322.08411      279.0763      -884.77306      860.94519      43.007805      29.367344    
    953000   296.40083      318.60039      285.40932     -887.05965      862.87075      33.19107       29.367767    
    954000   298.36723      317.35391      289.93194     -884.28766      862.85691      27.421969      29.366522    
    955000   299.95768      301.23631      291.30717     -885.05672      862.48924      9.9291318      29.367732    
    956000   299.63226      318.81685      276.28543     -890.12603      866.01266      42.531415      29.366811    
    957000   298.08996      332.49356      278.64378     -890.32665      865.91509      53.849781      29.365873    
    958000   299.14907      303.78627      298.37356     -886.81466      863.08635      5.4127106      29.366135    
    959000   297.70822      328.85325      289.69261     -891.15955      868.72534      39.160642      29.365202    
    960000   298.95783      316.98664      282.5641      -890.31143      867.23297      34.422541      29.362403    
    961000   295.40752      303.14851      297.53457     -891.06612      865.5504       5.613934       29.358085    
    962000   297.11887      314.98126      290.20409     -891.05         870.53247      24.777169      29.360923    
    963000   297.22001      320.2822       275.51021     -894.01558      873.93556      44.77199       29.364234    
    964000   296.38568      310.53633      300.10973     -893.19489      872.19026      10.426595      29.365617    
    965000   296.09681      317.05605      283.74158     -893.05252      874.4947       33.314473      29.363169    
    966000   295.32524      307.7362       273.56741     -894.99156      876.95559      34.168796      29.363007    
    967000   294.91161      309.48257      278.14462     -895.62512      877.81913      31.337952      29.366321    
    968000   296.68516      311.82864      290.007       -897.23928      877.81771      21.821637      29.363299    
    969000   295.6959       310.97826      298.88778     -897.18896      878.69293      12.090475      29.36971     
    970000   296.43391      320.31399      286.48236     -901.06404      881.33487      33.831628      29.372374    
    971000   297.40311      306.7448       293.35105     -900.0372       879.88717      13.393746      29.370718    
    972000   300.16548      333.61478      281.73942     -905.27653      881.11666      51.875362      29.371324    
    973000   297.40471      311.03419      289.94504     -901.13829      881.08808      21.08915       29.374068    
    974000   299.62938      332.24841      284.837       -904.79087      881.25396      47.411404      29.378803    
    975000   295.48175      312.77976      272.92699     -903.04703      885.41492      39.852763      29.38231     
    976000   296.74415      306.94155      300.95331     -903.13426      882.0942       5.9882402      29.380726    
    977000   295.73478      312.71137      284.90979     -902.54839      885.28639      27.801583      29.378712    
    978000   295.45029      314.42299      284.22942     -903.71748      885.4109       30.193562      29.37708     
    979000   295.79284      310.0318       279.67632     -904.12581      888.20233      30.355479      29.383039    
    980000   298.01669      310.28957      277.00441     -905.28399      887.70576      33.285157      29.385844    
    981000   296.48915      324.65913      292.3519      -907.20937      886.19994      32.307236      29.390086    
    982000   295.51069      303.46502      293.8857      -904.99806      886.81021      9.5793251      29.391174    
    983000   297.11074      308.1854       300.97232     -905.98642      885.71709      7.2130815      29.391514    
    984000   298.22392      318.8852       286.28446     -908.95631      890.71742      32.600746      29.397219    
    985000   296.73971      310.6058       282.99284     -909.13086      890.36535      27.612965      29.395178    
    986000   298.66425      324.1043       286.10899     -913.71149      891.49615      37.995313      29.396414    
    987000   298.65237      315.91927      283.41132     -913.02203      892.32544      32.507955      29.397331    
    988000   298.30254      303.52485      300.23723     -912.2884       892.35896      3.2876178      29.398972    
    989000   298.62486      319.70818      286.19649     -918.50587      893.01858      33.511692      29.400537    
    990000   297.43756      319.6379       289.55341     -914.42973      894.84629      30.08449       29.402436    
    991000   297.19288      335.0593       270.68383     -919.36558      895.93195      64.375467      29.403824    
    992000   296.72373      316.35975      273.75596     -918.07855      895.68512      42.603798      29.408007    
    993000   293.95179      305.02043      281.36409     -919.04777      896.89847      23.656345      29.412259    
    994000   297.56999      298.20879      288.42356     -914.71878      894.99694      9.7852304      29.406849    
    995000   296.39244      327.88151      281.93188     -923.11373      896.96983      45.949631      29.408617    
    996000   298.19058      316.54258      293.72363     -923.42932      894.30842      22.818954      29.408337    
    997000   298.69202      314.56199      292.12303     -922.3488       898.74717      22.438956      29.407668    
    998000   298.81413      317.94081      292.0609      -923.79203      898.06048      25.879904      29.405038    
    999000   298.2458       319.14037      280.61154     -921.40341      900.19959      38.528832      29.407665    
   1000000   295.21791      299.78275      299.23888     -922.5978       898.39427      0.54387512     29.405579    
   1001000   297.93521      313.74531      293.89163     -922.50243      899.57407      19.853676      29.400822    
   1002000   296.55035      326.79069      291.34148     -925.6689       902.57635      35.449206      29.396185    
   1003000   295.20357      326.97349      287.40978     -929.11896      901.50499      39.563708      29.392546    
   1004000   296.23434      315.30541      274.40949     -926.61811      905.80808      40.89592       29.394932    
   1005000   298.3074       304.96597      296.91007     -926.867        901.33771      8.0558982      29.388095    
   1006000   296.92222      318.8741       271.43499     -929.60388      905.5914       47.43911       29.39343     
   1007000   295.74116      305.10298      274.39852     -928.48887      907.73033      30.704456      29.394772    
   1008000   300.27978      312.07686      296.29631     -930.30281      904.73463      15.780546      29.39493     
   1009000   296.30142      311.28176      279.74678     -931.24866      909.63673      31.534979      29.394088    
   1010000   298.67439      315.53574      289.27956     -931.4291       909.46061      26.256179      29.392586    
   1011000   296.45537      301.40975      286.12902     -932.55416      911.96917      15.280732      29.390735    
   1012000   297.55957      314.96448      282.66651     -936.48923      913.29181      32.297968      29.389927    
   1013000   295.39904      318.04841      284.28995     -937.68789      915.47757      33.758463      29.389141    
   1014000   299.33422      309.8609       286.92709     -939.79271      914.97477      22.93381       29.39123     
   1015000   297.32852      326.72544      278.30282     -940.4264       918.6579       48.42262       29.387229    
   1016000   297.4454       318.4386       289.19385     -943.17         916.89911      29.244747      29.393052    
   1017000   298.82665      316.88379      290.10016     -943.12695      916.96368      26.783629      29.393243    
   1018000   299.89916      328.86742      297.03861     -945.13121      916.72361      31.828809      29.391887    
   1019000   298.80776      318.24629      279.58214     -942.65514      921.93901      38.664148      29.390171    
   1020000   297.51033      316.28038      281.97322     -945.36391      923.88342      34.307166      29.394842    
   1021000   294.93135      313.59905      274.50177     -946.85065      925.09347      39.097278      29.395349    
   1022000   298.26032      318.98763      286.6543      -945.18508      924.85112      32.33333       29.397257    
   1023000   297.19237      315.45207      290.34989     -944.29997      922.74696      25.102181      29.399468    
   1024000   296.12745      319.16021      284.43361     -948.56061      926.65439      34.726604      29.400254    
   1025000   297.55291      311.34882      283.41206     -947.20444      927.26262      27.936756      29.40502     
   1026000   295.29304      319.07284      279.37947     -950.50328      928.17488      39.69337       29.40254     
   1027000   296.75096      311.57256      284.79416     -949.44212      927.67136      26.778405      29.404407    
   1028000   297.15817      312.79093      277.7375      -948.82746      931.92107      35.053421      29.399811    
   1029000   295.45651      318.54698      274.35035     -950.00827      931.27533      44.196636      29.40011     
   1030000   295.99443      309.80876      284.63705     -948.50634      932.44844      25.171707      29.406063    
   1031000   296.16249      318.68883      296.78396     -951.03942      932.06335      21.904876      29.40492     
   1032000   296.64133      308.38028      296.32326     -948.11715      930.96003      12.05702       29.403335    
   1033000   293.81217      309.62891      284.52353     -951.0781       933.33472      25.105381      29.397784    
   1034000   297.47303      335.4626       293.46491     -955.54344      933.90719      41.997682      29.391968    
   1035000   295.33438      316.10754      273.87723     -953.58309      938.30965      42.230317      29.393707    
   1036000   296.3795       322.10764      274.9343      -954.70019      938.86655      47.173338      29.390203    
   1037000   295.0234       314.59172      265.8937      -956.89775      940.7256       48.69803       29.391401    
   1038000   298.08933      328.40931      287.9446      -958.05017      939.92873      40.46471       29.391317    
   1039000   296.1403       314.59744      278.13228     -959.09155      942.7148       36.465162      29.393999    
   1040000   297.25164      305.84885      295.62612     -956.65489      940.76328      10.222726      29.401326    
   1041000   297.29764      315.52628      301.34369     -962.13676      940.57084      14.182598      29.397447    
   1042000   295.38469      305.00747      285.21672     -961.24705      944.40519      19.790757      29.392333    
   1043000   295.86451      305.68448      296.08985     -960.93937      940.72723      9.5946296      29.390361    
   1044000   297.16043      319.94291      297.04516     -961.08472      945.92339      22.897755      29.390878    
   1045000   296.49155      318.50266      290.12163     -962.15115      946.23992      28.381036      29.394768    
   1046000   294.1477       307.59539      283.72253     -961.69266      946.16231      23.872857      29.394724    
   1047000   296.40337      326.50964      278.74368     -964.60215      947.20508      47.765957      29.398114    
   1048000   294.99007      314.27966      276.84281     -963.63468      948.99398      37.436854      29.402588    
   1049000   295.12972      301.94997      283.06871     -962.37593      949.84174      18.881261      29.404281    
   1050000   296.97101      308.61806      296.06803     -963.51981      946.54531      12.550033      29.405071    
   1051000   295.21136      303.77324      292.67002     -965.31652      950.78685      11.103226      29.398765    
   1052000   295.39793      316.1398       280.76497     -967.34751      951.54191      35.374832      29.397549    
   1053000   294.78044      310.95608      304.67865     -964.50494      950.31952      6.2774329      29.392893    
   1054000   292.42517      309.7277       279.34381     -964.88692      955.98117      30.383888      29.390282    
   1055000   294.20949      303.16012      288.98123     -966.08743      953.2967       14.178892      29.392148    
   1056000   296.22615      324.52355      286.01179     -970.21773      956.04415      38.511756      29.395152    
   1057000   293.99325      310.3862       272.55308     -967.59559      953.72316      37.833127      29.395974    
   1058000   295.36059      309.99999      284.68045     -971.40045      954.69595      25.319546      29.396556    
   1059000   295.65866      314.13364      291.17163     -976.61208      953.96449      22.962011      29.393267    
   1060000   297.7825       316.87229      277.27112     -975.35686      958.96472      39.601171      29.398185    
   1061000   294.37445      306.28108      306.03652     -976.1876       953.67997      0.24455225     29.39563     
   1062000   297.13582      321.77727      269.77753     -977.71683      962.1718       51.999739      29.394836    
   1063000   297.38372      314.04468      292.27101     -979.10913      957.9192       21.77367       29.399464    
   1064000   294.96289      291.88755      290.67552     -974.9419       957.52065      1.2120286      29.400706    
   1065000   294.98794      304.28082      280.82076     -978.65568      963.73786      23.46006       29.396297    
   1066000   296.79941      331.07534      282.80584     -985.7237       960.07599      48.269495      29.396027    
   1067000   297.16282      320.74617      288.02909     -985.32704      961.3758       32.717084      29.395584    
   1068000   295.78029      327.77311      284.257       -986.30962      962.63981      43.516113      29.394244    
   1069000   297.10031      326.14877      284.36239     -987.16504      963.85708      41.786379      29.395612    
   1070000   297.2688       309.82797      287.06939     -985.98696      964.80611      22.758587      29.389488    
   1071000   297.35434      313.91791      288.67175     -987.05394      966.82135      25.246165      29.382755    
   1072000   297.40448      318.40539      270.38602     -990.97499      970.69294      48.019364      29.384341    
   1073000   298.57316      311.62489      280.53856     -990.6987       968.63494      31.086335      29.382271    
   1074000   298.29184      331.30239      287.69676     -994.78045      968.56376      43.605625      29.382976    
   1075000   296.18595      316.30973      284.41321     -997.46962      969.83349      31.896518      29.386023    
   1076000   297.23198      324.19638      281.72771     -997.26606      970.41563      42.468672      29.386795    
   1077000   297.08305      319.38381      281.81173     -995.46094      972.2596       37.572079      29.39038     
   1078000   298.47256      323.73541      287.81547     -997.78084      974.70017      35.919941      29.388924    
   1079000   298.4059       332.37667      300.05399     -1001.9608      973.02099      32.322684      29.390165    
   1080000   297.74015      299.58423      278.50129     -998.51664      976.44377      21.082943      29.39069     
   1081000   296.65678      308.95005      286.04074     -1001.3543      977.87655      22.909308      29.38844     
   1082000   297.90231      308.21287      282.19688     -1000.4795      979.64634      26.015993      29.388469    
   1083000   296.82986      301.82479      279.63523     -1000.7847      980.77295      22.189554      29.388732    
   1084000   297.17041      315.99015      281.7624      -1003.968       980.01187      34.227749      29.389094    
   1085000   297.51179      322.36485      281.94795     -1008.9791      980.53416      40.416903      29.386346    
   1086000   297.82301      313.79914      296.05743     -1005.8119      980.59684      17.74171       29.384516    
   1087000   300.16536      319.45471      289.93586     -1007.3047      981.12836      29.518848      29.377583    
   1088000   295.83371      322.16049      284.94588     -1009.0567      984.07626      37.214603      29.376757    
   1089000   297.67389      319.44783      288.64994     -1011.9221      985.33008      30.79789       29.378159    
   1090000   297.89712      319.34149      288.95799     -1011.0922      984.91152      30.383503      29.380364    
   1091000   299.07241      317.90053      285.26656     -1012.4703      986.75959      32.633973      29.381616    
   1092000   297.60113      315.88513      284.55232     -1010.5923      989.18488      31.332811      29.383782    
   1093000   296.91366      316.60026      296.47644     -1011.8379      986.82938      20.123812      29.385233    
   1094000   298.64242      312.87866      284.58013     -1014.0105      992.35533      28.298532      29.387414    
   1095000   297.32672      319.68063      296.62025     -1014.6027      990.19496      23.060382      29.386347    
   1096000   298.73747      310.0887       293.77171     -1014.3597      989.08264      16.316992      29.387572    
   1097000   296.8362       293.5904       284.54871     -1015.5101      992.02482      9.041699       29.384577    
   1098000   297.27803      323.22696      292.24337     -1019.3633      993.96185      30.98359       29.386978    
   1099000   300.11506      314.0612       289.44653     -1016.7441      995.84193      24.614669      29.390241    
   1100000   298.41778      335.32131      281.35009     -1020.5919      994.48084      53.971225      29.387675    
   1101000   297.61229      323.75052      291.90648     -1019.8602      998.51251      31.844038      29.388883    
   1102000   295.46705      294.78424      283.6259      -1016.0467      1002.4382      11.158342      29.391057    
   1103000   297.09138      311.69986      270.84236     -1020.7578      1005.2355      40.857498      29.38861     
   1104000   295.14723      309.16328      300.85284     -1019.8232      1001.9281      8.3104412      29.39562     
   1105000   297.88608      323.26952      282.71271     -1022.6235      1003.5207      40.556809      29.395015    
   1106000   296.60357      308.11239      286.87595     -1020.2389      1003.9687      21.236435      29.395292    
   1107000   296.47313      331.14584      286.31456     -1024.1191      1005.2031      44.831274      29.398304    
   1108000   295.81112      311.20295      278.70737     -1022.7628      1008.2747      32.495583      29.398723    
   1109000   296.84152      313.62178      277.50212     -1022.8187      1009.9497      36.119657      29.399953    
   1110000   295.441        307.28283      279.9702      -1025.1913      1009.3175      27.312636      29.396671    
   1111000   295.57084      303.82017      291.17888     -1027.2515      1009.8755      12.641285      29.400377    
   1112000   295.37761      324.42083      276.77421     -1025.1308      1012.7799      47.646625      29.407594    
   1113000   295.7974       298.63429      284.40736     -1027.2541      1012.0701      14.226929      29.410959    
   1114000   295.193        312.71242      289.76556     -1029.6541      1010.1546      22.946866      29.408706    
   1115000   296.2736       309.73255      296.06543     -1030.7765      1013.8286      13.667122      29.410699    
   1116000   298.54919      323.51014      282.97883     -1032.7301      1014.2919      40.531308      29.413024    
   1117000   296.16442      313.60277      284.81689     -1029.2533      1018.1083      28.785879      29.412075    
   1118000   294.17512      318.83259      283.53398     -1031.3548      1016.4129      35.298613      29.412838    
   1119000   294.78259      315.62015      289.05265     -1031.4822      1018.6997      26.567502      29.408653    
   1120000   292.91069      305.38969      301.26886     -1029.0117      1021.3312      4.1208294      29.404327    
   1121000   295.47632      314.20459      273.95506     -1035.4264      1023.0842      40.249528      29.402877    
   1122000   295.66831      312.07418      273.97154     -1032.0868      1027.453       38.102639      29.405847    
   1123000   294.5321       327.67892      285.68544     -1037.1389      1024.7049      41.993481      29.403432    
   1124000   296.6391       320.47699      281.31096     -1034.004       1027.1254      39.166032      29.403169    
   1125000   291.06289      306.38388      285.2         -1031.6989      1025.6006      21.183885      29.402224    
   1126000   297.1009       324.65486      289.70812     -1035.9744      1025.5562      34.946746      29.400265    
   1127000   293.35643      316.6627       290.17463     -1033.6479      1028.8219      26.488068      29.402992    
   1128000   294.13789      315.67776      294.26362     -1032.4727      1031.1208      21.414136      29.404432    
   1129000   296.92934      321.32487      287.19947     -1037.2667      1029.6283      34.125396      29.402126    
   1130000   295.08325      309.40213      299.3206      -1036.8246      1028.2944      10.081533      29.402804    
   1131000   296.55706      308.99072      299.49208     -1039.4484      1029.797       9.4986396      29.39608     
   1132000   294.29471      322.16653      284.45233     -1041.0583      1031.0354      37.714201      29.394792    
   1133000   295.39927      312.67991      286.8169      -1040.921       1031.9252      25.86301       29.394029    
   1134000   296.45708      302.38678      286.15293     -1041.0014      1032.1444      16.233853      29.390584    
   1135000   293.90085      314.90521      278.22805     -1042.4919      1033.4328      36.677163      29.392028    
   1136000   294.47365      318.32659      273.53868     -1045.2026      1035.02        44.787913      29.393172    
   1137000   295.34184      295.70336      293.56516     -1045.2117      1032.7642      2.1381995      29.389607    
   1138000   294.90899      322.64934      279.52247     -1047.7456      1034.1631      43.126867      29.387497    
   1139000   296.28256      312.17547      289.32333     -1045.3154      1034.2532      22.85215       29.384774    
   1140000   296.73239      322.22176      285.74561     -1050.5673      1038.5853      36.476144      29.382661    
   1141000   296.09947      320.77309      290.87477     -1052.3958      1039.1471      29.898317      29.383812    
   1142000   293.75191      315.47145      295.71864     -1052.516       1037.8938      19.752805      29.384509    
   1143000   295.90131      315.02244      274.95649     -1050.0299      1039.0233      40.065945      29.386377    
   1144000   294.63488      308.4899       288.09632     -1053.5991      1038.175       20.393585      29.389183    
   1145000   294.42014      308.17818      269.87118     -1052.9106      1042.4781      38.307005      29.394364    
   1146000   295.78802      315.94337      295.75658     -1055.2171      1040.4199      20.186789      29.394258    
   1147000   292.81062      305.8999       276.92243     -1055.1881      1047.3585      28.977465      29.396522    
   1148000   294.92545      301.56477      282.32049     -1053.7023      1046.2322      19.244278      29.391547    
   1149000   294.22452      323.84923      273.83829     -1056.756       1049.994       50.010946      29.388556    
   1150000   296.02028      316.94607      282.53787     -1056.3556      1050.0263      34.408195      29.388042    
   1151000   295.29696      321.19642      274.38609     -1060.9042      1049.6034      46.810339      29.391947    
   1152000   292.6281       317.74294      292.04612     -1060.8639      1051.7025      25.696816      29.385865    
   1153000   294.28331      316.6715       278.70278     -1060.5907      1054.9618      37.968715      29.381927    
   1154000   294.82788      314.05404      283.9152      -1061.4144      1054.2618      30.138833      29.383395    
   1155000   292.7409       310.73695      276.87165     -1061.2772      1059.4802      33.865296      29.381975    
   1156000   292.43619      318.44282      278.51746     -1063.0607      1059.8073      39.925356      29.379463    
   1157000   292.52176      294.30133      274.56142     -1063.8641      1061.9039      19.739901      29.379254    
   1158000   295.43549      304.19279      296.00034     -1063.769       1060.3489      8.1924449      29.384182    
   1159000   294.84614      318.12074      288.08405     -1063.8871      1060.8845      30.036688      29.378691    
   1160000   295.07866      309.85871      279.48807     -1063.0104      1063.1287      30.370643      29.384937    
   1161000   291.8255       312.95666      285.44304     -1065.6584      1062.4071      27.513619      29.387737    
   1162000   293.83352      322.05711      281.17484     -1068.5012      1065.307       40.882273      29.385692    
   1163000   294.7274       313.59465      277.67502     -1071.7428      1068.5931      35.919626      29.390128    
   1164000   296.05874      323.44183      281.85879     -1072.9541      1068.2547      41.583035      29.3942      
   1165000   294.78219      308.3669       296.17162     -1069.2654      1067.5563      12.195274      29.396536    
   1166000   292.9825       309.16415      271.67036     -1072.1435      1068.9614      37.493784      29.397728    
   1167000   293.0705       308.49291      281.05303     -1072.8573      1070.9599      27.439885      29.399618    
   1168000   292.59943      316.03502      280.81637     -1075.3398      1070.5203      35.218653      29.398403    
   1169000   293.36198      309.80721      293.82832     -1074.6933      1070.1213      15.978887      29.39883     
   1170000   294.84851      318.58825      297.3181      -1078.727       1070.6217      21.270148      29.394373    
   1171000   293.55581      328.39559      263.90826     -1080.7519      1076.1836      64.487335      29.390713    
   1172000   293.5216       302.4433       300.1598      -1079.9972      1072.4122      2.2834916      29.392124    
   1173000   295.88948      311.77023      279.1556      -1080.5873      1075.1017      32.614629      29.39098     
   1174000   295.25638      316.84543      287.67006     -1082.9262      1075.9676      29.175377      29.388776    
   1175000   293.64124      318.29849      286.33887     -1082.6782      1078.1386      31.959618      29.389778    
   1176000   292.25305      314.10246      282.4316      -1084.847       1076.2978      31.670858      29.390431    
   1177000   293.38067      313.22996      288.31082     -1085.7612      1076.9366      24.919136      29.393423    
   1178000   294.04408      305.02129      282.08542     -1088.2698      1079.1045      22.935871      29.391683    
   1179000   294.37029      303.42881      295.56721     -1084.1222      1076.1006      7.8615958      29.388601    
   1180000   292.79034      293.31114      276.06628     -1084.7541      1079.7176      17.244858      29.38754     
   1181000   296.29056      312.60264      284.50566     -1090.1952      1077.8342      28.09698       29.387452    
   1182000   294.32323      309.37177      291.88977     -1088.4174      1080.7739      17.481994      29.385633    
   1183000   295.18001      304.89264      279.02476     -1089.6202      1080.6234      25.867877      29.381943    
   1184000   296.68097      328.54806      285.56028     -1094.0853      1081.505       42.987785      29.386115    
   1185000   296.16459      311.36114      296.28199     -1092.8213      1080.6611      15.079153      29.385532    
   1186000   293.25328      319.48968      284.85302     -1093.189       1082.7276      34.636663      29.383242    
   1187000   294.98993      314.28237      288.66515     -1097.4194      1084.7414      25.617212      29.379896    
   1188000   295.2856       311.39508      280.65343     -1097.2073      1087.6428      30.741648      29.382446    
   1189000   297.51994      313.95567      284.32925     -1101.4874      1086.6508      29.626415      29.384746    
   1190000   297.67928      328.43372      288.81642     -1101.6636      1085.1032      39.617303      29.383922    
   1191000   295.95563      323.98845      287.64727     -1103.0277      1087.0789      36.341181      29.387753    
   1192000   294.84656      310.2555       289.20097     -1099.4476      1088.3941      21.054532      29.387626    
   1193000   293.42989      324.99017      280.75795     -1105.5105      1096.5051      44.232214      29.383911    
   1194000   295.57997      298.92398      298.55458     -1100.7271      1092.3804      0.36940275     29.380809    
   1195000   296.35281      319.48057      287.42451     -1103.0077      1094.6121      32.056056      29.380412    
   1196000   294.09594      314.54656      282.61301     -1103.6299      1096.7447      31.933547      29.383223    
   1197000   293.4667       303.75067      289.93857     -1102.0981      1096.1016      13.812103      29.379371    
   1198000   294.09094      307.86675      282.85102     -1106.804       1097.3952      25.015724      29.379545    
   1199000   295.37553      320.55929      287.71677     -1107.4419      1098.0411      32.842523      29.382989    
   1200000   295.07273      321.92371      298.41092     -1110.7331      1096.2415      23.512784      29.385799    
   1201000   295.1816       312.36614      277.31867     -1107.649       1099.1786      35.047469      29.383723    
   1202000   293.16861      315.15487      277.98492     -1109.7491      1100.2603      37.169947      29.387801    
   1203000   294.64305      313.32863      281.35389     -1110.1228      1100.4458      31.974734      29.38821     
   1204000   296.05172      319.01611      291.47726     -1110.1637      1100.9404      27.538854      29.388011    
   1205000   293.84834      318.6366       284.695       -1110.5896      1100.5393      33.941606      29.388615    
   1206000   294.76868      315.34672      286.5306      -1111.7511      1103.2961      28.816117      29.388912    
   1207000   294.01473      306.13661      286.23125     -1112.5181      1103.6257      19.90536       29.388281    
   1208000   294.45595      311.89258      291.11286     -1112.7744      1105.0905      20.779722      29.390834    
   1209000   295.867        312.41336      284.55094     -1112.0943      1105.0752      27.862417      29.390655    
   1210000   296.19449      329.89442      301.23283     -1116.9655      1101.5888      28.661588      29.387669    
   1211000   296.69335      322.23951      292.67843     -1115.8015      1103.9997      29.561079      29.386071    
   1212000   293.43433      323.45858      275.74537     -1115.0177      1107.3156      47.713211      29.388815    
   1213000   291.5697       298.22189      294.823       -1112.9414      1104.0342      3.3988914      29.384324    
   1214000   294.80862      324.28909      279.59915     -1116.0801      1107.8434      44.689939      29.380876    
   1215000   294.22105      308.50685      291.33933     -1115.5958      1108.2014      17.167518      29.383       
   1216000   297.60239      321.61813      286.3465      -1119.8019      1107.8822      35.271631      29.380115    
   1217000   295.47243      316.91861      282.87386     -1121.6507      1111.7017      34.044747      29.377996    
   1218000   293.38564      313.57341      281.94239     -1120.4989      1109.2275      31.631021      29.378196    
   1219000   295.10056      304.80535      297.03602     -1121.7529      1107.9783      7.7693277      29.371448    
   1220000   296.45782      333.43044      285.07129     -1125.2214      1108.0225      48.359146      29.367429    
   1221000   295.41555      320.97591      291.80732     -1123.7199      1110.03        29.16859       29.366508    
   1222000   297.42702      311.52894      293.75093     -1124.9299      1110.0135      17.778016      29.35774     
   1223000   296.00759      309.05262      288.46645     -1123.3247      1111.7824      20.58617       29.354097    
   1224000   296.68937      314.78038      293.75136     -1128.986       1111.2617      21.029022      29.355966    
   1225000   298.14547      321.23153      297.88558     -1130.6378      1112.2554      23.345956      29.35303     
   1226000   295.88686      311.4006       290.36208     -1129.7935      1114.0778      21.038525      29.348919    
   1227000   296.59896      312.06296      294.32678     -1133.8006      1117.8432      17.736178      29.348748    
   1228000   295.07991      321.30892      288.14871     -1135.2989      1118.3372      33.160207      29.35202     
   1229000   296.69734      327.78205      286.52426     -1132.8305      1121.5364      41.257788      29.354463    
   1230000   295.82417      317.96414      289.52545     -1134.8267      1119.1002      28.438689      29.354525    
   1231000   292.81873      312.48474      273.70971     -1135.4467      1123.5277      38.775031      29.354392    
   1232000   296.7142       319.57385      273.64744     -1137.0865      1123.4127      45.926413      29.351481    
   1233000   295.36762      312.54823      281.61619     -1135.2032      1124.6424      30.932041      29.353684    
   1234000   296.21781      313.15356      291.54778     -1137.4014      1124.0683      21.605779      29.35104     
   1235000   295.60837      309.11156      297.61569     -1139.4333      1122.2844      11.495868      29.347686    
   1236000   295.60256      310.23313      284.03124     -1139.6752      1127.5899      26.201893      29.349409    
   1237000   293.73729      302.89243      283.22909     -1138.3666      1127.2269      19.663339      29.345039    
   1238000   294.86276      325.35271      276.55638     -1144.2864      1127.7094      48.796321      29.344744    
   1239000   294.96885      313.42196      295.51279     -1144.2421      1125.5326      17.909168      29.344855    
   1240000   297.70913      328.32581      278.00615     -1150.7055      1128.6382      50.319665      29.343716    
   1241000   297.40149      322.96807      272.25408     -1151.0995      1130.9244      50.713985      29.341783    
   1242000   297.27616      317.28362      299.31468     -1151.7984      1126.2754      17.968939      29.340775    
   1243000   298.0832       317.1125       297.8215      -1152.8095      1129.7927      19.290997      29.338044    
   1244000   297.27389      335.53203      288.96082     -1154.9104      1130.8579      46.571207      29.337235    
   1245000   295.16256      311.50727      280.12176     -1151.8629      1134.2836      31.385508      29.337937    
   1246000   296.39195      316.5949       291.2535      -1152.9944      1135.5673      25.341398      29.336904    
   1247000   296.76034      331.96273      282.82928     -1156.5662      1135.3405      49.133459      29.340111    
   1248000   296.1046       299.69424      288.87404     -1150.8243      1134.9457      10.820207      29.339783    
   1249000   296.72324      330.9145       272.82572     -1157.6959      1133.9031      58.088786      29.340863    
   1250000   296.9133       330.78551      288.22833     -1155.3662      1134.9241      42.55718       29.33986     
   1251000   297.28497      316.06292      291.00584     -1153.0116      1135.069       25.057079      29.339659    
   1252000   297.85641      315.98335      293.54806     -1153.2566      1136.9383      22.435287      29.338408    
   1253000   293.75171      321.51206      269.77145     -1153.4859      1139.6175      51.740615      29.341492    
   1254000   297.27196      314.58233      292.85769     -1154.922       1141.1133      21.72464       29.344172    
   1255000   293.89059      306.31495      280.76916     -1155.6615      1144.514       25.54579       29.346619    
   1256000   296.90564      324.65549      290.44596     -1160.6863      1143.4079      34.209533      29.342848    
   1257000   296.28746      321.05487      282.3852      -1163.0814      1147.3788      38.669667      29.3416      
   1258000   295.76814      315.5099       287.38603     -1161.2779      1145.4082      28.12387       29.338372    
   1259000   296.06779      325.92577      278.72332     -1163.0514      1150.3472      47.202443      29.340667    
   1260000   293.68746      310.87658      292.88757     -1166.0705      1148.1439      17.989016      29.339719    
   1261000   297.59988      314.71672      280.18351     -1168.8276      1150.5074      34.533216      29.33861     
   1262000   296.63091      316.1849       280.08788     -1169.3221      1153.2083      36.097025      29.337416    
   1263000   297.37806      321.99449      289.60451     -1170.9771      1151.997       32.389978      29.336934    
   1264000   295.07606      309.04841      274.53944     -1171.5761      1154.1054      34.508968      29.337492    
   1265000   296.07714      314.63247      272.96477     -1167.9928      1154.2579      41.667698      29.343125    
   1266000   292.54186      307.49316      285.59142     -1171.9911      1155.5328      21.901733      29.339442    
   1267000   299.43276      332.64686      278.65817     -1175.129       1157.0163      53.988692      29.342117    
   1268000   295.69344      315.58274      287.64316     -1175.1585      1155.5828      27.939571      29.343697    
   1269000   294.68066      312.79477      282.71513     -1174.0045      1157.7737      30.07964       29.347295    
   1270000   293.6771       313.47611      276.7839      -1175.8063      1161.7615      36.692204      29.348873    
   1271000   295.38623      326.23364      299.40599     -1178.7685      1158.9379      26.82765       29.34933     
   1272000   296.0261       315.05799      289.16141     -1177.4852      1162.5561      25.896588      29.352986    
   1273000   296.04271      307.72432      285.52711     -1177.9676      1164.0608      22.197215      29.357764    
   1274000   295.2388       310.26443      277.25506     -1180.1785      1165.7965      33.009373      29.359087    
   1275000   296.94066      316.73008      288.61835     -1185.0435      1164.5598      28.111734      29.35626     
   1276000   296.39755      318.56861      280.9025      -1185.5958      1165.4983      37.66611       29.356264    
   1277000   296.02051      313.98194      286.39762     -1186.0782      1169.2697      27.584318      29.355604    
   1278000   294.66121      314.97688      284.62254     -1188.0486      1167.7367      30.354348      29.350045    
   1279000   297.90531      321.68614      286.27834     -1189.9582      1166.869       35.407798      29.35163     
   1280000   297.11266      324.79368      293.08089     -1190.4486      1169.895       31.712798      29.35276     
   1281000   298.33389      317.50148      294.53093     -1190.561       1169.1219      22.970549      29.352885    
   1282000   297.47621      314.96913      281.66218     -1192.8682      1170.4403      33.306947      29.350302    
   1283000   294.81398      307.7641       289.6683      -1191.7643      1169.9738      18.095801      29.350643    
   1284000   295.40507      314.23424      283.73975     -1193.219       1174.6641      30.494491      29.349758    
   1285000   294.5448       310.81492      270.28446     -1192.7889      1175.3174      40.530457      29.349229    
   1286000   295.77654      313.75044      286.50494     -1197.1766      1175.4551      27.245496      29.34964     
   1287000   298.49629      315.19272      273.95832     -1197.6118      1179.5642      41.234401      29.352423    
   1288000   298.76625      307.29174      293.19635     -1196.2775      1175.4559      14.095392      29.354167    
   1289000   295.36883      312.28618      279.34254     -1195.1718      1179.3425      32.943641      29.347847    
   1290000   296.69925      326.13769      287.98325     -1203.1499      1180.2127      38.15444       29.346456    
   1291000   295.14881      328.07528      282.20869     -1204.2453      1181.9088      45.866588      29.346387    
   1292000   296.5794       318.24952      286.57318     -1200.765       1181.9107      31.676339      29.346884    
   1293000   298.76571      313.94795      294.31898     -1200.0735      1183.1286      19.628965      29.346551    
   1294000   294.15894      312.17122      265.06165     -1201.5324      1187.3988      47.109569      29.342809    
   1295000   297.86737      326.06843      298.49945     -1202.5022      1187.1578      27.568983      29.343795    
   1296000   295.30355      320.49608      289.10853     -1202.394       1188.3703      31.387547      29.344561    
   1297000   296.69229      309.58255      293.70599     -1204.566       1188.8163      15.876558      29.339695    
   1298000   297.25911      322.56923      285.78323     -1205.1906      1187.9521      36.786002      29.341539    
   1299000   294.20954      306.97652      292.65538     -1206.0423      1191.0402      14.321133      29.336324    
   1300000   295.19436      318.60046      288.00417     -1204.8838      1192.2986      30.596284      29.332174    
   1301000   296.31332      311.01402      293.60372     -1207.0949      1195.346       17.410301      29.330974    
   1302000   295.58987      309.72074      281.90136     -1211.3922      1198.2752      27.81938       29.331291    
   1303000   296.77171      327.71129      288.61636     -1212.9822      1198.2745      39.094935      29.330622    
   1304000   294.25156      302.40947      289.35378     -1209.6014      1199.3679      13.05569       29.329646    
   1305000   293.88315      311.1995       274.63734     -1211.9859      1203.8449      36.562165      29.325504    
   1306000   294.39022      307.18276      284.99134     -1211.7679      1204.8894      22.191421      29.322335    
   1307000   293.99625      305.19571      286.32891     -1212.3642      1205.7177      18.866795      29.325028    
   1308000   292.8084       317.30818      287.2933      -1213.445       1204.3623      30.014879      29.326877    
   1309000   297.04367      334.21434      294.74882     -1220.2433      1205.3295      39.465527      29.330951    
   1310000   294.56862      317.10353      280.94781     -1219.7442      1208.8375      36.155717      29.333913    
   1311000   296.08946      307.42909      289.32278     -1218.1307      1208.9404      18.106311      29.333479    
   1312000   297.69715      330.52017      276.27566     -1221.4397      1210.546       54.244513      29.335084    
   1313000   296.45478      318.81258      301.81577     -1223.9224      1211.0963      16.996802      29.339103    
   1314000   294.87787      319.66942      279.34495     -1225.7952      1216.07        40.324471      29.340248    
   1315000   294.748        319.30068      288.33209     -1224.3238      1214.2332      30.968588      29.339674    
   1316000   296.41809      323.01732      284.46563     -1226.8881      1216.921       38.551687      29.339302    
   1317000   296.16798      317.9961       285.50722     -1227.4908      1215.1993      32.488878      29.340364    
   1318000   294.50511      320.98459      298.90207     -1227.2566      1214.4022      22.082527      29.341205    
   1319000   296.12156      316.2801       292.10732     -1227.3375      1216.0632      24.172787      29.340795    
   1320000   295.77322      310.95846      288.918       -1231.1839      1216.09        22.040466      29.338207    
   1321000   295.43295      322.44486      285.3563      -1231.989       1219.5244      37.088553      29.338595    
   1322000   295.02716      306.43931      282.34353     -1230.1707      1221.6255      24.095774      29.33967     
   1323000   293.61278      303.51404      278.21938     -1232.8227      1222.2524      25.294668      29.338194    
   1324000   297.2169       329.17795      283.08614     -1236.4183      1221.58        46.091812      29.336253    
   1325000   295.89478      315.96619      288.51622     -1238.0023      1221.8162      27.44997       29.338778    
   1326000   295.68571      320.8228       284.13205     -1239.4888      1222.645       36.690744      29.339362    
   1327000   295.91943      312.39899      271.07791     -1236.7797      1225.3494      41.321084      29.343045    
   1328000   295.3386       312.58669      286.81876     -1239.066       1223.9052      25.767925      29.343552    
   1329000   296.07979      305.02833      277.62911     -1238.0727      1228.5989      27.399222      29.341056    
   1330000   294.74401      308.45492      283.80094     -1238.3259      1228.5664      24.653977      29.338795    
   1331000   294.78079      321.08638      280.8783      -1243.0511      1230.0097      40.208082      29.3407      
   1332000   296.46464      327.9038       278.89279     -1243.9194      1230.2345      49.011009      29.341818    
   1333000   294.56658      307.90847      289.09833     -1241.1515      1233.6197      18.810145      29.34181     
   1334000   295.20376      308.63463      288.90009     -1243.961       1236.8852      19.734542      29.342307    
   1335000   296.24818      305.60148      279.19646     -1242.3309      1236.4051      26.405022      29.348461    
   1336000   293.78363      318.30584      285.55611     -1245.733       1234.4409      32.749734      29.350014    
   1337000   293.61703      312.39801      273.40432     -1244.5588      1237.9107      38.993686      29.349919    
   1338000   293.71455      329.95205      278.83824     -1247.6545      1238.9816      51.113812      29.349251    
   1339000   293.9475       318.58802      300.63517     -1245.6907      1236.6674      17.952848      29.350352    
   1340000   292.12058      324.99668      290.28384     -1248.4129      1237.1942      34.712843      29.344442    
   1341000   295.50672      319.0148       294.89579     -1249.2506      1237.8731      24.119013      29.343886    
   1342000   294.77346      328.50655      280.83823     -1251.8335      1243.4487      47.668319      29.341602    
   1343000   294.62464      318.06814      281.73345     -1250.9973      1243.0759      36.334689      29.339916    
   1344000   294.46807      315.60408      291.21302     -1249.9633      1242.6071      24.391059      29.337891    
   1345000   293.71752      299.70144      278.91982     -1247.6999      1246.076       20.781624      29.337801    
   1346000   294.02096      306.38123      283.5127      -1251.3622      1245.5657      22.868538      29.335833    
   1347000   292.34889      317.8316       285.13376     -1253.307       1242.7946      32.697841      29.332279    
   1348000   295.68739      317.7704       291.60841     -1256.2363      1245.0352      26.161989      29.334937    
   1349000   293.7943       302.34201      287.7338      -1249.6493      1244.4692      14.608209      29.334409    
   1350000   292.75169      318.24072      272.95032     -1255.1941      1248.3781      45.290398      29.334547    
   1351000   294.89644      320.04455      280.28157     -1255.5045      1248.0654      39.762983      29.335955    
   1352000   294.62293      321.35567      281.81055     -1255.4833      1250.5366      39.545115      29.337176    
   1353000   294.75413      324.87897      282.04066     -1258.6786      1251.3079      42.838311      29.33841     
   1354000   291.56924      314.63429      275.48976     -1259.2692      1252.9188      39.144525      29.340044    
   1355000   290.87824      289.98685      282.87337     -1255.7093      1252.6199      7.1134813      29.344183    
   1356000   294.44929      308.85183      285.85373     -1260.9537      1251.7308      22.998103      29.340431    
   1357000   295.11642      317.47734      288.08568     -1263.2273      1253.2449      29.391653      29.336372    
   1358000   294.43025      314.97934      284.05985     -1266.8585      1255.6226      30.919486      29.338537    
   1359000   294.50977      305.76512      276.52418     -1265.3318      1259.3124      29.240935      29.34146     
   1360000   296.09544      337.47619      291.71258     -1272.0727      1257.0279      45.763612      29.343904    
   1361000   295.29136      309.2749       285.8704      -1268.4427      1257.8415      23.404498      29.345647    
   1362000   294.70089      301.59416      288.05495     -1268.1576      1260.5578      13.539213      29.342099    
   1363000   294.18         312.64955      289.89829     -1272.8927      1258.7718      22.751253      29.341147    
   1364000   292.97816      313.59623      282.32237     -1270.6989      1262.6767      31.273858      29.341868    
   1365000   296.54364      317.50999      284.07696     -1272.7379      1261.7633      33.433026      29.341227    
   1366000   292.79517      311.11225      282.76905     -1272.2818      1264.0521      28.343197      29.339767    
   1367000   294.51968      301.55432      290.17544     -1270.3059      1261.5661      11.378888      29.340585    
   1368000   293.1249       321.09416      283.49116     -1278.0739      1264.5545      37.603001      29.34014     
   1369000   293.96202      306.48391      279.73664     -1277.1129      1263.7878      26.747266      29.338785    
   1370000   293.44958      306.18449      285.15213     -1277.1054      1265.5651      21.032361      29.335793    
   1371000   295.05451      309.33425      288.34055     -1277.6358      1262.8344      20.993691      29.335151    
   1372000   295.02769      307.25507      288.20496     -1278.0081      1265.6175      19.050105      29.332906    
   1373000   296.94331      327.10112      279.19017     -1281.0352      1264.861       47.910951      29.333143    
   1374000   298.22811      313.78457      285.12815     -1278.732       1265.6945      28.656426      29.333246    
   1375000   296.8267       323.31478      286.72553     -1284.5613      1265.1596      36.589248      29.336263    
   1376000   296.69525      315.95841      280.74701     -1281.2025      1266.6945      35.211402      29.338041    
   1377000   295.05879      331.59674      292.81304     -1286.6222      1269.8174      38.783698      29.338452    
   1378000   296.05923      311.67979      265.47487     -1280.6163      1271.7848      46.204919      29.343191    
   1379000   294.25962      306.6272       286.53469     -1283.054       1271.6756      20.092514      29.34681     
   1380000   298.15774      342.89436      283.56961     -1289.89        1274.6773      59.324752      29.349866    
   1381000   297.29175      311.2965       275.13995     -1283.9365      1274.4204      36.156549      29.354882    
   1382000   296.50983      315.08619      295.61512     -1283.9288      1270.9839      19.471071      29.354969    
   1383000   294.05397      328.47897      277.50184     -1288.7823      1274.1429      50.97713       29.356122    
   1384000   294.63285      311.37113      282.86307     -1286.4235      1275.4214      28.508063      29.355137    
   1385000   296.28458      315.59821      292.98228     -1288.8165      1275.9006      22.615934      29.352315    
   1386000   296.47664      323.75465      275.43018     -1288.7948      1278.0647      48.324469      29.354857    
   1387000   296.46157      314.26108      295.48268     -1288.1302      1278.0495      18.778406      29.356032    
   1388000   294.85746      316.97408      286.50672     -1287.8823      1280.6083      30.467362      29.35825     
   1389000   295.2603       314.57801      299.49031     -1286.8395      1281.1511      15.087695      29.356634    
   1390000   296.44494      313.91112      279.36237     -1290.2608      1285.1979      34.548752      29.356501    
   1391000   295.38794      312.91164      288.05726     -1289.9953      1284.4224      24.854378      29.359358    
   1392000   295.78254      310.67998      303.50323     -1288.5279      1283.1589      7.1767411      29.358825    
   1393000   296.07699      322.2192       294.37277     -1292.3996      1289.0679      27.84643       29.357633    
   1394000   294.47487      309.65169      288.23564     -1290.5264      1288.166       21.416056      29.355629    
   1395000   292.70852      313.98986      290.17566     -1292.3188      1288.7979      23.814199      29.354464    
   1396000   291.07934      299.73125      285.04261     -1292.2848      1289.6283      14.688635      29.354452    
   1397000   295.44804      330.18545      281.6019      -1294.6905      1293.5906      48.583552      29.355855    
   1398000   295.08991      320.93998      286.50281     -1296.9688      1292.0238      34.43717       29.35441     
   1399000   295.70604      329.99519      289.81667     -1298.1912      1291.3892      40.178524      29.354293    
   1400000   293.9032       309.24053      289.68764     -1297.86        1291.115       19.552895      29.351891    
   1401000   292.10834      306.87432      295.39588     -1295.1659      1290.7646      11.478437      29.34863     
   1402000   294.34525      297.33959      279.16371     -1296.5813      1295.1502      18.175874      29.349512    
   1403000   291.89664      308.98639      275.35355     -1298.932       1299.0789      33.632839      29.348237    
   1404000   291.31705      303.14903      280.73949     -1298.7126      1298.4871      22.409544      29.347592    
   1405000   294.70824      305.85438      284.4543      -1302.339       1298.9075      21.400074      29.350102    
   1406000   295.0068       314.69236      300.8772      -1304.3205      1295.8927      13.815157      29.346377    
   1407000   295.37003      314.13398      288.18338     -1304.1603      1300.8286      25.950598      29.343253    
   1408000   293.14948      298.54669      277.97134     -1307.132       1303.697       20.575355      29.343389    
   1409000   292.43043      309.65947      281.18884     -1307.4862      1304.4541      28.470627      29.342767    
   1410000   292.15804      316.678        272.58174     -1309.787       1305.8737      44.096263      29.345284    
   1411000   295.06815      312.80238      279.4439      -1309.9945      1305.3698      33.358476      29.347226    
   1412000   297.14263      331.37523      291.46511     -1313.4051      1303.9842      39.910115      29.347029    
   1413000   295.60085      320.13995      284.30377     -1313.0582      1308.0399      35.836179      29.347699    
   1414000   293.10336      333.36496      289.95364     -1316.1562      1305.962       43.411313      29.346469    
   1415000   295.29304      320.45487      281.55845     -1313.3497      1310.3146      38.89642       29.349721    
   1416000   292.14668      307.45963      274.58185     -1311.3816      1311.7165      32.87778       29.349677    
   1417000   292.13625      329.59017      277.74137     -1314.5459      1311.9993      51.848796      29.348811    
   1418000   293.4478       308.50008      286.02733     -1315.8354      1313.528       22.472752      29.350463    
   1419000   292.86556      316.75159      293.89051     -1315.9135      1311.4012      22.861081      29.353799    
   1420000   291.31063      299.12784      283.65507     -1314.5479      1314.2186      15.472774      29.350737    
   1421000   292.04164      317.0107       282.33419     -1320.1638      1316.8469      34.676512      29.348938    
   1422000   295.7568       316.47507      286.56293     -1318.0103      1317.4738      29.912141      29.351906    
   1423000   292.70613      330.42748      282.39717     -1319.3327      1319.0965      48.030315      29.351258    
   1424000   291.32796      300.77647      274.51439     -1314.6369      1318.9739      26.26208       29.350043    
   1425000   291.68341      308.57504      291.48831     -1318.6387      1318.4443      17.086728      29.348917    
   1426000   291.24324      319.53799      271.81012     -1322.0282      1322.9928      47.727862      29.349562    
   1427000   293.75891      325.45302      261.97039     -1324.6704      1324.2541      63.482629      29.355717    
   1428000   293.31193      310.84885      283.66937     -1322.9192      1324.646       27.179484      29.354052    
   1429000   293.39849      312.29005      276.38134     -1325.7433      1327.3387      35.908712      29.354707    
   1430000   291.79634      310.65235      279.08632     -1324.2232      1329.7399      31.566034      29.35679     
   1431000   292.24234      320.29709      281.37098     -1324.864       1329.2081      38.926118      29.355554    
   1432000   293.33822      312.99972      289.60164     -1324.7254      1327.9526      23.39808       29.353224    
   1433000   290.43787      309.28736      267.11917     -1326.9918      1330.5737      42.168182      29.353412    
   1434000   294.18905      319.77715      284.33122     -1328.0763      1328.9011      35.44593       29.35486     
   1435000   292.43402      311.9801       279.69014     -1329.2373      1330.9383      32.289961      29.353899    
   1436000   292.07235      303.11979      276.6747      -1327.0676      1332.029       26.445094      29.35515     
   1437000   292.45398      308.73988      286.33342     -1329.728       1331.5445      22.406456      29.355963    
   1438000   293.97584      335.47374      284.05469     -1331.3843      1334.012       51.419058      29.35172     
   1439000   291.96539      322.89476      293.19792     -1332.6606      1333.6647      29.696837      29.352667    
   1440000   290.30681      306.70285      279.47827     -1331.2272      1335.625       27.224579      29.352981    
   1441000   293.98838      323.34118      298.93158     -1333.1067      1335.3981      24.409599      29.355246    
   1442000   291.05948      308.51036      274.55696     -1332.5607      1341.0859      33.953396      29.353195    
   1443000   291.6689       322.37461      284.13116     -1337.0064      1337.8468      38.243449      29.352768    
   1444000   292.78874      328.50885      284.05295     -1336.7948      1340.676       44.4559        29.35574     
   1445000   293.95014      314.04805      282.65477     -1336.2904      1337.1611      31.393281      29.358067    
   1446000   294.05583      316.60533      296.69887     -1336.037       1338.1024      19.906461      29.355971    
   1447000   291.85308      313.49316      305.0223      -1337.0986      1336.9866      8.4708653      29.357748    
   1448000   294.49355      325.36463      294.89804     -1340.7251      1338.2034      30.466588      29.353827    
   1449000   292.50107      308.62947      295.10139     -1339.5942      1342.7926      13.528082      29.35495     
   1450000   293.93078      315.68632      285.42829     -1342.1911      1343.0411      30.258027      29.353372    
   1451000   295.48533      324.80108      294.72431     -1344.8319      1342.3696      30.076772      29.351794    
   1452000   291.4812       308.61524      279.57129     -1342.4034      1342.0918      29.043955      29.34769     
   1453000   292.89836      334.98208      283.25431     -1346.59        1344.4845      51.727766      29.347143    
   1454000   294.78994      310.36422      288.71847     -1345.4831      1345.3119      21.645749      29.348207    
   1455000   293.20151      307.67234      281.40117     -1347.1537      1347.4345      26.271175      29.34357     
   1456000   296.7288       315.65845      304.52069     -1348.4639      1346.1804      11.137761      29.337814    
   1457000   292.91152      316.38003      289.78308     -1348.6498      1347.215       26.59695       29.336542    
   1458000   294.65247      303.35731      278.69221     -1350.2176      1350.0117      24.665102      29.335493    
   1459000   291.10886      313.74752      268.71217     -1351.5839      1351.7106      45.035343      29.338639    
   1460000   292.76551      323.01546      274.74181     -1351.8132      1351.1444      48.273652      29.342878    
   1461000   293.99568      323.07528      278.73659     -1351.875       1351.562       44.338693      29.343949    
   1462000   293.86102      309.6436       286.60385     -1354.2786      1352.6117      23.039751      29.350502    
   1463000   292.10434      322.63102      283.02759     -1354.3891      1355.0037      39.603436      29.352397    
   1464000   291.558        305.02728      288.73216     -1355.7835      1355.7164      16.295115      29.352864    
   1465000   297.13234      314.6096       306.99193     -1357.0832      1350.1293      7.6176698      29.353106    
   1466000   292.27625      314.70972      284.51495     -1361.441       1357.2134      30.194769      29.350135    
   1467000   294.44503      299.86238      294.43405     -1361.3506      1357.9245      5.4283267      29.348224    
   1468000   293.58672      309.87753      284.42232     -1360.4396      1359.0539      25.455203      29.350623    
   1469000   291.8094       310.38304      290.93649     -1363.5792      1360.6368      19.446552      29.355389    
   1470000   293.67601      317.13032      286.34726     -1364.1108      1361.4098      30.783065      29.353474    
   1471000   294.35819      318.64016      275.74059     -1366.3175      1363.1009      42.899573      29.352342    
   1472000   292.61206      303.81158      284.25538     -1362.3122      1363.788       19.556198      29.352639    
   1473000   291.4339       295.61791      278.44555     -1363.1217      1364.3644      17.172363      29.351827    
   1474000   292.16716      316.05085      275.93128     -1366.3134      1368.8092      40.119567      29.353534    
   1475000   292.2974       318.03558      281.02336     -1368.6767      1365.9696      37.012219      29.353524    
   1476000   294.39953      318.38637      288.35544     -1366.1146      1366.8038      30.030927      29.354757    
   1477000   295.67598      318.94855      284.45954     -1367.7978      1367.6968      34.489011      29.354521    
   1478000   292.2133       330.77087      283.38323     -1370.0731      1368.7241      47.38764       29.356572    
   1479000   293.50495      310.39568      271.01608     -1368.9653      1369.8221      39.379606      29.357748    
   1480000   292.00412      309.19643      289.43275     -1369.6668      1370.8717      19.763679      29.359981    
   1481000   291.54939      315.30792      294.99803     -1371.7329      1367.9478      20.309888      29.361183    
   1482000   293.76393      317.03546      281.79871     -1373.3941      1369.328       35.236749      29.361519    
   1483000   294.15132      322.11639      283.39798     -1372.4657      1370.3344      38.718411      29.360995    
   1484000   293.28381      310.22091      282.4472      -1371.8589      1371.5575      27.77371       29.360993    
   1485000   292.97335      318.88789      277.82444     -1371.4711      1374.646       41.063449      29.362663    
   1486000   291.74046      306.46793      282.0668      -1369.8353      1373.4002      24.401129      29.365164    
   1487000   293.81594      325.54017      286.31234     -1374.2669      1374.8233      39.227834      29.366625    
   1488000   290.5649       311.00464      292.08238     -1368.6534      1375.4819      18.922267      29.364683    
   1489000   294.44327      320.88727      292.74076     -1374.2654      1375.6781      28.146512      29.36373     
   1490000   292.62607      311.81423      286.16966     -1377.391       1378.6885      25.644573      29.363703    
   1491000   291.64228      293.88729      281.52573     -1375.589       1381.575       12.361564      29.361064    
   1492000   290.90135      307.3928       273.24713     -1376.8581      1384.1427      34.145668      29.363629    
   1493000   292.74592      310.47309      278.76475     -1378.7432      1384.191       31.708337      29.363905    
   1494000   293.05525      337.87733      289.91557     -1380.8765      1383.4513      47.961765      29.364309    
   1495000   293.68767      317.85154      267.51917     -1384.1301      1387.5999      50.332375      29.364447    
   1496000   293.01468      321.90546      273.96727     -1385.7539      1387.7705      47.938189      29.363804    
   1497000   294.11327      315.59335      291.45749     -1386.6207      1386.8385      24.135859      29.364118    
   1498000   292.65689      316.65645      295.97954     -1389.8885      1386.1197      20.676908      29.365555    
   1499000   294.82572      316.96703      304.13756     -1391.5418      1385.6695      12.829473      29.363724    
   1500000   294.5652       323.30553      292.48246     -1393.9376      1390.3037      30.823079      29.363667    
   1501000   293.54201      307.73418      288.17426     -1395.5256      1391.0571      19.559925      29.363576    
   1502000   294.70957      320.59722      291.0217      -1396.8322      1392.0318      29.575527      29.366108    
   1503000   292.51756      308.06327      289.67641     -1397.4125      1391.8803      18.386863      29.364901    
   1504000   294.63249      295.6725       296.8056      -1399.6092      1391.3663     -1.1331028      29.360456    
   1505000   294.7082       300.51136      298.33114     -1400.0363      1394.3227      2.1802232      29.355035    
   1506000   292.37675      297.39456      283.54212     -1403.305       1399.6507      13.852444      29.355063    
   1507000   296.51631      319.76941      292.51037     -1403.4956      1397.3487      27.259043      29.353759    
   1508000   293.76013      330.69054      287.95991     -1409.5543      1399.5357      42.730627      29.352808    
   1509000   295.62409      317.64675      286.73637     -1409.4217      1400.8802      30.91038       29.357211    
   1510000   295.86752      315.61135      286.08953     -1410.4997      1402.8097      29.521827      29.362755    
   1511000   292.04159      307.52353      284.10187     -1409.061       1403.0085      23.421664      29.361469    
   1512000   292.33463      312.67311      280.04531     -1408.9099      1405.9288      32.627797      29.361811    
   1513000   293.98929      312.84715      282.25649     -1410.3419      1408.5545      30.590661      29.364337    
   1514000   295.13319      309.02361      295.04825     -1409.0774      1405.3905      13.975359      29.363538    
   1515000   294.60534      304.4963       288.32257     -1413.4511      1408.0279      16.173727      29.365037    
   1516000   290.57658      321.69044      272.04496     -1413.3723      1415.8518      49.645473      29.368759    
   1517000   293.67394      310.28737      287.41081     -1413.4264      1414.54        22.876561      29.371002    
   1518000   292.64317      312.54364      288.59031     -1413.34        1413.8919      23.953332      29.373152    
   1519000   291.77842      317.9536       277.86845     -1414.7565      1416.8082      40.085152      29.368861    
   1520000   291.8959       313.42502      285.42432     -1415.2283      1417.0004      28.000695      29.369426    
   1521000   292.47705      317.58431      289.27899     -1417.2452      1416.1249      28.305318      29.369592    
   1522000   292.11209      318.43807      275.24017     -1415.3892      1418.3628      43.197892      29.368671    
   1523000   293.73195      319.84044      284.14978     -1419.424       1416.8194      35.690666      29.365831    
   1524000   293.06371      300.01539      285.77553     -1418.8696      1421.1804      14.239866      29.368356    
   1525000   291.8881       313.06566      278.87965     -1422.9592      1420.4344      34.186013      29.370632    
   1526000   292.86219      306.022        294.9901      -1419.6384      1419.1797      11.031903      29.373515    
   1527000   293.7664       321.08495      288.88003     -1424.0051      1421.1645      32.204919      29.374653    
   1528000   293.44149      302.05194      276.07264     -1422.7055      1423.4966      25.979296      29.37407     
   1529000   293.37095      315.04782      280.93109     -1422.8611      1423.6         34.116735      29.369371    
   1530000   293.1475       320.26707      279.01785     -1427.7664      1427.0147      41.249218      29.373202    
   1531000   294.10897      308.5564       293.83493     -1426.4324      1426.9784      14.721463      29.37191     
   1532000   294.13571      313.59685      285.88181     -1427.859       1428.8891      27.715036      29.370574    
   1533000   294.38658      312.09675      279.21157     -1428.6173      1431.4439      32.885174      29.369812    
   1534000   294.24342      320.60734      304.75534     -1430.7483      1429.1331      15.852002      29.366006    
   1535000   291.42961      303.39899      286.46838     -1428.2496      1430.4749      16.930609      29.363653    
   1536000   294.00494      309.04396      268.78749     -1429.2658      1433.8907      40.25647       29.361572    
   1537000   292.67387      317.00693      286.34601     -1436.0478      1430.9741      30.66092       29.360555    
   1538000   292.96845      306.2541       293.82377     -1433.3351      1430.4384      12.43033       29.361837    
   1539000   295.69527      307.88903      283.62423     -1437.7339      1430.486       24.264804      29.356852    
   1540000   295.65211      306.83677      281.3636      -1434.7815      1433.0456      25.473168      29.355986    
   1541000   295.027        314.48902      290.31686     -1438.4158      1433.4379      24.172154      29.356991    
   1542000   291.90898      319.93084      272.47285     -1440.6866      1432.9283      47.457992      29.359632    
   1543000   293.17894      333.49955      280.41074     -1446.2555      1431.9567      53.088813      29.363313    
   1544000   294.55927      307.99379      295.76638     -1441.6651      1432.7196      12.227412      29.361116    
   1545000   295.35692      318.6915       285.83575     -1444.7199      1435.8874      32.855745      29.360725    
   1546000   293.90448      313.80104      279.46821     -1445.4845      1437.2774      34.332834      29.364675    
   1547000   296.28922      315.05045      278.38562     -1447.8092      1436.6949      36.664829      29.366369    
   1548000   296.32783      303.43444      279.91529     -1447.0116      1439.546       23.519152      29.366828    
   1549000   294.39879      307.52864      285.79594     -1449.6309      1439.4909      21.732698      29.367677    
   1550000   296.34787      311.86596      290.55968     -1453.3751      1440.9727      21.306276      29.366601    
   1551000   293.48478      303.79888      281.98371     -1448.314       1443.2236      21.815169      29.36638     
   1552000   295.25379      314.93805      275.18912     -1453.6333      1444.1052      39.748936      29.365489    
   1553000   293.56826      325.39857      284.2066      -1455.7999      1443.3121      41.191968      29.368974    
   1554000   294.92439      324.132        283.81461     -1455.6248      1447.0989      40.317394      29.372314    
   1555000   296.31682      315.70343      298.84798     -1455.3323      1444.3834      16.855449      29.375704    
   1556000   295.87967      322.74753      275.82459     -1459.1197      1447.9933      46.922939      29.377159    
   1557000   295.02966      303.49307      285.51506     -1456.4358      1445.4485      17.978015      29.379429    
   1558000   294.90869      320.52201      283.14428     -1458.2291      1448.7227      37.377729      29.377588    
   1559000   294.3364       299.41565      285.35902     -1459.6208      1448.4597      14.056623      29.376612    
   1560000   295.24992      310.47493      289.82798     -1462.7482      1449.8275      20.646943      29.377663    
   1561000   295.2144       312.85755      282.34653     -1463.447       1452.0085      30.511026      29.379166    
   1562000   294.35243      308.48569      283.15683     -1462.3206      1453.2123      25.328861      29.381083    
   1563000   294.6686       309.72474      282.76303     -1465.4515      1454.3218      26.961709      29.381664    
   1564000   294.51971      307.54742      300.19621     -1462.8456      1453.3453      7.3512109      29.381557    
   1565000   295.31013      314.8429       287.38304     -1463.4363      1454.6077      27.459861      29.379008    
   1566000   294.61462      308.47794      278.26601     -1465.9951      1455.7984      30.21193       29.377461    
   1567000   296.3228       312.75579      301.20884     -1467.5111      1454.8815      11.546957      29.380197    
   1568000   294.80235      297.63986      284.44809     -1468.3315      1457.5709      13.191764      29.374444    
   1569000   297.24272      310.41812      291.87307     -1468.2081      1456.43        18.545053      29.372385    
   1570000   296.89137      316.5396       276.33179     -1468.0636      1459.353       40.207813      29.372421    
   1571000   294.02814      317.50062      277.5829      -1471.5049      1459.9572      39.917723      29.373138    
   1572000   298.21418      320.95298      288.85635     -1474.7578      1461.3978      32.09663       29.373173    
   1573000   293.65422      321.92176      289.61954     -1469.4046      1462.1009      32.302222      29.372548    
   1574000   293.54446      323.51668      280.67107     -1474.1779      1464.8663      42.845612      29.374111    
   1575000   296.10892      313.21423      291.52573     -1471.7394      1465.0786      21.688498      29.376627    
   1576000   291.92655      308.01714      270.45255     -1473.0571      1468.9682      37.564595      29.378102    
   1577000   296.28683      323.25532      284.69147     -1476.1677      1468.585       38.563849      29.378905    
   1578000   295.28974      321.28576      287.12046     -1475.5852      1471.7143      34.165302      29.37648     
   1579000   294.44061      310.7326       296.99349     -1473.6442      1469.7237      13.739111      29.372706    
   1580000   292.78506      324.97252      293.57928     -1474.8973      1469.3397      31.393244      29.371399    
   1581000   293.48222      316.04489      285.88755     -1475.8332      1470.3491      30.157334      29.3723      
   1582000   294.37747      320.50224      277.68869     -1474.9958      1471.6137      42.813557      29.372575    
   1583000   294.36567      328.47606      282.50308     -1477.6288      1471.0381      45.972979      29.374468    
   1584000   293.44768      306.67418      295.80385     -1476.3674      1470.4825      10.870328      29.375418    
   1585000   293.47237      313.29285      290.63204     -1479.0933      1475.7778      22.660808      29.375961    
   1586000   297.19511      318.28318      293.06037     -1479.7128      1474.3763      25.222816      29.377667    
   1587000   295.6748       317.36212      287.77647     -1482.3892      1473.5331      29.585641      29.375684    
   1588000   290.44743      313.44822      282.56209     -1480.2732      1474.9975      30.886125      29.377884    
   1589000   294.31885      323.86424      274.92953     -1484.1569      1477.458       48.934716      29.376641    
   1590000   297.24481      321.43925      289.34618     -1486.2221      1477.0472      32.093075      29.381439    
   1591000   292.74002      301.61634      278.54249     -1481.1889      1478.2406      23.07385       29.381504    
   1592000   294.06646      319.73553      285.99626     -1483.3351      1477.6268      33.739268      29.381485    
   1593000   293.4364       316.77915      281.45118     -1481.9585      1479.4157      35.327978      29.380098    
   1594000   292.86846      309.1512       283.94282     -1484.1495      1479.6235      25.208378      29.376684    
   1595000   293.92023      324.63347      288.97276     -1489.1099      1482.6515      35.660705      29.37938     
   1596000   295.69855      305.28071      272.64989     -1488.302       1482.4877      32.630815      29.377847    
   1597000   294.02471      318.80173      283.45192     -1489.8183      1481.5257      35.349812      29.378292    
   1598000   291.66833      307.6258       291.35445     -1487.7395      1483.1766      16.271351      29.377498    
   1599000   294.84246      314.62643      285.93247     -1490.8167      1486.1271      28.693959      29.379733    
   1600000   293.20856      301.03969      277.43622     -1486.0284      1485.748       23.603472      29.379981    
   1601000   292.75083      307.30797      286.42934     -1488.7005      1485.4674      20.878623      29.378617    
   1602000   293.47619      329.65076      296.70952     -1491.7518      1483.1926      32.941241      29.378717    
   1603000   293.52054      320.27125      280.65499     -1493.1103      1487.2127      39.616258      29.381157    
   1604000   295.86966      327.02304      297.12744     -1496.3947      1485.5321      29.895595      29.379122    
   1605000   293.73995      321.02363      278.87378     -1494.9089      1488.9729      42.14985       29.379195    
   1606000   292.9577       325.47066      280.85934     -1498.016       1489.253       44.611316      29.383394    
   1607000   294.30261      302.87263      285.84617     -1496.4188      1488.1449      17.026463      29.385265    
   1608000   295.98507      310.2354       289.43692     -1497.2181      1488.5372      20.798487      29.384642    
   1609000   294.69369      318.99486      293.38324     -1497.9569      1486.717       25.611618      29.38534     
   1610000   294.75897      313.73588      278.19733     -1498.0713      1489.9073      35.538553      29.384682    
   1611000   295.30487      326.81168      283.67078     -1504.9535      1491.2176      43.140901      29.382408    
   1612000   295.60849      317.7165       293.04289     -1502.3497      1488.1834      24.673615      29.38275     
   1613000   297.66028      325.58023      277.33736     -1506.8129      1491.2912      48.242875      29.379951    
   1614000   295.88762      319.214        292.48266     -1504.61        1492.0655      26.731342      29.378304    
   1615000   295.37079      327.35071      285.51946     -1509.0493      1495.0907      41.831253      29.376714    
   1616000   296.11972      322.49731      270.51509     -1506.4506      1494.6563      51.982221      29.375612    
   1617000   296.65041      309.84557      283.74656     -1506.9371      1494.839       26.099014      29.375155    
   1618000   298.42155      328.29462      297.98651     -1512.8179      1491.3192      30.308104      29.370848    
   1619000   296.73391      314.82152      297.20149     -1512.3871      1492.6748      17.620033      29.370876    
   1620000   296.97129      317.73181      282.29046     -1514.1881      1492.0754      35.441349      29.368377    
   1621000   296.82442      316.79343      285.07978     -1513.6862      1494.1677      31.713646      29.370346    
   1622000   294.61648      321.20917      283.74319     -1515.8528      1497.3993      37.46598       29.369463    
   1623000   296.13639      313.24403      274.19875     -1514.0863      1500.8055      39.045278      29.370281    
   1624000   295.62062      313.68837      279.54275     -1516.2239      1498.7543      34.145624      29.371637    
   1625000   295.63282      316.10187      282.18176     -1514.8875      1501.2458      33.920111      29.372788    
   1626000   297.4101       311.96798      290.57374     -1517.6094      1499.7473      21.394233      29.372135    
   1627000   295.76999      313.22434      292.15879     -1518.4947      1500.6197      21.065554      29.369036    
   1628000   292.43231      310.09183      275.10384     -1518.5802      1505.4753      34.987995      29.364609    
   1629000   292.5866       304.93673      282.19155     -1516.978       1507.1336      22.745176      29.359895    
   1630000   295.28915      327.2022       282.73088     -1523.584       1509.2921      44.47132       29.360858    
   1631000   296.12532      318.2863       284.49964     -1520.2415      1508.0306      33.786657      29.358734    
   1632000   294.49093      305.53675      283.79327     -1521.0702      1511.3466      21.743475      29.358067    
   1633000   295.21214      317.62312      286.59225     -1521.0907      1511.5195      31.030874      29.360092    
   1634000   296.64431      313.71193      295.77188     -1521.4226      1508.2381      17.940051      29.360721    
   1635000   293.58803      310.65693      285.06133     -1523.1241      1511.5341      25.595605      29.361222    
   1636000   294.3137       305.04771      284.31329     -1522.2461      1512.0103      20.734413      29.360675    
   1637000   293.59655      294.65185      285.91121     -1521.2872      1513.5355      8.7406466      29.359101    
   1638000   294.62109      316.83556      281.14777     -1527.2971      1512.3112      35.687791      29.357327    
   1639000   294.97763      305.72345      293.97592     -1526.2215      1509.1392      11.747532      29.356324    
   1640000   295.52695      312.3406       284.39422     -1526.6532      1509.9202      27.946377      29.355928    
   1641000   297.06164      323.48842      290.57522     -1528.8816      1510.8276      32.913198      29.356708    
   1642000   296.88649      322.00015      282.49899     -1529.6198      1513.3484      39.50116       29.358784    
   1643000   297.25399      312.33184      297.23191     -1530.2999      1511.8302      15.099932      29.3607      
   1644000   298.09123      329.58959      289.20611     -1532.5015      1512.1982      40.383483      29.358759    
   1645000   294.78304      300.9342       271.55694     -1529.1673      1518.1416      29.377264      29.356391    
   1646000   295.71413      313.07701      279.14663     -1532.9947      1516.4608      33.930372      29.356636    
   1647000   294.75314      312.18119      271.24761     -1534.005       1520.0025      40.933574      29.355964    
   1648000   297.07366      310.55324      294.1427      -1532.7198      1516.8369      16.410543      29.356384    
   1649000   296.36043      321.43117      285.20323     -1537.283       1517.7721      36.227935      29.35626     
   1650000   296.79349      314.29351      282.54643     -1538.0627      1518.9263      31.747085      29.35771     
   1651000   295.35694      306.10659      291.94841     -1535.7675      1518.0553      14.158181      29.355774    
   1652000   297.10468      304.69559      289.92801     -1538.5285      1519.9963      14.767578      29.355679    
   1653000   295.40387      316.77458      287.12634     -1539.8388      1516.5242      29.648239      29.35325     
   1654000   295.5941       305.19362      291.07834     -1539.2167      1518.3815      14.115284      29.349853    
   1655000   297.26414      316.26603      279.30207     -1543.9138      1523.2326      36.963956      29.34872     
   1656000   299.24418      335.29894      297.72616     -1545.3055      1519.407       37.572788      29.346298    
   1657000   296.03444      314.45585      287.69741     -1540.7131      1525.6606      26.758444      29.34644     
   1658000   295.1572       308.15396      285.38417     -1542.0832      1526.8871      22.769785      29.342338    
   1659000   296.57007      324.62917      283.56473     -1546.9774      1529.1728      41.064441      29.341049    
   1660000   296.65683      313.75599      281.35516     -1547.5713      1529.3239      32.400826      29.342594    
   1661000   297.06538      311.85758      293.8326      -1547.5612      1528.0247      18.024978      29.341017    
   1662000   297.64713      312.96127      285.56811     -1549.0814      1531.3336      27.39316       29.339193    
   1663000   297.2992       318.84674      287.69434     -1547.5148      1532.022       31.152393      29.340604    
   1664000   299.28789      313.98336      301.6812      -1549.2978      1529.953       12.302166      29.339526    
   1665000   294.06805      303.00369      277.89619     -1547.68        1535.3161      25.1075        29.339885    
   1666000   294.95444      312.30091      289.22161     -1548.8553      1532.6899      23.079305      29.336615    
   1667000   296.86137      319.3884       284.79162     -1555.056       1536.3394      34.596782      29.335272    
   1668000   295.28953      325.6077       281.16651     -1554.7568      1538.0485      44.441189      29.337856    
   1669000   295.89112      316.59128      274.33769     -1554.1451      1537.3363      42.253585      29.337876    
   1670000   295.14946      310.75512      291.71405     -1553.9611      1537.2413      19.041073      29.342652    
   1671000   296.27753      317.81933      288.58983     -1556.0704      1539.2465      29.229503      29.342153    
   1672000   295.83913      314.50491      284.23469     -1557.7811      1544.146       30.270219      29.341675    
   1673000   295.97383      313.61959      283.54577     -1557.2382      1544.3875      30.073821      29.341422    
   1674000   297.30217      304.59876      275.08603     -1557.0731      1546.2606      29.512734      29.343086    
   1675000   296.4544       322.41569      285.18452     -1559.5255      1547.0292      37.231169      29.341272    
   1676000   296.22822      320.89111      286.72178     -1562.3825      1548.2022      34.169333      29.34029     
   1677000   295.22648      317.66318      274.7185      -1560.5688      1549.8346      42.944675      29.34152     
   1678000   295.495        321.70874      277.77413     -1565.9063      1554.8225      43.93461       29.342189    
   1679000   295.60955      316.83526      292.39248     -1561.5802      1552.6527      24.442773      29.343558    
   1680000   295.53015      314.89047      298.46459     -1563.9312      1552.9243      16.425881      29.340865    
   1681000   296.57623      323.11299      293.74628     -1567.777       1552.929       29.366708      29.341657    
   1682000   295.60278      319.37422      274.68688     -1566.9854      1553.8363      44.687335      29.343111    
   1683000   299.74855      330.72199      288.69092     -1572.3297      1550.2215      42.031075      29.345336    
   1684000   295.11408      313.25211      286.36518     -1569.354       1553.296       26.886927      29.343691    
   1685000   294.80661      297.87863      284.29424     -1566.2682      1552.2346      13.584385      29.341876    
   1686000   295.63677      309.26971      300.16572     -1571.2037      1554.465       9.1039855      29.337814    
   1687000   296.28749      308.02965      277.31895     -1572.8255      1558.2579      30.710698      29.333823    
   1688000   298.0536       320.9948       276.43965     -1575.4748      1561.4726      44.555152      29.333845    
   1689000   299.78184      333.43402      294.73811     -1579.4988      1556.8747      38.695907      29.335288    
   1690000   296.79731      312.13084      282.15547     -1575.5517      1558.1901      29.975375      29.33449     
   1691000   297.68534      333.00414      272.85781     -1580.5501      1564.3885      60.146326      29.334137    
   1692000   298.22         323.64203      271.26483     -1580.6244      1563.0385      52.377194      29.337074    
   1693000   295.81691      329.70479      297.72694     -1582.5726      1561.8141      31.977853      29.336815    
   1694000   294.77675      309.00241      288.87643     -1581.2487      1563.3329      20.125985      29.336759    
   1695000   296.77092      297.20038      278.37789     -1579.7751      1565.3379      18.822498      29.335684    
   1696000   295.00943      309.07983      277.65694     -1582.2045      1567.8571      31.422899      29.333309    
   1697000   294.20699      297.15921      288.52565     -1583.31        1568.0421      8.6335577      29.329317    
   1698000   295.757        321.81707      295.73876     -1584.9555      1567.1308      26.078309      29.327611    
   1699000   296.94523      307.18224      288.8186      -1585.295       1569.0559      18.36364       29.323962    
   1700000   295.2643       317.44341      282.71802     -1584.8627      1569.4727      34.725386      29.321358    
   1701000   294.57979      306.78353      279.81389     -1585.5425      1570.9801      26.969639      29.319904    
   1702000   295.37315      300.10733      295.53712     -1586.8753      1567.5901      4.5702034      29.320001    
   1703000   294.39586      302.52387      287.06232     -1589.1206      1572.0718      15.461547      29.319052    
   1704000   295.32486      308.77005      284.08661     -1589.6557      1573.7668      24.683441      29.320625    
   1705000   296.22813      313.06328      285.6892      -1592.4067      1575.3759      27.37408       29.322627    
   1706000   296.68334      327.63279      282.27561     -1592.1909      1576.0903      45.357183      29.324472    
   1707000   293.32814      297.76768      290.45319     -1589.4545      1575.0447      7.3144895      29.327414    
   1708000   296.92135      313.17987      291.84261     -1595.4441      1574.6079      21.337259      29.32835     
   1709000   296.03016      318.25595      286.72589     -1597.1792      1579.6405      31.530062      29.33206     
   1710000   296.89448      315.37447      292.8399      -1596.8919      1577.644       22.534565      29.330981    
   1711000   294.11615      306.02901      282.22703     -1592.7529      1582.0241      23.801981      29.330152    
   1712000   295.31368      321.55058      281.75441     -1594.255       1582.3317      39.796168      29.329572    
   1713000   293.60003      315.41651      282.9094      -1599.832       1582.828       32.507106      29.330838    
   1714000   299.42213      322.32758      291.02905     -1601.6419      1582.5635      31.298534      29.330282    
   1715000   296.57052      309.1406       306.74763     -1600.7083      1583.2734      2.3929639      29.326559    
   1716000   294.92057      307.0221       290.81533     -1597.7104      1584.4717      16.206776      29.324741    
   1717000   298.03599      307.85639      302.58042     -1598.9243      1586.8567      5.2759672      29.324218    
   1718000   296.07205      317.24735      283.78496     -1599.9431      1587.5824      33.462393      29.324688    
   1719000   297.52583      318.2753       300.81595     -1601.9822      1587.4387      17.459348      29.320612    
   1720000   296.476        313.17917      279.12825     -1602.0262      1590.8115      34.050923      29.321963    
   1721000   298.64709      320.40295      289.12438     -1602.6028      1587.1166      31.278565      29.319672    
   1722000   296.83893      334.54096      290.14883     -1606.8429      1591.5788      44.392125      29.320661    
   1723000   297.05079      317.71369      269.76292     -1607.8102      1592.3215      47.950768      29.320501    
   1724000   295.20023      323.7722       269.24323     -1607.0742      1595.977       54.528971      29.321176    
   1725000   294.62431      297.04642      281.71899     -1603.2189      1594.6503      15.327435      29.320192    
   1726000   294.2049       306.11687      282.8878      -1605.027       1599.968       23.229071      29.320564    
   1727000   294.60553      306.36507      286.10294     -1602.6266      1598.868       20.262127      29.319681    
   1728000   293.96539      308.11339      285.76326     -1604.5012      1596.8172      22.350129      29.320606    
   1729000   293.02169      305.20444      276.33829     -1605.318       1599.9342      28.866158      29.319051    
   1730000   295.41991      301.38218      303.28889     -1604.49        1596.6086     -1.9067052      29.318296    
   1731000   292.71593      309.28281      279.65567     -1607.0523      1599.2521      29.627141      29.317649    
   1732000   291.99372      301.48744      294.88588     -1607.798       1599.5733      6.60156        29.319731    
   1733000   296.39196      327.24174      287.01646     -1612.0644      1602.2492      40.225279      29.321613    
   1734000   294.02649      325.72179      281.16232     -1613.3314      1604.2503      44.559476      29.320664    
   1735000   297.26286      318.54131      281.36519     -1613.7413      1604.6591      37.176119      29.322673    
   1736000   294.75478      327.72235      278.95199     -1616.8244      1603.9909      48.770355      29.322359    
   1737000   295.41549      307.39443      293.22555     -1613.7486      1604.1064      14.168877      29.323025    
   1738000   295.25464      298.67015      288.86592     -1613.6854      1605.726       9.8042276      29.320295    
   1739000   294.58324      324.39486      291.32854     -1616.8868      1604.6526      33.066316      29.31953     
   1740000   292.12521      305.21014      270.08488     -1614.9979      1609.8443      35.12526       29.319056    
   1741000   294.89991      302.43334      281.95169     -1618.9963      1608.1737      20.481645      29.318117    
   1742000   294.80262      326.79712      294.16148     -1622.667       1606.4488      32.635641      29.317647    
   1743000   291.76485      308.491        279.80766     -1618.9049      1613.946       28.683348      29.316536    
   1744000   295.66568      309.6591       288.56516     -1622.1743      1610.8011      21.093938      29.318866    
   1745000   297.40694      321.67231      281.41362     -1626.43        1612.9911      40.258689      29.317045    
   1746000   295.48714      317.20953      273.8316      -1626.1618      1613.7499      43.377924      29.3165      
   1747000   296.58956      322.93572      283.35275     -1629.0199      1610.488       39.582969      29.316674    
   1748000   296.247        326.07901      296.41182     -1628.3637      1609.6009      29.667198      29.312695    
   1749000   295.97925      317.3742       272.3464      -1631.5905      1616.4552      45.027802      29.313043    
   1750000   294.19454      298.87853      285.08207     -1630.2491      1614.5907      13.79646       29.313601    
   1751000   294.44331      298.77333      272.12995     -1630.3918      1615.634       26.643383      29.316058    
   1752000   298.29017      315.88568      299.76673     -1636.1098      1613.8067      16.118952      29.315852    
   1753000   295.77668      309.81765      292.28369     -1635.158       1614.464       17.533962      29.31269     
   1754000   296.2584       316.03032      292.39877     -1635.085       1614.5432      23.631546      29.309773    
   1755000   295.87754      322.13375      283.61271     -1634.5039      1618.5698      38.521039      29.308508    
   1756000   295.12319      316.80649      286.10842     -1634.776       1616.9598      30.698064      29.308883    
   1757000   294.50379      314.86826      286.00897     -1639.1498      1619.7111      28.859283      29.313169    
   1758000   296.19         302.5699       287.6979      -1637.985       1617.7276      14.872         29.313879    
   1759000   298.0756       313.03041      275.46028     -1639.3948      1621.2893      37.570137      29.316818    
   1760000   295.99726      304.86512      287.46367     -1636.313       1619.2467      17.401456      29.315784    
   1761000   298.02632      323.95516      280.7954      -1640.0475      1620.9543      43.15976       29.316526    
   1762000   297.97912      311.50211      296.37963     -1639.1735      1620.2832      15.122484      29.3143      
   1763000   294.70881      298.05632      297.60253     -1638.6504      1620.3683      0.4537867      29.314909    
   1764000   297.85621      323.14981      287.41323     -1643.8721      1620.2683      35.736581      29.314542    
   1765000   296.50394      308.85853      289.47763     -1643.0078      1617.8791      19.380901      29.314651    
   1766000   298.04188      325.87564      286.11694     -1645.9603      1621.6238      39.7587        29.315336    
   1767000   298.06984      314.18582      280.46378     -1645.1012      1623.7203      33.722036      29.314903    
   1768000   297.43212      314.47411      287.55451     -1647.133       1624.6918      26.919602      29.310012    
   1769000   300.23988      308.97109      295.27876     -1646.985       1624.0919      13.692329      29.305938    
   1770000   296.87766      318.11926      293.67146     -1648.5278      1625.1176      24.447804      29.306431    
   1771000   295.06388      308.84556      280.91476     -1645.3677      1631.0511      27.930797      29.306328    
   1772000   296.65285      314.40074      272.92057     -1648.451       1631.6253      41.480171      29.309546    
   1773000   298.941        311.84767      294.84869     -1647.9413      1629.1518      16.998982      29.311514    
   1774000   298.03911      318.77853      292.56688     -1649.2653      1626.6969      26.211646      29.310799    
   1775000   297.2966       316.10768      277.68189     -1648.3147      1631.4924      38.425792      29.309297    
   1776000   296.04293      323.73269      287.74551     -1649.5806      1628.9883      35.987188      29.309073    
   1777000   297.3706       314.3297       298.05424     -1646.9426      1626.7664      16.275462      29.307475    
   1778000   297.42177      326.20733      288.90653     -1649.9988      1630.8967      37.300798      29.307695    
   1779000   295.72282      319.97626      290.51583     -1651.3639      1634.7712      29.460425      29.303608    
   1780000   294.38782      313.53313      276.7188      -1649.4588      1637.1548      36.814334      29.303609    
   1781000   294.16427      299.0586       272.37773     -1648.7656      1638.4667      26.680866      29.300337    
   1782000   297.09014      314.15906      283.45922     -1647.5076      1636.7038      30.699831      29.299931    
   1783000   295.87922      315.40737      270.92124     -1651.6509      1639.9594      44.486123      29.298711    
   1784000   297.28003      318.59946      295.80337     -1652.6633      1635.7222      22.79609       29.297987    
   1785000   295.4977       320.49588      286.4263      -1652.8044      1638.0793      34.069576      29.298256    
   1786000   297.20445      311.68015      285.26369     -1653.4239      1640.5161      26.416461      29.298528    
   1787000   296.51338      316.95159      292.52106     -1654.6035      1641.278       24.430528      29.298534    
   1788000   294.74947      305.32782      273.03019     -1653.6866      1645.075       32.297626      29.297147    
   1789000   295.70492      307.49662      294.74899     -1655.0751      1641.6355      12.747635      29.29738     
   1790000   297.18968      335.14757      283.48795     -1656.3966      1646.1964      51.659626      29.297021    
   1791000   294.28011      317.67527      284.48137     -1653.1361      1648.5356      33.193904      29.297395    
   1792000   293.01669      316.57244      283.7227      -1655.2875      1648.5103      32.849738      29.300556    
   1793000   295.58953      318.7739       284.93483     -1654.721       1649.7692      33.839071      29.302922    
   1794000   294.22931      320.66955      279.98048     -1655.7844      1651.7228      40.689068      29.304324    
   1795000   293.62923      323.85811      286.11352     -1658.3771      1653.4138      37.744583      29.304281    
   1796000   293.99207      326.06134      271.28953     -1657.7022      1655.5152      54.771803      29.304639    
   1797000   293.42871      323.32645      282.08222     -1659.3651      1654.3838      41.244226      29.305133    
   1798000   293.07983      303.35736      282.08686     -1657.6091      1656.2193      21.270501      29.302995    
   1799000   295.35503      334.06553      280.14507     -1662.9932      1656.7361      53.920456      29.302442    
   1800000   292.82924      312.68269      282.36693     -1659.4613      1655.8317      30.315759      29.303648    
   1801000   293.75735      327.19199      282.41288     -1663.7645      1657.8904      44.779114      29.306755    
   1802000   295.15897      319.99907      287.69065     -1661.8149      1655.7817      32.308417      29.309962    
   1803000   294.07094      310.61914      288.98989     -1663.1883      1659.4121      21.629258      29.310622    
   1804000   294.42688      312.6519       278.57997     -1664.4922      1660.4952      34.071931      29.311348    
   1805000   291.44128      315.90556      273.09818     -1666.0385      1663.468       42.807389      29.309189    
   1806000   292.65445      310.90217      295.08181     -1667.6942      1660.0489      15.820353      29.309107    
   1807000   294.31951      316.44301      294.37908     -1669.1354      1663.4035      22.063929      29.308649    
   1808000   294.54864      310.10986      286.26229     -1667.0564      1665.0333      23.847573      29.308544    
   1809000   293.12138      310.41797      290.19878     -1668.8107      1664.8508      20.219197      29.31082     
   1810000   295.24951      321.24129      284.08542     -1669.9419      1666.0968      37.155867      29.312842    
   1811000   294.17862      311.49377      288.1302      -1670.8191      1667.3608      23.363569      29.314814    
   1812000   293.53557      313.92898      284.76847     -1673.3358      1667.1253      29.160515      29.316995    
   1813000   293.38535      318.52026      269.28389     -1670.9825      1669.5322      49.236364      29.318329    
   1814000   293.52451      321.31313      280.4355      -1673.9225      1671.8687      40.877628      29.320884    
   1815000   293.44719      319.54409      277.63872     -1676.6809      1669.0283      41.905367      29.323771    
   1816000   292.28651      308.506        280.18196     -1671.3226      1670.2405      28.324039      29.323184    
   1817000   293.94242      307.81855      290.83213     -1675.0254      1666.7048      16.986418      29.323654    
   1818000   291.92331      312.24097      269.42808     -1677.7591      1671.0761      42.812892      29.324232    
   1819000   295.0288       325.84641      287.40107     -1679.3152      1669.8035      38.44534       29.322437    
   1820000   293.07107      325.46304      283.91801     -1680.4128      1672.4527      41.545029      29.324324    
   1821000   294.67582      325.59069      281.43205     -1680.0364      1676.1824      44.15864       29.325521    
   1822000   296.90689      322.3368       295.90806     -1681.1905      1673.652       26.428735      29.325712    
   1823000   295.21775      302.22281      291.36584     -1680.8053      1672.7489      10.856967      29.326139    
   1824000   294.86634      308.85555      285.61052     -1682.181       1675.1068      23.245029      29.323523    
   1825000   295.29838      314.34195      284.60823     -1684.0963      1675.1588      29.733716      29.32243     
   1826000   294.366        314.11902      263.09696     -1686.5855      1679.5859      51.022053      29.321288    
   1827000   295.41272      305.88016      285.35419     -1686.441       1675.0371      20.52597       29.317025    
   1828000   295.0275       325.0491       289.54686     -1689.6089      1678.3392      35.502243      29.317365    
   1829000   296.4721       321.60629      283.62076     -1688.1995      1679.5422      37.985529      29.315829    
   1830000   294.0365       313.90034      282.47866     -1689.6844      1678.758       31.421672      29.31487     
   1831000   293.13535      309.03533      278.9329      -1690.0607      1681.6823      30.102429      29.31111     
   1832000   294.27922      303.62272      286.10069     -1688.5886      1682.1704      17.522024      29.308771    
   1833000   295.63912      317.87249      278.76176     -1694.2948      1683.6671      39.110732      29.310324    
   1834000   292.4553       314.46145      283.5157      -1692.2008      1683.7044      30.945758      29.312902    
   1835000   292.68419      300.57085      288.87857     -1690.5796      1684.3043      11.692285      29.314256    
   1836000   294.44201      311.25859      295.39586     -1692.1218      1684.9237      15.862735      29.315056    
   1837000   295.84932      325.92232      285.96343     -1695.6893      1687.1651      39.958889      29.317385    
   1838000   296.71036      323.78908      280.76177     -1695.0656      1686.6241      43.027308      29.31883     
   1839000   295.42114      315.23337      291.98014     -1693.7816      1685.8619      23.253229      29.318384    
   1840000   295.52103      316.61188      287.50519     -1692.4463      1687.6729      29.10669       29.31999     
   1841000   294.66106      310.18597      287.4052      -1691.785       1688.3587      22.780766      29.320884    
   1842000   294.29049      309.75312      287.62024     -1693.647       1690.3425      22.13288       29.31768     
   1843000   295.27462      307.10019      300.13984     -1697.9082      1689.1103      6.9603499      29.316866    
   1844000   294.08055      315.63491      286.71555     -1697.571       1688.8671      28.919366      29.316269    
   1845000   294.46954      314.84241      280.56773     -1695.5014      1688.6165      34.274679      29.314824    
   1846000   294.00861      299.20628      281.0586      -1697.4313      1691.9076      18.147678      29.312404    
   1847000   295.78976      329.15629      291.0544      -1701.4341      1689.6159      38.10189       29.311571    
   1848000   295.4963       303.15239      294.40934     -1697.3638      1692.2504      8.7430488      29.311493    
   1849000   294.22469      306.84463      288.47367     -1698.9149      1694.7152      18.370953      29.308242    
   1850000   295.43475      317.12205      286.22123     -1699.7843      1694.937       30.900821      29.305903    
   1851000   293.53199      314.03653      288.15135     -1702.8823      1695.1911      25.885183      29.305912    
   1852000   295.1941       306.91352      295.79907     -1702.3895      1693.3372      11.114443      29.303305    
   1853000   292.50214      300.40561      279.34144     -1704.5143      1694.6953      21.064176      29.303104    
   1854000   294.81756      318.54576      279.3854      -1707.204       1698.7753      39.160363      29.301778    
   1855000   294.71882      308.27417      293.41955     -1705.4891      1698.1223      14.854617      29.299118    
   1856000   295.76152      329.98033      297.82251     -1712.4558      1697.9205      32.157814      29.300275    
   1857000   295.61482      323.85408      293.18999     -1710.3885      1696.8384      30.664088      29.299722    
   1858000   295.23375      328.35483      281.99983     -1715.3947      1699.3226      46.355009      29.302246    
   1859000   298.38667      320.60828      297.10803     -1713.6066      1696.9         23.500246      29.301218    
   1860000   294.84176      310.19497      273.8822      -1712.4247      1703.5575      36.312772      29.299841    
   1861000   292.95471      310.55411      279.60684     -1711.4355      1704.3262      30.947272      29.302247    
   1862000   296.83081      318.39149      289.49503     -1716.5601      1704.6821      28.896455      29.30191     
   1863000   294.92466      305.51077      284.84508     -1713.1364      1702.2179      20.665687      29.301381    
   1864000   298.22012      331.62753      281.36214     -1715.4012      1705.3949      50.265395      29.30292     
   1865000   294.21625      310.02638      287.89534     -1713.3613      1703.7774      22.131045      29.303254    
   1866000   298.40997      322.17671      280.24723     -1715.904       1703.957       41.92948       29.302547    
   1867000   295.15598      318.15889      279.93275     -1718.2764      1704.9415      38.226146      29.304539    
   1868000   294.41142      302.67435      286.53887     -1715.6575      1703.4479      16.135485      29.303862    
   1869000   296.78371      299.69917      298.31119     -1715.0157      1703.7263      1.3879797      29.302716    
   1870000   295.50959      308.33708      291.09177     -1718.4186      1704.1276      17.245315      29.30199     
   1871000   295.64443      313.36701      297.69097     -1720.5998      1705.9199      15.676049      29.298671    
   1872000   298.57033      311.4916       288.76939     -1720.5126      1708.1396      22.722211      29.300811    
   1873000   297.64414      311.92714      289.91363     -1718.4999      1706.8784      22.013509      29.300135    
   1874000   293.30003      296.50655      288.49666     -1718.7848      1709.7723      8.0098895      29.299374    
   1875000   296.0697       315.25229      300.87712     -1722.5628      1708.8891      14.375165      29.296391    
   1876000   296.51287      324.96706      283.40232     -1723.5871      1711.5736      41.56474       29.296741    
   1877000   296.9852       323.10949      293.04377     -1724.5923      1708.9928      30.065725      29.296438    
   1878000   296.32716      309.40757      295.21776     -1725.2227      1709.5288      14.189816      29.293385    
   1879000   297.21084      326.5972       295.01193     -1730.2202      1710.0091      31.585272      29.294079    
   1880000   293.7481       308.35209      271.82302     -1724.845       1715.0973      36.529068      29.295177    
   1881000   294.84622      311.03615      282.0226      -1729.5842      1716.2438      29.013546      29.294872    
   1882000   293.51311      316.98652      275.13689     -1725.5476      1717.4291      41.849628      29.294691    
   1883000   295.71528      309.78274      289.84916     -1728.6242      1717.2979      19.933577      29.293305    
   1884000   292.88869      328.01715      281.94362     -1729.8044      1718.7443      46.073527      29.294647    
   1885000   293.70962      313.94008      287.9736      -1729.6666      1721.8217      25.96648       29.294237    
   1886000   294.21788      313.74153      288.11603     -1732.9481      1723.0346      25.625505      29.294848    
   1887000   294.58071      311.17193      291.28356     -1734.6848      1722.6734      19.888369      29.298392    
   1888000   296.35341      312.54632      300.1098      -1734.1367      1721.9435      12.436521      29.298217    
   1889000   294.01269      312.62786      294.84385     -1736.21        1725.7739      17.78401       29.297853    
   1890000   297.4986       320.2663       276.88556     -1738.7987      1724.775       43.380743      29.298295    
   1891000   294.72518      326.46154      271.77607     -1739.3153      1728.5396      54.685463      29.297822    
   1892000   297.0736       320.46721      290.22915     -1740.2857      1724.77        30.238064      29.299863    
   1893000   296.41375      323.31735      290.78366     -1741.4002      1726.843       32.533686      29.298042    
   1894000   296.78027      299.55244      282.81661     -1735.0161      1730.1412      16.735833      29.298718    
   1895000   294.36537      307.50844      287.61466     -1739.7547      1729.0108      19.89378       29.297822    
   1896000   295.61323      320.65581      296.96436     -1743.3591      1730.7877      23.691459      29.29842     
   1897000   295.28807      315.40166      285.29469     -1742.8969      1734.5746      30.106965      29.298839    
   1898000   296.34546      322.34503      282.28411     -1744.6021      1733.3672      40.060918      29.302363    
   1899000   299.24191      320.24205      304.76015     -1743.786       1731.8073      15.4819        29.303522    
   1900000   296.73033      316.10575      290.81681     -1746.6125      1732.8268      25.288946      29.305001    
   1901000   294.76151      318.46909      286.27928     -1746.6262      1735.5201      32.189813      29.304045    
   1902000   297.09683      325.25184      291.14391     -1749.9168      1734.4785      34.107921      29.304782    
   1903000   296.51687      302.59897      290.20194     -1745.5979      1736.7799      12.397032      29.303315    
   1904000   296.87716      330.63532      278.82467     -1754.498       1736.8086      51.81065       29.30424     
   1905000   296.99192      312.60774      289.39981     -1752.7489      1738.2206      23.207924      29.307561    
   1906000   295.84233      321.78184      273.91018     -1755.011       1740.2733      47.871661      29.307834    
   1907000   298.98488      315.79993      291.43568     -1755.2176      1739.9794      24.364253      29.309691    
   1908000   294.99269      317.94838      285.93082     -1756.8782      1740.2321      32.017558      29.311717    
   1909000   294.30317      315.13313      278.95157     -1757.033       1742.4487      36.181564      29.311014    
   1910000   296.01968      308.39033      277.14314     -1756.0008      1743.3694      31.247187      29.31007     
   1911000   296.91635      313.16746      295.61855     -1759.8682      1741.5152      17.548909      29.309955    
   1912000   299.0735       331.49412      302.81976     -1762.9191      1742.065       28.67436       29.308964    
   1913000   295.02584      318.69823      291.63836     -1760.8228      1743.088       27.059867      29.309634    
   1914000   297.4529       330.83372      288.6752      -1763.4668      1744.2491      42.158516      29.312358    
   1915000   295.00403      308.28497      285.88129     -1763.3931      1744.3486      22.403673      29.311864    
   1916000   296.02891      315.12614      287.05188     -1763.3018      1743.8213      28.074258      29.312215    
   1917000   296.0745       311.53587      283.52442     -1766.4329      1747.8603      28.01145       29.312643    
   1918000   294.84159      310.86804      276.74698     -1763.8313      1748.8188      34.12106       29.310755    
   1919000   294.69631      315.00073      285.02729     -1767.4677      1750.5645      29.973438      29.311988    
   1920000   297.08291      334.45848      285.20335     -1769.8931      1749.0949      49.25513       29.313204    
   1921000   298.77028      310.7091       292.69512     -1767.6501      1750.3086      18.01398       29.315113    
   1922000   297.34905      318.27412      295.46769     -1771.6902      1749.449       22.806429      29.3157      
   1923000   296.72935      305.17189      289.76231     -1772.2834      1748.8631      15.409579      29.317547    
   1924000   296.16127      312.10908      270.60554     -1773.9498      1750.5918      41.50354       29.316208    
   1925000   298.69712      324.45103      279.03205     -1778.2632      1752.9822      45.418976      29.316314    
   1926000   296.67068      296.80287      281.91861     -1771.3065      1753.4214      14.884257      29.315808    
   1927000   296.11943      297.39211      291.90259     -1773.0796      1753.0008      5.4895216      29.314332    
   1928000   296.97508      324.39454      284.14191     -1778.0684      1754.915       40.252632      29.312979    
   1929000   295.72811      309.79978      283.90161     -1774.2475      1754.4693      25.898172      29.312575    
   1930000   297.0139       312.89204      282.98142     -1775.867       1757.0762      29.910623      29.315373    
   1931000   298.0624       316.82523      282.08688     -1778.6946      1753.9698      34.738353      29.315669    
   1932000   298.72451      316.29762      281.58509     -1780.8635      1757.2532      34.712533      29.314991    
   1933000   296.48652      312.37906      282.9077      -1779.8124      1758.0326      29.471364      29.316255    
   1934000   298.53187      312.45865      288.40461     -1779.6456      1759.3053      24.054032      29.313547    
   1935000   295.84872      321.69938      290.61622     -1781.1656      1759.1203      31.083162      29.311747    
   1936000   296.81934      323.08201      297.24273     -1780.9883      1761.2759      25.839284      29.312207    
   1937000   297.97799      321.9146       273.43773     -1782.382       1762.2459      48.476876      29.317027    
   1938000   294.86139      290.29227      281.26259     -1777.4658      1762.0002      9.029684       29.320914    
   1939000   296.70845      310.13159      283.81986     -1781.0486      1764.3124      26.311728      29.323251    
   1940000   296.27238      311.6624       297.57216     -1779.5475      1763.8329      14.090241      29.323857    
   1941000   297.58547      327.34358      284.24044     -1784.4365      1767.2075      43.103143      29.322845    
   1942000   299.68401      325.02487      290.14124     -1781.3092      1765.171       34.883634      29.32478     
   1943000   298.13626      325.77768      275.89218     -1784.2627      1767.7452      49.885502      29.323295    
   1944000   295.98503      303.22846      286.65125     -1780.2717      1766.9954      16.577215      29.322723    
   1945000   295.92055      309.37855      287.58433     -1783.264       1768.2262      21.794217      29.322549    
   1946000   296.03257      309.98555      288.7469      -1784.5737      1770.1799      21.238646      29.318184    
   1947000   294.89654      311.18596      293.46295     -1785.1163      1770.0844      17.723009      29.319273    
   1948000   294.55664      311.10813      296.28333     -1784.4823      1770.2381      14.8248        29.317266    
   1949000   295.9647       328.95225      298.966       -1789.5152      1771.4876      29.986252      29.315687    
   1950000   296.68518      315.03162      285.77998     -1788.1789      1774.5102      29.251634      29.316478    
   1951000   297.52561      322.06113      284.89591     -1791.1576      1772.1165      37.165216      29.317129    
   1952000   297.14518      311.71895      295.81145     -1790.3239      1774.7826      15.907506      29.315151    
   1953000   296.857        323.01843      297.85947     -1794.072       1778.2224      25.158962      29.316714    
   1954000   295.74613      309.39381      286.30491     -1791.5026      1775.9895      23.088901      29.316377    
   1955000   296.52483      308.41917      290.62632     -1792.6922      1776.894       17.792848      29.314972    
   1956000   296.39628      310.9063       291.93486     -1792.2878      1778.2687      18.971438      29.316259    
   1957000   296.03949      321.56403      281.86606     -1793.7117      1781.5281      39.69797       29.316054    
   1958000   294.94551      311.98636      277.89219     -1792.8497      1784.1527      34.094168      29.315025    
   1959000   295.87345      314.77476      284.85927     -1795.4583      1784.2038      29.915494      29.314154    
   1960000   297.3143       312.40744      290.23133     -1796.3477      1782.9299      22.176118      29.313816    
   1961000   294.37543      318.32928      275.572       -1794.6111      1784.7769      42.757288      29.314273    
   1962000   293.25574      310.0814       272.78594     -1797.4121      1788.0007      37.295459      29.312259    
   1963000   294.86485      302.34759      282.04185     -1796.6779      1786.3143      20.30574       29.311154    
   1964000   295.64921      330.65752      285.23454     -1799.6292      1788.9092      45.422977      29.308634    
   1965000   292.92174      304.07478      275.42256     -1797.9684      1789.3489      28.65222       29.307748    
   1966000   293.82973      310.23279      275.62811     -1797.8472      1791.0291      34.60468       29.30902     
   1967000   294.75437      317.08882      278.84447     -1799.1866      1792.5981      38.244342      29.307975    
   1968000   293.05261      305.25242      281.57601     -1798.9455      1789.4104      23.676406      29.307872    
   1969000   296.39126      315.38718      279.5077      -1805.4427      1788.933       35.879482      29.310088    
   1970000   297.54404      322.79649      289.65285     -1806.9844      1788.6404      33.143644      29.309143    
   1971000   295.37612      319.57372      293.48323     -1806.4559      1790.769       26.090486      29.311748    
   1972000   295.21443      313.70637      277.12862     -1808.4413      1795.5755      36.577745      29.311944    
   1973000   294.46868      307.90185      286.22154     -1807.0747      1798.4569      21.680304      29.310005    
   1974000   296.03759      324.71594      279.69819     -1812.1958      1800.0528      45.017747      29.309461    
   1975000   294.81544      321.69824      292.31546     -1811.4906      1797.4596      29.382781      29.310219    
   1976000   296.02739      316.72909      286.9112      -1814.9762      1798.5666      29.817892      29.313072    
   1977000   296.84553      317.91995      289.25167     -1813.8038      1798.5855      28.668277      29.314022    
   1978000   295.41203      316.33585      293.36095     -1811.7104      1802.8311      22.974894      29.314191    
   1979000   295.30872      325.94219      293.00521     -1816.4174      1803.4627      32.936983      29.313033    
   1980000   294.77248      304.06945      285.98024     -1816.3896      1805.9427      18.089209      29.309999    
   1981000   296.45908      316.95865      282.11168     -1817.3249      1807.6553      34.846969      29.308668    
   1982000   295.38511      321.17022      287.85243     -1822.5858      1808.7203      33.317792      29.306257    
   1983000   294.38348      319.214        282.17101     -1821.2029      1811.5276      37.042993      29.306705    
   1984000   295.37679      313.3872       290.39599     -1821.1338      1810.0564      22.991215      29.30596     
   1985000   297.18975      305.30592      279.87608     -1822.6404      1810.4903      25.429838      29.307002    
   1986000   294.75528      304.78061      286.51504     -1820.8604      1811.6041      18.265569      29.306567    
   1987000   293.72961      310.65476      294.70403     -1819.8033      1814.1515      15.950732      29.306335    
   1988000   295.3906       329.14672      286.62624     -1823.6248      1816.5344      42.52048       29.308128    
   1989000   293.47736      321.59543      284.52297     -1823.5603      1816.5883      37.072459      29.30878     
   1990000   292.64898      320.56951      272.36557     -1823.6642      1820.8331      48.203944      29.309871    
   1991000   295.21232      312.50774      290.80366     -1826.0959      1819.5753      21.704078      29.312968    
   1992000   293.74723      323.63197      288.18761     -1828.7299      1819.6218      35.444365      29.313144    
   1993000   295.69169      309.11117      292.23596     -1828.0367      1820.8771      16.875207      29.313026    
   1994000   294.02487      318.77347      286.46602     -1829.5462      1821.5085      32.307456      29.311512    
   1995000   297.39105      324.48722      292.99547     -1832.2729      1820.7779      31.491751      29.312498    
   1996000   292.65504      312.71153      261.34432     -1830.5513      1828.1145      51.367207      29.313855    
   1997000   294.25576      313.74075      284.72306     -1832.7295      1825.853       29.017688      29.313949    
   1998000   292.83131      306.48559      298.07029     -1832.2155      1827.3793      8.4153035      29.314318    
   1999000   292.92551      316.43007      270.93042     -1833.1939      1829.5708      45.499648      29.313731    
   2000000   294.02695      306.01939      283.98402     -1832.5693      1831.1648      22.035362      29.313839    
   2001000   291.74448      309.3657       291.34321     -1835.1141      1831.4919      18.022484      29.314145    
   2002000   294.20412      314.61749      291.9187      -1836.2187      1832.9338      22.698795      29.314758    
   2003000   293.20481      318.31338      274.73273     -1835.9128      1835.7038      43.580652      29.313524    
   2004000   293.46604      305.12634      281.01128     -1835.4988      1835.8914      24.115058      29.313374    
   2005000   293.80996      317.86508      279.22219     -1837.6224      1836.7983      38.642899      29.315784    
   2006000   292.81032      315.51221      269.25982     -1838.5896      1838.6562      46.252381      29.316151    
   2007000   295.5659       317.15899      289.08994     -1837.743       1837.3375      28.069044      29.315871    
   2008000   293.3506       315.39366      294.75725     -1840.9116      1839.0662      20.636409      29.316818    
   2009000   295.616        321.98364      292.13259     -1841.6294      1840.6109      29.851055      29.316612    
   2010000   292.82714      321.30362      291.29772     -1845.6661      1840.9781      30.0059        29.31731     
   2011000   296.38551      329.29212      289.16289     -1847.2413      1839.8278      40.129231      29.316061    
   2012000   292.47156      310.80577      287.14133     -1846.3267      1842.0456      23.664442      29.316485    
   2013000   294.00386      315.92137      296.4056      -1848.9585      1841.6486      19.515767      29.318754    
   2014000   293.36358      305.2986       281.14025     -1848.6515      1843.0246      24.158342      29.320028    
   2015000   296.11826      316.28515      301.09367     -1848.7124      1842.3137      15.191486      29.317655    
   2016000   291.32492      298.8502       287.95535     -1849.3207      1845.4038      10.894854      29.317439    
   2017000   293.90719      320.18697      281.77208     -1851.2579      1848.0016      38.414895      29.316703    
   2018000   290.72353      313.63525      281.96414     -1851.8797      1850.1274      31.671108      29.31876     
   2019000   294.34498      291.97771      282.60516     -1849.747       1848.0578      9.3725567      29.3153      
   2020000   296.82361      319.34208      276.08602     -1854.8459      1852.2083      43.256063      29.316445    
   2021000   293.99145      314.02073      293.80097     -1856.5326      1847.8359      20.219759      29.317595    
   2022000   292.69057      306.48419      287.47491     -1856.1797      1852.0526      19.009279      29.314752    
   2023000   294.97721      327.50048      274.59726     -1858.2975      1853.9113      52.90322       29.316856    
   2024000   294.26101      318.33206      283.52208     -1859.6305      1854.583       34.809978      29.317961    
   2025000   292.8615       311.17227      295.69201     -1858.4323      1853.5585      15.480263      29.316775    
   2026000   295.32189      319.16804      302.31136     -1861.4767      1856.4883      16.856677      29.315401    
   2027000   294.20554      305.84228      294.13415     -1859.2655      1855.7551      11.708132      29.313914    
   2028000   294.08922      297.36072      286.39582     -1861.1662      1858.4251      10.964892      29.31327     
   2029000   293.06872      321.19428      282.93689     -1865.4013      1859.2871      38.25739       29.311898    
   2030000   293.7888       315.29844      291.85657     -1863.859       1860.1623      23.441867      29.312235    
   2031000   295.57683      326.92358      288.25188     -1870.1831      1860.9499      38.671695      29.313304    
   2032000   291.5374       311.66008      285.4117      -1867.5227      1863.0161      26.248376      29.313254    
   2033000   293.17396      312.8913       284.22052     -1863.7029      1865.7446      28.670785      29.310623    
   2034000   294.96347      305.24858      285.7051      -1866.6425      1865.1226      19.54348       29.311768    
   2035000   295.77201      324.1477       294.00412     -1873.3342      1866.2598      30.143579      29.31115     
   2036000   293.10302      316.88985      276.42585     -1869.8971      1867.7619      40.464005      29.311258    
   2037000   295.61758      318.69138      294.48866     -1872.0767      1866.9051      24.202722      29.310576    
   2038000   295.54328      324.52258      280.45858     -1871.1642      1868.8336      44.063997      29.309401    
   2039000   292.58476      315.62171      286.60476     -1874.0312      1870.4793      29.016958      29.309836    
   2040000   292.27966      311.0678       283.16935     -1874.9529      1870.6202      27.898451      29.307176    
   2041000   295.9869       321.31495      296.45323     -1877.4431      1868.0613      24.861724      29.304112    
   2042000   294.43771      323.94623      283.27041     -1877.8647      1872.5699      40.675822      29.304893    
   2043000   294.10227      319.23903      286.20858     -1877.0428      1873.2671      33.030448      29.304513    
   2044000   293.65799      324.70924      287.19547     -1879.1453      1872.4159      37.513771      29.304786    
   2045000   296.34153      318.72242      287.10796     -1880.0492      1874.6199      31.614466      29.306209    
   2046000   295.45815      319.29708      289.8444      -1880.0724      1877.9903      29.45268       29.307793    
   2047000   294.79915      316.05471      297.65253     -1878.9783      1874.0986      18.402181      29.30715     
   2048000   295.39199      324.67831      285.18777     -1880.9796      1876.5655      39.490542      29.30627     
   2049000   294.9439       312.89281      291.21854     -1881.0893      1875.0159      21.674261      29.305003    
   2050000   293.73816      315.64212      277.82419     -1883.2373      1877.9881      37.817938      29.305167    
   2051000   294.67765      303.07828      298.09036     -1880.2531      1873.1697      4.9879243      29.304665    
   2052000   294.67117      325.48136      294.02708     -1885.3369      1876.2104      31.454283      29.302974    
   2053000   295.41517      305.45545      296.46089     -1881.5646      1876.8979      8.9945676      29.301514    
   2054000   293.91855      306.00236      288.47739     -1884.4756      1880.8385      17.524964      29.30179     
   2055000   290.78289      322.03774      278.54436     -1882.7156      1882.0293      43.493377      29.302462    
   2056000   293.75963      317.1505       294.44174     -1885.2389      1880.6068      22.708751      29.300161    
   2057000   291.83901      310.5724       282.90059     -1887.5801      1885.4604      27.671815      29.299232    
   2058000   293.49005      324.25316      283.39107     -1890.0151      1885.7472      40.862083      29.299677    
   2059000   294.32398      319.44486      282.28721     -1892.6793      1886.4252      37.157649      29.300642    
   2060000   293.2408       303.17334      291.15536     -1889.1211      1887.8921      12.017977      29.29864     
   2061000   294.93304      325.75204      289.82593     -1891.043       1887.5519      35.926112      29.298262    
   2062000   292.10062      294.0096       299.29752     -1891.0856      1887.8916     -5.2879198      29.297804    
   2063000   293.46086      314.00221      281.12877     -1891.0441      1893.7118      32.873438      29.298135    
   2064000   295.68741      316.94898      282.84275     -1891.9969      1893.4655      34.106236      29.298465    
   2065000   292.02164      308.69246      295.98644     -1893.724       1890.1205      12.70602       29.29685     
   2066000   294.93082      315.87066      292.66886     -1894.0173      1889.6115      23.201798      29.296088    
   2067000   292.85599      311.44598      294.93948     -1891.7756      1890.822       16.506501      29.295308    
   2068000   292.19525      316.97988      273.88024     -1892.9461      1897.3013      43.099636      29.294895    
   2069000   294.05517      305.62123      287.46053     -1893.5447      1897.5249      18.160693      29.299196    
   2070000   292.81264      324.96737      277.42491     -1896.5591      1898.7498      47.542467      29.301521    
   2071000   291.91921      310.33663      279.08418     -1895.3187      1901.1255      31.252443      29.300605    
   2072000   292.10017      326.52465      295.51112     -1898.2554      1898.8334      31.013533      29.299707    
   2073000   293.23166      300.66726      288.19694     -1897.4512      1899.5506      12.470326      29.296229    
   2074000   293.35318      315.55222      281.15576     -1898.6469      1904.8498      34.396458      29.297343    
   2075000   292.13655      314.58724      277.43619     -1900.5559      1903.6421      37.151051      29.298443    
   2076000   293.58127      334.13187      279.79987     -1904.9883      1905.6568      54.331997      29.299641    
   2077000   292.01363      324.42722      287.00365     -1902.4272      1904.5378      37.423574      29.301546    
   2078000   296.27065      333.1325       290.40537     -1905.5696      1906.9915      42.727129      29.304829    
   2079000   291.66422      309.11036      282.94304     -1901.6071      1909.0615      26.167314      29.303947    
   2080000   292.58454      329.25741      275.42767     -1903.9384      1911.8135      53.82974       29.301573    
   2081000   292.79276      326.90161      282.16539     -1905.7265      1909.6308      44.736222      29.301156    
   2082000   292.69091      318.75302      290.36142     -1905.4099      1909.6933      28.391601      29.300104    
   2083000   292.02853      320.27167      291.83262     -1908.8066      1909.6198      28.439056      29.298398    
   2084000   293.05749      327.0257       279.72301     -1912.8233      1914.3442      47.302694      29.299967    
   2085000   293.86333      312.674        286.44572     -1911.6894      1915.648       26.228277      29.297838    
   2086000   292.81086      320.46608      289.58238     -1912.6312      1914.1905      30.883705      29.298551    
   2087000   291.61125      323.81578      293.31935     -1914.2134      1916.0258      30.496433      29.297163    
   2088000   292.13116      316.08644      289.85443     -1913.9088      1914.4518      26.232016      29.29728     
   2089000   292.72349      311.31158      284.41283     -1912.8726      1918.0092      26.898757      29.297435    
   2090000   293.6267       321.69156      286.5645      -1915.4125      1916.1375      35.127054      29.297487    
   2091000   292.80364      328.67971      284.20539     -1918.053       1918.054       44.474326      29.296606    
   2092000   292.9131       325.73963      287.34512     -1917.6866      1919.9228      38.394502      29.297415    
   2093000   290.97769      316.33797      275.30225     -1917.1898      1918.3703      41.035714      29.300398    
   2094000   294.65272      337.63376      291.42009     -1918.4581      1914.1001      46.213664      29.300196    
   2095000   292.63581      322.57712      283.65452     -1917.4605      1918.1421      38.922601      29.297935    
   2096000   292.82202      311.96003      285.36338     -1915.3535      1917.7027      26.596645      29.296366    
   2097000   291.99222      328.1446       282.31062     -1917.4913      1920.9532      45.83398       29.297821    
   2098000   294.46731      312.76153      282.67698     -1918.1323      1921.603       30.084552      29.298411    
   2099000   291.99948      313.5186       296.12564     -1918.6908      1918.3573      17.392968      29.296876    
   2100000   292.59908      309.6466       275.35792     -1918.1419      1923.5544      34.288681      29.296095    
   2101000   293.68215      310.24454      277.40194     -1920.0325      1920.7867      32.8426        29.295515    
   2102000   292.98155      311.08701      283.90677     -1922.3644      1919.8378      27.180239      29.293902    
   2103000   291.31906      317.3844       267.39073     -1922.0659      1928.1373      49.993671      29.295031    
   2104000   292.82962      308.22458      296.56538     -1924.1452      1921.8337      11.659204      29.296906    
   2105000   290.9991       308.80939      279.21382     -1924.6222      1924.9184      29.595575      29.29569     
   2106000   296.62109      315.5074       296.33116     -1925.5798      1924.3926      19.176241      29.294744    
   2107000   294.34133      325.44013      288.21486     -1925.9954      1926.8169      37.225261      29.291941    
   2108000   292.82502      312.57639      280.57554     -1925.7108      1927.3725      32.000846      29.292736    
   2109000   293.0252       317.19391      298.36681     -1930.5173      1927.2345      18.827106      29.294297    
   2110000   292.93938      317.24651      300.77535     -1929.7473      1928.9543      16.47116       29.294731    
   2111000   292.32005      312.45782      282.05773     -1930.5619      1931.531       30.400093      29.295513    
   2112000   291.9209       301.40741      291.05806     -1929.5039      1933.1957      10.349357      29.295301    
   2113000   292.62183      309.60098      285.48355     -1929.2676      1931.318       24.117429      29.293286    
   2114000   293.97195      321.68391      285.64182     -1931.4856      1932.8503      36.042091      29.295355    
   2115000   293.07512      319.89915      288.77214     -1933.6655      1933.6407      31.127012      29.297384    
   2116000   293.18529      323.77218      263.36058     -1936.2627      1936.4663      60.411597      29.298099    
   2117000   294.25576      324.60684      291.8732      -1938.1004      1933.0571      32.733647      29.298836    
   2118000   295.62434      312.71637      297.71001     -1938.1867      1931.6718      15.006369      29.299468    
   2119000   294.01072      311.93441      286.46244     -1936.0166      1931.9681      25.471969      29.301007    
   2120000   296.60306      306.6384       293.44966     -1937.3439      1930.8954      13.188742      29.301474    
   2121000   294.15452      309.77585      284.58282     -1936.4882      1932.6367      25.193027      29.301684    
   2122000   295.06348      322.08646      292.24074     -1941.9495      1931.4663      29.845718      29.301709    
   2123000   295.10752      319.62603      290.22111     -1942.9905      1933.0138      29.404911      29.300154    
   2124000   295.7639       307.38158      288.25534     -1943.6493      1935.2457      19.126238      29.299491    
   2125000   294.41647      314.02611      274.79809     -1945.0364      1936.382       39.228018      29.304223    
   2126000   293.88211      314.35257      272.18092     -1943.8708      1936.3133      42.171646      29.304112    
   2127000   295.3918       317.64         284.59322     -1946.237       1937.2644      33.046782      29.305785    
   2128000   295.80172      317.3401       287.2024      -1946.9548      1936.6229      30.137701      29.306034    
   2129000   292.25345      299.36585      279.14665     -1945.586       1940.0372      20.219204      29.303876    
   2130000   295.45619      303.56013      292.79236     -1944.71        1936.2817      10.767776      29.305094    
   2131000   296.28253      308.91424      300.73136     -1949.1703      1938.2642      8.1828779      29.306097    
   2132000   291.56689      305.76318      270.78937     -1947.8853      1943.1048      34.973811      29.306235    
   2133000   295.42772      317.71952      296.65746     -1951.3573      1940.1141      21.062062      29.308398    
   2134000   294.50693      315.88167      276.51682     -1951.4966      1944.8616      39.36485       29.310561    
   2135000   294.84332      310.05196      288.15045     -1954.2098      1943.9888      21.901509      29.311626    
   2136000   292.88074      315.53335      279.16049     -1952.2597      1944.8079      36.372862      29.31104     
   2137000   294.2834       322.50174      286.17995     -1953.786       1946.9824      36.321793      29.31184     
   2138000   294.35165      305.30341      281.52002     -1952.3403      1948.3443      23.783389      29.313229    
   2139000   293.56794      310.00626      292.68385     -1953.3893      1946.5517      17.322416      29.312003    
   2140000   293.85652      320.46288      287.80478     -1956.0531      1948.3164      32.658107      29.311798    
   2141000   295.06449      304.56777      275.70695     -1955.4593      1948.1998      28.86082       29.312487    
   2142000   292.49374      306.13407      277.79355     -1959.5697      1950.3094      28.340516      29.31228     
   2143000   295.14725      313.94998      288.97373     -1956.8905      1949.4138      24.976253      29.311835    
   2144000   294.32191      315.95995      290.78159     -1957.6957      1951.2495      25.178362      29.31028     
   2145000   295.58208      316.97802      273.993       -1959.6254      1953.5598      42.985024      29.309475    
   2146000   294.41808      315.8303       277.30549     -1959.3465      1952.4266      38.524803      29.308162    
   2147000   294.59621      319.49004      285.86468     -1962.4702      1952.624       33.625367      29.30788     
   2148000   293.97853      327.02627      270.17093     -1962.804       1956.4644      56.855336      29.311611    
   2149000   293.31678      309.43434      269.50169     -1962.2647      1958.9164      39.93265       29.310982    
   2150000   294.9035       311.01466      280.99671     -1961.5547      1957.0803      30.017945      29.309768    
   2151000   295.93921      308.37635      278.87059     -1964.0849      1956.4792      29.505758      29.309497    
   2152000   295.14026      309.98072      283.35183     -1963.1852      1956.6817      26.628894      29.308859    
   2153000   294.10322      306.76861      289.03344     -1964.4901      1958.6734      17.735171      29.308149    
   2154000   293.64721      319.31641      281.99479     -1966.3285      1959.5211      37.321625      29.308096    
   2155000   294.55129      314.38285      273.31117     -1968.4833      1962.0155      41.071675      29.308106    
   2156000   293.99754      313.92056      282.75608     -1968.4498      1961.5043      31.164474      29.31146     
   2157000   294.60437      312.31692      290.84235     -1964.7294      1960.5886      21.474573      29.31084     
   2158000   295.80978      312.89281      292.41586     -1969.5615      1962.1364      20.476952      29.310099    
   2159000   293.13299      305.58204      292.22517     -1965.0521      1962.5896      13.356873      29.310438    
   2160000   292.0811       322.2306       282.24994     -1969.041       1964.9384      39.980656      29.309382    
   2161000   293.15226      322.49533      282.02851     -1969.2548      1967.1297      40.466824      29.309287    
   2162000   292.25199      285.489        281.74011     -1965.62        1965.8516      3.7488916      29.306814    
   2163000   294.01912      312.65712      285.63288     -1972.087       1967.279       27.02424       29.305686    
   2164000   294.21182      311.92369      286.83086     -1974.1387      1968.8236      25.092825      29.303441    
   2165000   293.89472      329.1248       285.16045     -1977.2745      1969.1565      43.964352      29.305694    
   2166000   291.29833      300.37134      285.04263     -1973.8802      1969.2647      15.328705      29.305868    
   2167000   293.86425      306.62143      287.87405     -1975.3885      1969.0245      18.747381      29.305101    
   2168000   292.23215      311.65724      289.26213     -1974.6303      1970.2868      22.395102      29.305852    
   2169000   294.16631      323.91415      293.63354     -1977.5831      1967.2825      30.280615      29.306286    
   2170000   293.92624      309.14181      277.14112     -1975.142       1972.1228      32.000695      29.305972    
   2171000   292.22941      301.75997      276.87787     -1975.9412      1972.1385      24.882101      29.305575    
   2172000   294.76557      326.27592      276.53126     -1978.5211      1972.349       49.744658      29.305188    
   2173000   294.16541      303.24307      267.05902     -1974.8448      1975.5379      36.184043      29.305445    
   2174000   295.96581      326.30567      290.63829     -1978.5203      1974.0522      35.66738       29.304626    
   2175000   293.06204      310.09573      268.69308     -1979.337       1975.6442      41.402643      29.30476     
   2176000   294.54752      315.3209       272.83276     -1981.9275      1976.9982      42.48814       29.304614    
   2177000   295.43861      323.52417      280.87794     -1987.1351      1976.0649      42.646235      29.306393    
   2178000   293.61641      301.02597      291.40363     -1982.083       1975.8249      9.6223453      29.308455    
   2179000   296.80717      323.04148      286.62529     -1985.5677      1979.9073      36.416192      29.309175    
   2180000   293.02346      308.40186      282.26108     -1985.8774      1980.163       26.140779      29.308315    
   2181000   295.50651      322.64376      286.70083     -1984.4057      1980.7859      35.942924      29.310407    
   2182000   296.34204      303.98466      303.9463      -1987.2078      1976.9918      0.038355427    29.30826     
   2183000   294.47001      314.44658      287.14771     -1988.7819      1980.8271      27.298875      29.307387    
   2184000   294.26687      318.09973      283.72958     -1991.1486      1983.8618      34.37015       29.308321    
   2185000   295.81536      316.42419      276.98137     -1990.2053      1985.7121      39.442828      29.31061     
   2186000   292.22253      319.12771      279.91158     -1993.3248      1986.5746      39.216134      29.310224    
   2187000   293.23925      309.25581      285.70191     -1992.9476      1986.1907      23.553907      29.311382    
   2188000   296.29307      319.15049      294.289       -1996.2726      1985.5579      24.861491      29.311541    
   2189000   295.15124      319.28086      296.3276      -1995.9718      1988.1311      22.953259      29.313449    
   2190000   293.24035      303.1238       288.46473     -1998.096       1991.4147      14.659072      29.31267     
   2191000   295.55697      329.35569      297.19862     -2002.2595      1989.3818      32.157068      29.314133    
   2192000   293.51516      313.65735      284.88573     -1999.478       1994.1268      28.771617      29.314263    
   2193000   294.22897      307.36385      273.58174     -1999.1924      1995.1667      33.782104      29.315835    
   2194000   294.34403      315.86404      300.18851     -2002.0019      1989.8542      15.675533      29.317277    
   2195000   294.48722      305.08356      285.3731      -2003.0428      1992.2184      19.710458      29.31565     
   2196000   294.11245      315.19863      284.60996     -2002.8103      1991.9155      30.58867       29.316972    
   2197000   295.40005      319.93559      294.42524     -2006.846       1992.8882      25.510351      29.317712    
   2198000   295.109        314.24203      288.0513      -2005.5889      1995.9404      26.190729      29.316923    
   2199000   294.93401      318.12318      268.95027     -2007.4212      2001.716       49.172908      29.31829     
   2200000   292.37968      316.39855      281.03367     -2006.455       2001.303       35.364886      29.317695    
   2201000   296.2824       322.18773      291.79886     -2006.5667      2000.2262      30.388864      29.317945    
   2202000   294.54433      317.66166      280.24822     -2010.4874      2001.4867      37.413442      29.319378    
   2203000   292.30459      303.12395      284.23265     -2007.8253      2001.579       18.891297      29.32129     
   2204000   294.81485      325.8408       286.6051      -2012.5096      2004.3188      39.235699      29.321535    
   2205000   294.52019      318.26483      289.191       -2012.4262      2003.4275      29.073827      29.320574    
   2206000   294.44024      304.06182      285.92592     -2010.546       2006.8673      18.135906      29.320197    
   2207000   295.71546      314.28322      279.45565     -2014.1288      2006.1502      34.827573      29.319845    
   2208000   296.24307      313.42565      288.44355     -2015.6302      2007.0778      24.982108      29.317613    
   2209000   295.01566      315.26104      287.74209     -2017.4297      2008.0793      27.518955      29.318919    
   2210000   293.60285      307.95147      295.85998     -2015.4755      2007.1708      12.091487      29.317386    
   2211000   296.43432      312.32694      294.71898     -2016.0596      2010.1694      17.607961      29.315508    
   2212000   294.24679      316.57091      285.06806     -2017.6375      2010.8368      31.502849      29.315217    
   2213000   295.22779      318.12432      287.83978     -2021.8453      2013.0527      30.284541      29.315897    
   2214000   294.27425      311.05369      291.03064     -2018.3136      2012.2562      20.023048      29.318258    
   2215000   292.27617      301.80887      277.70069     -2020.3502      2016.2742      24.108178      29.318693    
   2216000   295.20795      320.10117      290.75284     -2024.4219      2014.2587      29.348323      29.319496    
   2217000   294.98371      310.5391       283.62218     -2021.3971      2016.0476      26.91693       29.31865     
   2218000   295.46148      324.19879      288.71602     -2025.9154      2015.4687      35.482765      29.318865    
   2219000   294.44303      321.18796      289.02092     -2024.0975      2015.7255      32.167046      29.320534    
   2220000   293.50708      317.24787      281.56809     -2023.9004      2019.0866      35.679782      29.320936    
   2221000   296.35917      316.70818      296.841       -2027.2886      2016.2355      19.867183      29.323295    
   2222000   296.1498       316.30099      296.00377     -2025.637       2017.359       20.297211      29.320613    
   2223000   295.10253      312.72047      285.9492      -2026.0672      2021.7601      26.771268      29.320603    
   2224000   294.92798      301.07305      292.38654     -2026.7109      2021.1362      8.6865117      29.319939    
   2225000   293.52047      305.51662      273.11356     -2025.9376      2023.8279      32.403059      29.317523    
   2226000   296.48145      316.15905      298.20293     -2028.1601      2018.3359      17.956125      29.316207    
   2227000   293.01794      312.79124      279.92327     -2028.4185      2024.4183      32.867976      29.312988    
   2228000   294.29388      308.9672       287.83967     -2029.0276      2024.7661      21.12753       29.313104    
   2229000   294.09016      312.96165      280.2421      -2028.4346      2026.3807      32.719545      29.313805    
   2230000   294.36431      311.17785      286.46133     -2028.3112      2025.9417      24.716516      29.315304    
   2231000   292.57204      305.83683      272.11124     -2029.1445      2030.3514      33.725591      29.315517    
   2232000   295.39452      321.6082       285.7312      -2031.0271      2028.4107      35.877004      29.315431    
   2233000   294.70799      321.05682      294.94443     -2032.6125      2028.6147      26.112389      29.316193    
   2234000   293.20825      315.56936      301.24242     -2028.7187      2029.7         14.326935      29.314944    
   2235000   290.82496      304.7665       274.62327     -2030.0675      2032.4756      30.143231      29.31313     
   2236000   291.18274      299.52243      280.57081     -2031.1131      2032.0317      18.951613      29.313046    
   2237000   292.674        307.54028      284.56385     -2033.0246      2032.9143      22.976432      29.312039    
   2238000   292.29033      308.48011      273.45805     -2035.6091      2033.8096      35.022065      29.310762    
   2239000   293.6982       317.95034      282.09811     -2035.9213      2035.4419      35.852237      29.307027    
   2240000   293.34739      306.90955      275.55918     -2035.6555      2034.7941      31.350372      29.307759    
   2241000   294.70585      306.15701      277.92815     -2037.0098      2034.745       28.228852      29.308611    
   2242000   290.68265      317.28572      289.57561     -2036.7119      2036.203       27.710105      29.308381    
   2243000   292.97625      312.55663      273.59286     -2038.5615      2038.6129      38.963775      29.307576    
   2244000   295.7037       313.18067      292.30525     -2041.4061      2038.3377      20.875418      29.308687    
   2245000   292.54537      311.03091      283.84654     -2039.1357      2041.3811      27.184367      29.30844     
   2246000   293.33722      307.41986      281.58232     -2040.5542      2040.9946      25.837537      29.305999    
   2247000   296.33548      324.9379       285.50426     -2046.332       2041.3215      39.433637      29.305901    
   2248000   291.30121      316.82555      284.20336     -2043.5254      2042.0846      32.622193      29.307908    
   2249000   296.51545      320.05732      293.64788     -2045.004       2042.1571      26.409447      29.307496    
   2250000   294.51572      322.10662      291.8241      -2047.9163      2042.1371      30.282524      29.308752    
   2251000   297.90575      337.09451      280.08826     -2051.1675      2046.6002      57.006246      29.309961    
   2252000   295.67481      310.83971      288.96786     -2049.0528      2045.7407      21.871844      29.307848    
   2253000   293.92499      314.32237      289.14082     -2055.2517      2049.7277      25.181549      29.30511     
   2254000   295.98864      315.07482      296.19525     -2056.0786      2048.8925      18.879571      29.30273     
   2255000   293.47721      306.12698      291.44982     -2053.264       2051.8028      14.677161      29.30239     
   2256000   294.50762      312.41523      276.68278     -2055.9779      2052.1085      35.73245       29.304712    
   2257000   296.65718      331.52283      290.10676     -2058.9477      2051.7859      41.416069      29.310395    
   2258000   293.70705      321.40474      277.33853     -2057.9293      2053.7019      44.066214      29.309071    
   2259000   294.26415      320.46679      283.99999     -2062.5091      2051.9842      36.466805      29.31051     
   2260000   294.42918      305.82591      276.94476     -2060.5686      2054.0414      28.881147      29.309072    
   2261000   294.61236      302.70569      288.59578     -2060.0441      2051.7458      14.109907      29.308758    
   2262000   295.79598      327.80479      284.67987     -2064.4934      2052.117       43.124923      29.309045    
   2263000   297.08095      330.97336      283.46811     -2066.1321      2054.579       47.505249      29.308646    
   2264000   293.202        320.04451      278.58501     -2065.8113      2055.4611      41.459492      29.310426    
   2265000   296.15542      316.59755      293.91501     -2065.3262      2054.3853      22.682544      29.311165    
   2266000   293.01404      301.84417      284.07796     -2065.7699      2058.0103      17.766212      29.310034    
   2267000   293.5872       316.99567      287.77606     -2066.0233      2058.2108      29.219608      29.308595    
   2268000   294.7434       312.3012       275.81432     -2065.7753      2062.478       36.486884      29.308548    
   2269000   292.74319      323.41532      277.89533     -2070.4195      2062.063       45.519996      29.309126    
   2270000   293.5139       312.31428      282.80729     -2067.2792      2062.5784      29.506993      29.309159    
   2271000   291.85612      309.87313      290.23004     -2066.1929      2061.4682      19.643094      29.311299    
   2272000   294.56166      312.51266      289.96472     -2068.4466      2063.782       22.547941      29.311828    
   2273000   294.85632      317.4177       294.93348     -2069.8586      2064.6316      22.484216      29.314927    
   2274000   292.76337      318.26284      286.76598     -2072.0241      2068.395       31.496859      29.31371     
   2275000   293.17787      321.20407      284.35451     -2072.9808      2067.8084      36.849558      29.31448     
   2276000   295.7246       310.76536      287.82998     -2073.9211      2070.6194      22.935384      29.315827    
   2277000   294.1972       314.41903      287.02109     -2075.8444      2069.8038      27.397941      29.315189    
   2278000   294.20344      312.76188      290.59788     -2077.8265      2070.887       22.164003      29.316378    
   2279000   293.85852      303.53169      287.24302     -2078.7085      2072.8308      16.288663      29.318111    
   2280000   291.67598      316.54616      274.55759     -2078.1703      2077.1275      41.988567      29.317613    
   2281000   293.50916      320.5844       292.03966     -2080.971       2078.406       28.544745      29.319629    
   2282000   294.95049      326.02166      293.01519     -2083.9061      2078.4689      33.006469      29.320025    
   2283000   292.41482      309.86536      270.54316     -2082.4226      2083.6662      39.322202      29.319693    
   2284000   292.54078      300.62271      295.09949     -2083.0944      2083.7668      5.5232168      29.32052     
   2285000   293.55102      299.96959      273.85326     -2084.8345      2085.0992      26.116332      29.318891    
   2286000   294.49491      317.63475      288.9984      -2089.5982      2084.3029      28.636355      29.317884    
   2287000   294.93283      325.50131      283.18496     -2091.307       2085.0336      42.316345      29.319626    
   2288000   293.95923      312.19865      286.60914     -2092.0796      2084.7295      25.589506      29.320499    
   2289000   296.56287      320.39251      295.30383     -2094.0962      2087.0066      25.088679      29.31981     
   2290000   294.25836      305.85284      294.40189     -2095.0526      2086.965       11.450949      29.319533    
   2291000   293.39457      307.50079      282.01056     -2096.5036      2089.9942      25.490232      29.31877     
   2292000   294.20689      318.37191      283.47784     -2100.3682      2091.233       34.894067      29.319226    
   2293000   293.33842      308.82623      286.61845     -2098.7919      2094.5937      22.207784      29.320167    
   2294000   293.90877      310.10314      284.02129     -2098.7411      2096.3661      26.081851      29.318206    
   2295000   291.91559      311.52538      272.80578     -2101.3545      2097.8718      38.719601      29.321337    
   2296000   294.9123       326.12044      286.33665     -2104.4211      2094.9191      39.783791      29.321283    
   2297000   295.48552      308.85279      286.46208     -2101.8016      2094.5715      22.390707      29.320177    
   2298000   292.63195      312.60805      286.31326     -2101.9622      2096.043       26.294794      29.321843    
   2299000   293.74714      330.40597      287.75889     -2104.7169      2095.1974      42.647075      29.324528    
   2300000   295.14584      306.10885      289.48796     -2102.6426      2096.9496      16.620889      29.324284    
   2301000   294.19412      304.81733      285.16151     -2103.0721      2098.6927      19.655813      29.325071    
   2302000   294.06007      312.61348      280.11704     -2106.9898      2103.2         32.49644       29.327741    
   2303000   295.67334      329.10056      284.47079     -2110.3128      2103.1469      44.629769      29.328168    
   2304000   294.18362      321.60545      287.44119     -2107.9243      2101.9059      34.164259      29.330292    
   2305000   293.48143      307.90451      295.22995     -2109.1925      2100.6414      12.674567      29.330712    
   2306000   294.43009      318.2281       289.62844     -2109.5276      2103.5326      28.599659      29.332087    
   2307000   294.4913       303.36566      287.89663     -2107.8616      2101.7883      15.469026      29.329351    
   2308000   295.16095      311.99308      289.437       -2113.467       2106.079       22.556079      29.328896    
   2309000   294.93818      300.27803      298.76936     -2111.5274      2105.619       1.5086719      29.329178    
   2310000   295.62234      319.9883       283.6687      -2111.9671      2110.2417      36.319604      29.329666    
   2311000   294.53679      301.42283      290.67341     -2115.037       2107.8453      10.749424      29.329359    
   2312000   295.16186      330.5089       283.90546     -2120.5721      2111.2127      46.603441      29.33026     
   2313000   294.79419      311.56975      287.76274     -2114.0937      2110.7074      23.807005      29.33065     
   2314000   293.17371      306.24358      272.00369     -2118.1354      2115.2858      34.239883      29.328209    
   2315000   293.80081      306.08337      285.92796     -2120.6681      2114.7618      20.155416      29.329643    
   2316000   294.81424      323.98075      284.25849     -2124.6645      2112.674       39.722254      29.329711    
   2317000   296.28011      322.54007      282.36014     -2124.688       2114.4114      40.179933      29.32884     
   2318000   294.70422      320.06114      293.03913     -2123.1795      2114.8855      27.022017      29.328482    
   2319000   294.15414      315.65979      283.93462     -2125.9228      2119.0379      31.725166      29.328658    
   2320000   295.42602      316.53963      279.56795     -2126.1936      2121.5938      36.971674      29.327774    
   2321000   292.05263      318.15145      287.36671     -2130.6031      2122.8562      30.784745      29.329045    
   2322000   294.06967      310.86976      285.8093      -2129.0533      2123.4567      25.060462      29.328585    
   2323000   293.33792      309.78651      282.58331     -2133.2884      2123.9983      27.203194      29.331616    
   2324000   294.04098      303.47281      283.01138     -2131.3211      2125.5416      20.461437      29.330461    
   2325000   293.45074      327.07486      290.1336      -2135.9823      2126.2321      36.941268      29.331415    
   2326000   294.40617      319.50148      285.29285     -2138.6887      2130.9713      34.208623      29.330968    
   2327000   295.02087      316.16758      283.30414     -2136.2949      2131.8711      32.863441      29.334271    
   2328000   294.33164      321.30247      273.49792     -2140.0367      2133.8813      47.804544      29.331952    
   2329000   295.8365       322.54567      279.18268     -2139.7768      2134.7089      43.362987      29.334159    
   2330000   293.92799      294.11977      278.8967      -2140.9377      2136.9355      15.223068      29.335044    
   2331000   295.20431      310.69845      282.34419     -2144.371       2134.1438      28.354263      29.336959    
   2332000   296.558        317.49087      288.60133     -2143.8546      2137.3487      28.889538      29.335168    
   2333000   291.39053      309.90957      285.82618     -2144.5516      2139.5392      24.08339       29.33634     
   2334000   292.12854      308.53111      282.76725     -2144.5148      2139.5366      25.76386       29.336072    
   2335000   293.14545      334.37094      282.42411     -2145.5547      2141.3782      51.946829      29.337044    
   2336000   293.25133      319.41692      281.77811     -2146.7266      2140.8953      37.638808      29.336674    
   2337000   294.88573      315.91407      287.29522     -2147.3781      2143.8008      28.618855      29.33693     
   2338000   294.04555      317.4103       288.37258     -2152.8975      2142.0052      29.037717      29.334958    
   2339000   295.50713      324.32164      300.93024     -2152.3154      2142.9069      23.391399      29.334611    
   2340000   293.3043       316.20613      281.32054     -2154.7745      2145.6356      34.885593      29.335086    
   2341000   295.98909      313.08302      279.87154     -2153.3681      2141.8966      33.211485      29.332802    
   2342000   294.54303      318.3654       276.09264     -2157.8319      2148.3823      42.272763      29.330761    
   2343000   296.22137      310.7965       279.44926     -2161.4028      2148.4183      31.347236      29.332412    
   2344000   294.99616      320.18192      292.67506     -2159.362       2146.6377      27.506859      29.33376     
   2345000   295.71365      318.81096      284.64854     -2162.0059      2149.3684      34.162424      29.334935    
   2346000   294.74011      317.488        280.26542     -2160.7026      2152.4079      37.222577      29.33567     
   2347000   294.60305      319.75603      282.74492     -2162.3475      2154.7903      37.011109      29.337181    
   2348000   294.79773      318.87078      280.06608     -2160.9785      2155.5984      38.804699      29.33792     
   2349000   295.704        322.73161      296.82214     -2163.0352      2150.6059      25.909474      29.335176    
   2350000   295.82969      313.33678      297.84092     -2165.3242      2150.733       15.495859      29.336653    
   2351000   297.59365      322.23501      296.53217     -2163.341       2153.0143      25.702847      29.335638    
   2352000   296.05527      316.85081      278.00331     -2167.5707      2155.3878      38.847496      29.334219    
   2353000   295.48554      300.79801      285.17054     -2165.9679      2159.1165      15.627475      29.334061    
   2354000   294.417        317.21157      283.37631     -2170.1245      2158.3952      33.835266      29.332579    
   2355000   294.32516      315.57574      278.7433      -2171.3214      2159.0479      36.832441      29.334992    
   2356000   293.6619       317.2734       292.19767     -2170.0968      2158.9037      25.075736      29.335737    
   2357000   293.17655      314.44723      277.84214     -2171.8499      2161.6598      36.605085      29.33543     
   2358000   295.198        314.78744      283.08086     -2170.705       2160.4477      31.706586      29.336087    
   2359000   296.02995      329.98218      288.9034      -2173.0904      2161.1083      41.078778      29.335336    
   2360000   294.54535      340.05776      277.17066     -2174.9529      2164.2694      62.887101      29.335346    
   2361000   294.1978       303.19988      288.67137     -2168.213       2165.8258      14.528515      29.336026    
   2362000   292.64927      317.26962      268.81615     -2172.3864      2166.7609      48.453471      29.335737    
   2363000   291.87391      307.62355      270.06805     -2170.7548      2165.2888      37.555497      29.336648    
   2364000   293.76093      329.84272      285.64362     -2175.1023      2165.7432      44.199099      29.337403    
   2365000   294.79785      315.50547      287.19531     -2171.9648      2166.6357      28.310161      29.336237    
   2366000   293.57796      307.77331      281.13498     -2172.4662      2167.8961      26.638334      29.339723    
   2367000   293.91493      314.68174      280.17265     -2173.2431      2168.4046      34.509094      29.341273    
   2368000   292.70961      312.08025      274.73747     -2174.675       2170.7335      37.342778      29.341251    
   2369000   293.76786      317.66477      286.38176     -2175.8777      2169.2962      31.283012      29.341603    
   2370000   294.57916      308.17142      302.2797      -2176.2795      2168.8736      5.8917204      29.341613    
   2371000   296.56638      327.92583      283.61443     -2178.6077      2169.3711      44.311397      29.340923    
   2372000   292.71833      301.16611      299.90397     -2177.1146      2170.1422      1.2621421      29.342226    
   2373000   295.13864      320.47421      284.73261     -2180.987       2170.2187      35.7416        29.340415    
   2374000   294.6918       313.91709      278.49465     -2179.9063      2172.5157      35.42244       29.34038     
   2375000   295.22941      316.96302      285.93754     -2182.7296      2170.2223      31.02548       29.341206    
   2376000   293.92861      314.98743      276.15047     -2182.4976      2172.398       38.836954      29.343433    
   2377000   293.05204      326.90169      291.17216     -2180.54        2170.878       35.729529      29.344338    
   2378000   293.71896      327.05377      295.44083     -2183.6379      2173.0086      31.612941      29.343865    
   2379000   295.58857      336.72737      287.25375     -2181.7762      2172.9017      49.473614      29.344426    
   2380000   293.11817      319.53921      285.124       -2183.9219      2176.147       34.415214      29.345509    
   2381000   294.52355      316.72451      283.76786     -2183.7027      2177.2297      32.956651      29.347735    
   2382000   294.1984       310.82892      286.57812     -2181.2686      2175.1048      24.250795      29.349949    
   2383000   292.67408      318.72897      288.03709     -2184.8679      2178.3476      30.691878      29.349596    
   2384000   293.11221      295.45104      274.88883     -2186.5144      2178.3724      20.562213      29.3478      
   2385000   297.07478      316.18319      287.50588     -2189.4638      2177.6618      28.677313      29.347684    
   2386000   295.44533      310.33711      284.26234     -2191.7453      2177.8963      26.074777      29.347177    
   2387000   295.25055      301.76704      297.99231     -2191.0159      2178.9301      3.7747359      29.345259    
   2388000   296.24524      295.01497      295.80356     -2191.2788      2176.6561     -0.7885894      29.345655    
   2389000   296.00551      317.68913      282.53716     -2195.6495      2176.1921      35.151973      29.347668    
   2390000   295.5179       300.16647      283.44755     -2190.6682      2178.6072      16.71892       29.346024    
   2391000   295.83175      316.13067      291.60806     -2194.9944      2180.3923      24.522606      29.346869    
   2392000   295.96584      325.67796      268.71366     -2196.5406      2182.0585      56.964296      29.348358    
   2393000   295.74218      303.04242      299.73725     -2195.6727      2178.9629      3.3051677      29.349004    
   2394000   295.26024      314.76332      286.69996     -2195.0744      2181.6733      28.06336       29.346462    
   2395000   294.85212      309.88978      286.29925     -2195.4955      2183.0276      23.590527      29.345155    
   2396000   295.66626      318.90209      287.09249     -2195.8734      2186.6216      31.809595      29.347192    
   2397000   293.4953       313.60574      288.96136     -2196.2178      2185.9332      24.644382      29.347547    
   2398000   296.54864      318.34727      282.00517     -2199.1485      2186.6031      36.342104      29.346796    
   2399000   293.54694      307.03773      281.98807     -2194.8869      2191.4096      25.049665      29.346041    
   2400000   295.93928      338.21275      296.6453      -2201.079       2185.8226      41.567446      29.345423    
   2401000   296.23946      334.45254      279.76305     -2201.7054      2193.1028      54.689494      29.346357    
   2402000   294.58161      317.51077      289.535       -2200.8218      2193.258       27.975769      29.349565    
   2403000   293.90303      319.41608      274.0316      -2202.9059      2197.0251      45.384479      29.351095    
   2404000   292.3178       304.67026      306.5005      -2200.7588      2194.8351     -1.8302395      29.351118    
   2405000   293.15454      304.12221      273.91521     -2200.2281      2197.6803      30.207006      29.351451    
   2406000   296.14418      318.03439      292.47115     -2202.7586      2198.593       25.563243      29.354473    
   2407000   295.95588      331.2966       287.27859     -2206.5484      2198.9916      44.018014      29.355287    
   2408000   295.30109      306.51231      296.26107     -2201.3689      2197.8146      10.251238      29.355864    
   2409000   293.58217      322.37536      287.53354     -2205.281       2203.12        34.841823      29.355191    
   2410000   294.93014      306.01978      286.18462     -2202.8428      2201.2952      19.835154      29.353602    
   2411000   294.97862      316.70227      293.9426      -2204.3324      2201.0746      22.759668      29.352048    
   2412000   293.14706      310.86132      275.43857     -2205.2979      2207.7246      35.422747      29.349311    
   2413000   291.05159      301.47879      287.54022     -2203.7118      2206.1495      13.938574      29.350437    
   2414000   292.38216      308.32339      287.08036     -2203.3717      2208.4032      21.24303       29.348208    
   2415000   292.27794      321.23766      289.52123     -2207.2213      2207.8105      31.716432      29.345928    
   2416000   292.66748      311.04422      285.05796     -2207.414       2207.9859      25.986258      29.346114    
   2417000   290.01595      303.05815      282.32355     -2206.9094      2209.8822      20.7346        29.344753    
   2418000   294.44437      318.14623      285.95454     -2211.8548      2206.0017      32.191691      29.345892    
   2419000   295.86768      314.64306      295.49792     -2211.1421      2207.998       19.145139      29.346334    
   2420000   292.41696      309.84282      284.44219     -2210.545       2210.1951      25.400629      29.344517    
   2421000   294.63832      301.85529      272.57609     -2213.9273      2211.3514      29.279201      29.34723     
   2422000   292.27111      302.54681      293.90443     -2213.3253      2209.4412      8.6423783      29.347212    
   2423000   294.32496      332.23948      278.97787     -2216.7833      2213.3824      53.261609      29.343627    
   2424000   293.19076      314.313        289.71252     -2215.3721      2209.4885      24.600474      29.344363    
   2425000   294.81715      308.52303      299.76413     -2218.056       2209.5548      8.7589053      29.34253     
   2426000   296.39504      316.79868      280.26013     -2221.05        2211.9631      36.538559      29.342783    
   2427000   296.10522      310.97998      286.8305      -2220.1832      2213.9787      24.149477      29.34125     
   2428000   294.81301      312.26505      294.64135     -2221.1681      2214.8682      17.6237        29.342122    
   2429000   292.15789      310.36867      287.9852      -2221.4901      2214.206       22.383472      29.342132    
   2430000   293.94969      311.3542       299.31391     -2222.9074      2218.5734      12.040293      29.343549    
   2431000   296.25627      318.66608      280.65917     -2225.3988      2218.2166      38.00691       29.343875    
   2432000   294.45776      319.27765      280.49848     -2226.4452      2217.6697      38.779163      29.34557     
   2433000   293.32893      314.85056      279.61763     -2227.3021      2220.1047      35.232933      29.348094    
   2434000   296.1456       323.12094      300.68607     -2228.1359      2217.2038      22.43487       29.349192    
   2435000   295.15035      310.6667       289.05139     -2227.8497      2216.1329      21.615303      29.34799     
   2436000   295.40433      320.41763      282.94139     -2230.112       2218.2714      37.476241      29.349433    
   2437000   296.77245      325.96156      285.09374     -2228.8817      2220.8798      40.867818      29.349627    
   2438000   295.28604      326.75526      300.70729     -2229.5639      2218.6745      26.047973      29.35107     
   2439000   294.09277      318.53244      271.60356     -2231.696       2225.5243      46.92888       29.351669    
   2440000   294.844        312.895        284.89937     -2231.1874      2221.4364      27.995628      29.353145    
   2441000   295.34155      312.34392      273.64841     -2232.0572      2225.8043      38.695508      29.355376    
   2442000   294.25654      311.17304      277.04238     -2234.6987      2224.8587      34.130659      29.355003    
   2443000   292.8902       307.31971      272.70253     -2234.6067      2227.5608      34.617181      29.355261    
   2444000   294.8013       305.474        294.29369     -2235.4426      2228.2449      11.180306      29.351809    
   2445000   294.8261       321.62374      280.74923     -2239.0584      2230.2         40.87451       29.350645    
   2446000   295.19879      309.42638      292.76286     -2238.8672      2228.9149      16.66352       29.350651    
   2447000   295.56701      328.1054       272.18686     -2241.6589      2233.894       55.918542      29.351121    
   2448000   294.39795      307.54748      288.25475     -2238.9762      2232.9555      19.292731      29.350628    
   2449000   293.80335      313.77288      288.31979     -2243.4783      2235.1324      25.453093      29.349233    
   2450000   294.23686      318.77505      288.24284     -2243.1781      2235.8737      30.532207      29.351787    
   2451000   296.6077       323.02463      285.19513     -2248.0992      2233.8815      37.829499      29.352119    
   2452000   294.89546      326.96955      281.84978     -2248.905       2233.0734      45.119774      29.351755    
   2453000   296.52894      312.42881      291.58077     -2249.0666      2234.8045      20.848049      29.35139     
   2454000   296.65969      321.81216      278.91861     -2248.3823      2236.1006      42.893548      29.352436    
   2455000   291.62561      307.77579      276.79174     -2247.5367      2240.4385      30.98405       29.354573    
   2456000   296.00495      313.45278      281.69982     -2248.1393      2241.0013      31.752963      29.35627     
   2457000   295.17821      316.46276      278.5615      -2250.6886      2242.1639      37.901266      29.358284    
   2458000   294.86315      314.96626      288.16068     -2251.1839      2240.7566      26.805577      29.358412    
   2459000   296.32133      344.944        279.40514     -2257.3466      2247.6159      65.538861      29.357813    
   2460000   296.46599      313.68685      293.29523     -2250.8475      2244.8583      20.391617      29.357671    
   2461000   295.36887      320.13954      297.11388     -2254.6322      2244.2496      23.025659      29.359855    
   2462000   294.72863      325.00505      283.47347     -2253.5493      2249.4349      41.53158       29.358472    
   2463000   293.55623      314.59056      284.45768     -2254.7154      2247.1679      30.132873      29.357952    
   2464000   292.37019      303.59071      286.78327     -2256.3774      2248.7947      16.807448      29.35525     
   2465000   294.11974      311.32261      286.31214     -2255.2067      2251.6058      25.010471      29.356964    
   2466000   294.60315      303.58346      287.81306     -2254.9932      2251.865       15.770398      29.355335    
   2467000   293.85987      300.0977       292.96586     -2256.1596      2252.4539      7.1318369      29.353083    
   2468000   293.91714      305.66647      292.84435     -2260.0192      2252.3097      12.822116      29.352528    
   2469000   294.13722      312.67906      284.49312     -2262.3464      2252.1255      28.185941      29.35403     
   2470000   292.76547      303.91235      276.50402     -2262.9765      2255.1539      27.408323      29.354293    
   2471000   295.42972      314.46817      290.76871     -2265.2145      2254.3588      23.699463      29.355623    
   2472000   294.65294      317.59341      278.58369     -2265.1795      2257.0781      39.009715      29.35678     
   2473000   294.19587      319.04947      282.16191     -2267.5424      2259.9372      36.887563      29.356896    
   2474000   295.88006      330.60696      273.2392      -2268.7906      2263.0358      57.367762      29.356961    
   2475000   292.61027      313.34747      276.75029     -2269.7831      2263.4908      36.597179      29.358391    
   2476000   293.22422      321.63707      279.52102     -2267.5816      2259.612       42.116054      29.361615    
   2477000   293.17026      305.39091      288.97004     -2268.1168      2263.0051      16.420866      29.360545    
   2478000   291.80741      308.63648      270.13462     -2267.6427      2265.7708      38.501862      29.359015    
   2479000   294.93093      315.6693       275.05511     -2270.7465      2266.6217      40.614193      29.358501    
   2480000   294.26786      318.04284      287.02997     -2272.3012      2265.4115      31.01287       29.358354    
   2481000   293.76737      314.64902      283.97256     -2272.7889      2267.4116      30.676462      29.355712    
   2482000   294.06902      325.4079       297.23009     -2274.4912      2265.8762      28.177819      29.356615    
   2483000   291.65438      310.75879      281.82031     -2272.7577      2269.2906      28.938482      29.356657    
   2484000   296.11109      323.23965      291.81733     -2274.5737      2267.1507      31.422324      29.3571      
   2485000   293.91087      310.39631      292.33234     -2272.4867      2270.8661      18.063969      29.357207    
   2486000   295.2425       327.49423      289.60524     -2276.725       2272.6744      37.888991      29.359981    
   2487000   294.43536      310.23184      290.83038     -2274.1029      2271.6221      19.401467      29.360108    
   2488000   293.90187      308.60906      287.39634     -2276.3005      2272.7752      21.212716      29.360784    
   2489000   294.80365      310.96429      300.74254     -2275.8923      2271.7414      10.221747      29.357533    
   2490000   294.97623      317.70243      297.46745     -2281.197       2274.2252      20.234974      29.358065    
   2491000   292.80517      329.73231      271.46981     -2282.7448      2278.2499      58.262492      29.358717    
   2492000   293.09548      302.24576      281.76993     -2276.1633      2276.3828      20.475829      29.357066    
   2493000   294.57183      316.63758      288.85389     -2282.3274      2277.3191      27.783695      29.355546    
   2494000   294.78471      303.48719      275.9291      -2281.7306      2278.6177      27.558089      29.354057    
   2495000   293.31332      320.14226      272.65029     -2283.4356      2280.5897      47.491969      29.352279    
   2496000   293.21357      306.69803      293.89944     -2281.0444      2277.6758      12.798592      29.351093    
   2497000   293.47637      325.01903      274.27072     -2285.488       2281.5973      50.748314      29.35149     
   2498000   295.03319      300.93822      293.67792     -2282.1446      2280.3592      7.2603058      29.351858    
   2499000   293.92906      310.49443      288.80007     -2285.8341      2281.0918      21.694358      29.350753    
   2500000   293.27654      310.92659      284.60478     -2286.4921      2283.1599      26.321807      29.352342    
   2501000   294.58493      313.74303      303.60676     -2286.3112      2281.8418      10.136272      29.353269    
   2502000   293.97224      315.35915      283.67349     -2286.6987      2287.4205      31.685665      29.353681    
   2503000   291.87127      316.0281       284.58887     -2288.6134      2288.0905      31.439221      29.352902    
   2504000   293.17315      316.82765      288.88991     -2289.8881      2289.3075      27.937741      29.353432    
   2505000   294.68862      302.21858      290.0096      -2288.7844      2289.0789      12.208983      29.354316    
   2506000   295.4998       320.26314      286.92327     -2292.5215      2290.2019      33.339875      29.352531    
   2507000   293.39356      295.5805       276.22901     -2290.0033      2288.6776      19.351484      29.35093     
   2508000   294.89915      317.24073      275.2458      -2295.331       2290.4505      41.994932      29.350812    
   2509000   292.98583      307.97681      300.24043     -2296.0381      2287.1796      7.7363756      29.349726    
   2510000   294.23679      300.43897      298.55151     -2293.898       2289.0662      1.8874631      29.34794     
   2511000   294.50552      318.15092      281.9043      -2297.9877      2291.8131      36.246619      29.348999    
   2512000   294.2263       325.94342      286.57631     -2299.5164      2288.1285      39.367111      29.352171    
   2513000   292.42026      302.30263      287.5843      -2292.4097      2288.8963      14.71833       29.351248    
   2514000   295.23106      313.42604      285.57057     -2294.7896      2291.1741      27.855463      29.350469    
   2515000   295.80529      329.32638      280.82878     -2298.5298      2290.092       48.497595      29.347891    
   2516000   295.21005      313.10532      292.33348     -2297.3649      2291.1559      20.771838      29.345344    
   2517000   295.29314      321.6801       291.12139     -2300.6208      2289.471       30.558712      29.34659     
   2518000   294.12424      306.11417      287.66194     -2301.5435      2291.478       18.45223       29.349164    
   2519000   296.88302      321.08779      292.43644     -2303.8445      2290.7959      28.651351      29.351405    
   2520000   294.37925      318.65837      293.05187     -2305.246       2295.0926      25.606501      29.352533    
   2521000   293.29677      323.2368       284.45405     -2304.8546      2296.1701      38.782759      29.353169    
   2522000   294.69292      319.72232      284.20048     -2305.7628      2297.467       35.521843      29.351209    
   2523000   296.41338      323.79948      288.91053     -2309.0564      2296.5716      34.888949      29.351507    
   2524000   293.15789      309.51018      292.50519     -2309.8909      2297.096       17.004997      29.350862    
   2525000   296.79402      330.63299      276.75477     -2314.1697      2297.542       53.878221      29.350684    
   2526000   297.71228      323.65711      293.06596     -2313.4593      2297.0777      30.591148      29.350902    
   2527000   296.43999      316.421        292.30046     -2312.7744      2297.9083      24.120538      29.352613    
   2528000   294.74711      302.93166      290.81916     -2313.6216      2297.2006      12.112498      29.352129    
   2529000   297.34473      321.65062      287.75209     -2316.9483      2299.8111      33.898531      29.352935    
   2530000   297.91224      311.85532      290.64262     -2315.9392      2299.1733      21.212701      29.353076    
   2531000   296.48521      314.8574       295.07301     -2314.8624      2300.9012      19.784389      29.351836    
   2532000   296.31742      308.86502      291.35676     -2314.6107      2302.1579      17.508256      29.350869    
   2533000   297.39271      310.70383      293.57288     -2315.8069      2302.2628      17.130954      29.352923    
   2534000   296.55701      330.42472      287.8545      -2319.9619      2305.181       42.570216      29.352847    
   2535000   296.3412       333.54431      293.4326      -2321.6584      2305.0889      40.111706      29.353366    
   2536000   293.42197      329.20389      283.3754      -2318.3564      2308.6116      45.828486      29.354683    
   2537000   293.59732      309.27766      270.55724     -2318.2969      2309.9964      38.720422      29.354435    
   2538000   296.46245      320.62317      300.01891     -2318.5437      2308.1823      20.604259      29.352203    
   2539000   297.02468      314.6262       285.54144     -2321.2666      2310.0534      29.084753      29.352708    
   2540000   292.41473      296.53662      293.87529     -2316.5093      2308.7845      2.6613355      29.352102    
   2541000   296.05211      325.56398      300.57922     -2321.6809      2310.3737      24.984765      29.351255    
   2542000   297.49103      313.98747      291.48133     -2321.2105      2311.0365      22.506137      29.351319    
   2543000   298.84394      319.29919      291.98624     -2322.3836      2311.4399      27.312948      29.353841    
   2544000   292.64399      311.76343      283.98145     -2321.7104      2314.3673      27.781985      29.353303    
   2545000   292.72026      309.70384      284.70399     -2322.3378      2312.3311      24.999854      29.35257     
   2546000   295.62504      309.54394      293.03436     -2321.2626      2310.4822      16.509578      29.352389    
   2547000   296.92943      326.0444       291.09488     -2322.5914      2313.5621      34.949525      29.351372    
   2548000   295.01447      306.75561      281.42041     -2322.8565      2316.3425      25.335196      29.352539    
   2549000   294.39613      320.10309      275.2343      -2321.9627      2317.4088      44.868786      29.352293    
   2550000   293.0615       317.63807      277.21212     -2323.8143      2319.0218      40.425948      29.352499    
   2551000   292.01785      327.07019      267.29876     -2324.8617      2318.8719      59.771434      29.353416    
   2552000   295.09183      312.28291      284.90607     -2323.8495      2318.83        27.376846      29.35457     
   2553000   294.49837      310.7961       281.12146     -2326.1867      2321.5153      29.674642      29.354825    
   2554000   294.66077      312.24692      278.37032     -2327.272       2324.9475      33.876607      29.354307    
   2555000   292.88052      305.78143      285.59136     -2331.7916      2325.7501      20.190075      29.355367    
   2556000   294.89354      314.242        286.99092     -2331.9524      2324.4475      27.251082      29.356706    
   2557000   294.52433      311.41511      288.1882      -2334.0666      2323.6266      23.226915      29.355355    
   2558000   294.52726      314.75511      275.8513      -2335.0221      2325.0782      38.903809      29.354527    
   2559000   295.23904      320.01301      287.2296      -2339.2539      2326.2443      32.783412      29.352802    
   2560000   292.85594      312.07253      292.39763     -2337.7325      2326.0609      19.674904      29.354485    
   2561000   294.222        308.49726      283.99871     -2336.7533      2329.1311      24.498552      29.354649    
   2562000   295.48143      309.15164      289.31569     -2338.8144      2325.912       19.835943      29.355037    
   2563000   296.45609      316.85598      296.33661     -2341.0311      2326.0349      20.519372      29.353659    
   2564000   295.33731      310.56245      279.18302     -2340.3495      2329.8955      31.379431      29.350829    
   2565000   294.75868      304.56772      275.04438     -2343.4342      2331.087       29.523341      29.350795    
   2566000   295.50175      314.72715      294.32999     -2344.1511      2330.0976      20.397155      29.351358    
   2567000   294.85156      317.43621      284.45217     -2347.4802      2331.3246      32.984043      29.350143    
   2568000   295.63499      310.09086      292.6479      -2345.1234      2332.4246      17.442959      29.352235    
   2569000   296.66157      329.71323      301.34825     -2347.3101      2332.5127      28.364986      29.353605    
   2570000   292.84301      310.59461      275.27172     -2343.6244      2335.6631      35.322892      29.353563    
   2571000   296.79807      311.19208      290.1308      -2347.1258      2335.6712      21.061279      29.352258    
   2572000   295.51633      306.36727      293.80516     -2346.0329      2333.4004      12.56211       29.354876    
   2573000   295.6646       321.74507      300.32372     -2348.3357      2335.0926      21.421357      29.354351    
   2574000   294.9114       315.08763      281.04493     -2348.7642      2335.7102      34.042699      29.355825    
   2575000   296.76554      313.46404      285.02552     -2349.7325      2337.1282      28.438521      29.354122    
   2576000   296.40063      323.71925      282.58627     -2352.5979      2339.9577      41.13298       29.351913    
   2577000   295.59352      319.2301       281.43188     -2353.9551      2338.2198      37.798221      29.352303    
   2578000   297.53379      318.13843      295.258       -2353.8701      2336.4798      22.880427      29.353199    
   2579000   298.15363      303.96082      280.13818     -2351.9353      2339.2737      23.822638      29.351751    
   2580000   297.48943      310.76768      283.6921      -2354.2788      2339.2363      27.075583      29.351664    
   2581000   297.7121       316.80905      293.18144     -2356.6565      2336.3257      23.627612      29.349094    
   2582000   293.78062      303.6507       285.71522     -2352.2828      2340.4973      17.935478      29.346554    
   2583000   296.70629      322.17346      297.24753     -2354.4879      2338.639       24.92593       29.345936    
   2584000   293.04017      325.59266      289.16722     -2356.8978      2342.7296      36.425439      29.345224    
   2585000   294.5846       303.36485      276.977       -2354.7748      2344.247       26.387855      29.34493     
   2586000   295.01009      320.80965      288.73943     -2357.5925      2342.891       32.070225      29.34454     
   2587000   294.23287      296.46131      287.71534     -2356.7764      2347.799       8.7459685      29.344563    
   2588000   295.29907      321.92673      294.98386     -2359.4158      2346.8194      26.942867      29.343869    
   2589000   295.36344      317.58904      285.85746     -2361.7833      2346.7257      31.73158       29.344597    
   2590000   293.76823      323.65558      285.28923     -2362.6455      2346.189       38.366343      29.346461    
   2591000   295.23233      310.6337       299.35756     -2358.6792      2348.9927      11.276137      29.346327    
   2592000   294.85539      313.34804      287.28034     -2362.4317      2349.4854      26.067699      29.346004    
   2593000   293.14556      315.16229      284.53411     -2363.4178      2351.4262      30.628177      29.345068    
   2594000   294.7142       300.40028      293.16592     -2360.7328      2352.778       7.2343577      29.346564    
   2595000   294.6714       302.48788      272.02886     -2364.173       2356.2582      30.459017      29.346792    
   2596000   293.17549      322.78494      275.80022     -2367.4423      2357.9189      46.984718      29.345951    
   2597000   294.12218      323.32705      283.53944     -2367.1062      2357.6065      39.787612      29.346177    
   2598000   293.77657      313.66915      275.87476     -2366.108       2359.2313      37.794389      29.346459    
   2599000   295.23181      326.21669      278.63493     -2368.2049      2360.3343      47.581757      29.346285    
   2600000   292.33165      307.11132      273.6818      -2366.2303      2364.3226      33.42952       29.347777    
   2601000   295.64706      309.12636      292.97228     -2369.9665      2358.8487      16.154079      29.345291    
   2602000   294.96661      326.17909      288.99439     -2372.6525      2363.7486      37.184696      29.345895    
   2603000   295.7051       315.49485      286.73327     -2374.2357      2364.1759      28.761586      29.345146    
   2604000   294.1249       312.31485      287.0108      -2374.0008      2364.4266      25.304056      29.344878    
   2605000   296.69819      326.06962      295.30437     -2375.7959      2362.6803      30.765254      29.344133    
   2606000   295.55643      323.21618      275.41166     -2375.1168      2366.3317      47.804523      29.343617    
   2607000   294.56378      328.87131      286.12641     -2377.117       2367.098       42.744905      29.34428     
   2608000   295.76122      308.59821      287.40714     -2377.2702      2369.039       21.191068      29.345913    
   2609000   292.21136      317.03618      288.59079     -2379.9559      2369.0814      28.445394      29.345479    
   2610000   296.81975      311.82304      284.35765     -2378.0437      2369.0831      27.465395      29.344751    
   2611000   295.54629      317.72966      287.36987     -2379.9969      2368.5826      30.359786      29.343013    
   2612000   296.03611      308.99557      295.53618     -2381.1632      2365.1494      13.459391      29.341909    
   2613000   294.56453      317.70903      291.52608     -2384.1327      2365.5356      26.182954      29.343159    
   2614000   293.94691      322.30752      282.70526     -2384.2911      2369.4149      39.602261      29.341305    
   2615000   291.94765      296.53021      276.92619     -2382.6969      2371.234       19.60402       29.340279    
   2616000   297.20237      315.32569      294.22166     -2387.3019      2369.5416      21.104033      29.338451    
   2617000   296.09478      307.98581      285.9555      -2382.3212      2372.6008      22.030312      29.338091    
   2618000   294.78939      318.79281      284.42009     -2387.1558      2373.5713      34.372725      29.337549    
   2619000   295.81706      315.15051      282.73422     -2387.2672      2374.2432      32.416281      29.338758    
   2620000   297.15616      308.83083      278.30341     -2389.3917      2374.683       30.527421      29.338672    
   2621000   296.02798      319.05713      289.88207     -2391.8434      2373.7371      29.175059      29.337943    
   2622000   295.60444      324.4816       286.37014     -2392.9895      2376.9517      38.111459      29.337677    
   2623000   295.5263       328.60057      280.71906     -2397.2963      2378.918       47.881513      29.33779     
   2624000   295.76917      304.54891      275.35554     -2392.4174      2381.2412      29.193372      29.339594    
   2625000   296.06101      309.24775      277.67286     -2393.5915      2382.3483      31.57489       29.340906    
   2626000   295.94825      313.98404      292.56409     -2394.624       2380.6918      21.419952      29.340262    
   2627000   295.56888      308.39094      300.14371     -2396.204       2380.2601      8.2472287      29.340371    
   2628000   294.89395      310.38466      280.65065     -2395.8904      2384.2683      29.734007      29.338201    
   2629000   295.40736      315.35676      283.07009     -2398.4843      2387.0223      32.286672      29.336933    
   2630000   295.10169      322.96958      284.38645     -2401.3043      2385.2677      38.58313       29.337569    
   2631000   294.46419      325.4144       267.80392     -2400.708       2387.4743      57.610479      29.336571    
   2632000   296.23572      316.00094      282.35991     -2401.4246      2389.1112      33.641022      29.33769     
   2633000   294.68943      322.70136      285.44339     -2400.3094      2388.8005      37.257966      29.338932    
   2634000   295.93148      307.20518      288.77927     -2400.1585      2386.7528      18.425915      29.339583    
   2635000   295.49475      311.82414      296.94509     -2399.7854      2387.9596      14.87905       29.338245    
   2636000   293.81727      316.93232      285.64888     -2402.6604      2388.153       31.283437      29.335629    
   2637000   295.12938      313.77234      281.53551     -2406.2564      2393.4799      32.236832      29.336277    
   2638000   297.43069      321.90657      281.96237     -2407.6549      2393.9352      39.944203      29.334836    
   2639000   295.96681      339.89386      284.12875     -2407.9679      2397.2569      55.765112      29.33537     
   2640000   294.25807      313.50701      281.15739     -2402.2688      2397.6433      32.349619      29.335549    
   2641000   293.95271      318.36785      282.87435     -2407.1491      2397.7476      35.493496      29.336329    
   2642000   293.59195      321.49437      272.70658     -2406.8345      2400.09        48.787789      29.337428    
   2643000   294.03061      309.75056      294.58132     -2404.7421      2400.5976      15.169241      29.337023    
   2644000   297.28287      327.42011      296.08579     -2407.9756      2399.6099      31.334325      29.337197    
   2645000   294.16926      324.99465      282.90035     -2408.2821      2404.2124      42.094299      29.336247    
   2646000   295.53485      321.55334      280.6818      -2412.5756      2406.4411      40.871537      29.338459    
   2647000   293.68171      298.1295       287.66026     -2411.1076      2408.5094      10.469233      29.341564    
   2648000   295.31149      329.91504      287.74726     -2414.503       2411.3931      42.167781      29.343395    
   2649000   292.2769       317.02711      263.44518     -2413.071       2414.9926      53.581932      29.343417    
   2650000   292.12527      321.70309      285.48008     -2413.9662      2411.8991      36.223016      29.346064    
   2651000   292.54636      308.09231      282.25353     -2412.7621      2414.8931      25.838781      29.345241    
   2652000   293.53688      310.02606      292.57482     -2415.542       2412.0729      17.451238      29.344475    
   2653000   295.06322      304.3339       278.49663     -2416.8417      2416.0745      25.83727       29.345296    
   2654000   294.04349      313.74116      283.65873     -2419.0279      2416.1476      30.082435      29.34435     
   2655000   295.64237      330.42543      293.48677     -2423.5708      2414.2979      36.93866       29.344133    
   2656000   293.35688      316.09024      284.59717     -2419.7211      2416.9165      31.493074      29.345221    
   2657000   294.49662      318.86951      298.95336     -2422.4568      2415.6187      19.916151      29.346977    
   2658000   295.6467       319.79814      296.95886     -2424.4082      2415.6757      22.839282      29.345341    
   2659000   292.46685      306.56181      290.87279     -2424.8543      2420.5237      15.689015      29.344553    
   2660000   293.56226      319.76159      279.2834      -2426.469       2421.6302      40.478185      29.343594    
   2661000   297.06995      323.26078      283.32715     -2425.7851      2422.1269      39.933633      29.347244    
   2662000   294.67274      308.21573      293.48454     -2425.2217      2418.6158      14.731193      29.346725    
   2663000   296.63895      316.78733      300.61173     -2429.0154      2419.2321      16.175601      29.346749    
   2664000   293.02552      303.27569      296.50408     -2428.5952      2420.567       6.7716085      29.346067    
   2665000   294.01898      312.00445      297.21216     -2429.5321      2421.9014      14.792291      29.343386    
   2666000   292.15697      311.21422      279.79479     -2431.9273      2425.8985      31.419428      29.343419    
   2667000   296.56541      322.59704      291.86147     -2436.1476      2424.9095      30.73557       29.343256    
   2668000   295.75253      325.43093      291.10878     -2437.5904      2426.3865      34.322156      29.341971    
   2669000   296.35425      305.98718      286.443       -2437.064       2428.1435      19.544176      29.341828    
   2670000   295.4757       316.191        290.24409     -2440.0833      2429.2873      25.946907      29.340958    
   2671000   296.15373      313.26671      290.72278     -2440.8572      2429.7283      22.543929      29.342916    
   2672000   294.14491      320.45941      292.2452      -2441.7194      2430.1187      28.214215      29.342925    
   2673000   297.00472      306.29269      306.2252      -2442.1839      2430.116       0.067490463    29.342387    
   2674000   296.75825      320.04429      301.34368     -2445.6907      2431.7638      18.700609      29.340656    
   2675000   293.42356      313.38949      284.65271     -2448.3712      2433.6584      28.736781      29.341084    
   2676000   298.29988      308.53526      284.06279     -2448.5739      2433.0882      24.472467      29.339856    
   2677000   295.34401      314.84286      272.73168     -2447.704       2433.6018      42.111181      29.341051    
   2678000   298.41201      319.21457      300.12279     -2452.0626      2431.9973      19.091777      29.341094    
   2679000   297.41226      299.80898      280.42766     -2449.7929      2434.7086      19.381321      29.343312    
   2680000   294.99021      309.98909      287.23135     -2452.4395      2434.1444      22.757746      29.341584    
   2681000   294.49372      313.46911      272.01181     -2455.8139      2435.7469      41.457296      29.340945    
   2682000   297.13681      332.11338      289.77764     -2458.0709      2433.5604      42.335742      29.340328    
   2683000   295.84896      319.18005      291.53773     -2458.686       2435.3164      27.642321      29.341025    
   2684000   297.94812      306.17658      286.74761     -2457.1832      2437.7416      19.428969      29.338753    
   2685000   294.17917      310.84433      287.05025     -2458.3209      2441.934       23.794082      29.341321    
   2686000   297.18809      321.67645      287.34022     -2462.4202      2442.0372      34.336228      29.342479    
   2687000   295.05166      320.08517      281.71347     -2461.0569      2443.1812      38.371699      29.343049    
   2688000   295.96508      311.3087       283.99799     -2462.3788      2442.273       27.310705      29.342248    
   2689000   296.52318      318.8576       293.92171     -2467.9559      2442.3572      24.935895      29.343018    
   2690000   298.88075      318.06761      276.45445     -2465.0093      2442.6865      41.613158      29.343179    
   2691000   296.189        312.06998      276.76197     -2463.1635      2445.2697      35.308005      29.343369    
   2692000   298.79002      323.71829      292.62266     -2465.882       2443.9316      31.095633      29.344122    
   2693000   295.04575      323.09602      288.38185     -2466.9377      2446.1897      34.714169      29.342876    
   2694000   296.41766      320.26781      291.60502     -2467.4647      2447.7632      28.662783      29.343757    
   2695000   295.80063      314.72968      286.67412     -2468.1594      2450.1999      28.055556      29.34254     
   2696000   294.27367      312.01168      275.59378     -2468.3916      2450.5795      36.417897      29.343264    
   2697000   296.15499      322.94342      278.35079     -2469.7075      2453.0647      44.592628      29.344754    
   2698000   295.74805      317.70436      285.32311     -2470.0816      2450.2592      32.381251      29.344872    
   2699000   298.12238      321.55777      302.9875      -2469.3276      2451.1248      18.570274      29.346684    
   2700000   295.48049      319.03668      277.759       -2472.1569      2456.8499      41.277678      29.346702    
   2701000   295.0096       324.57217      298.67463     -2470.6505      2454.156       25.897541      29.345226    
   2702000   296.8458       331.12109      280.55743     -2474.6395      2458.7137      50.563656      29.346127    
   2703000   294.4461       312.21772      296.42104     -2469.8581      2457.5454      15.796679      29.346891    
   2704000   295.74911      311.42424      294.98171     -2471.9634      2456.4325      16.442527      29.348206    
   2705000   295.4286       319.7108       290.1189      -2471.8228      2459.651       29.5919        29.345251    
   2706000   296.20377      313.8307       291.10349     -2475.899       2461.5524      22.727203      29.345617    
   2707000   293.92359      309.89551      274.15967     -2473.369       2464.4874      35.735833      29.346368    
   2708000   296.59209      322.00149      282.564       -2478.1544      2461.8532      39.437495      29.345047    
   2709000   295.74067      323.20871      282.92271     -2479.4568      2466.0219      40.286009      29.346248    
   2710000   296.08617      326.78857      285.76542     -2481.2771      2465.0305      41.023153      29.347335    
   2711000   295.81903      320.45817      294.33809     -2478.8478      2464.8938      26.12008       29.35064     
   2712000   296.5991       309.30801      292.69253     -2479.6587      2463.9673      16.615478      29.347925    
   2713000   295.64455      324.08301      278.31716     -2482.0295      2467.7951      45.765854      29.348429    
   2714000   297.38504      322.28624      292.59428     -2481.7609      2466.4975      29.691966      29.346835    
   2715000   295.14943      318.87845      279.83409     -2481.9819      2470.2206      39.044352      29.346802    
   2716000   296.24128      310.51202      283.50791     -2479.3619      2468.7856      27.004115      29.348222    
   2717000   297.12632      313.17742      294.37426     -2482.3533      2473.2371      18.803157      29.347454    
   2718000   295.99631      326.5067       277.74766     -2484.0649      2477.5767      48.759031      29.346331    
   2719000   297.02256      321.85984      296.36088     -2484.6501      2473.8864      25.49896       29.348132    
   2720000   294.436        308.02571      281.51665     -2482.8952      2478.1827      26.509063      29.349258    
   2721000   295.32129      313.73361      280.03382     -2484.3114      2477.0107      33.69979       29.348386    
   2722000   293.89352      326.62223      290.29553     -2487.6124      2478.9299      36.326693      29.349171    
   2723000   294.69004      317.60695      282.2656      -2485.3978      2480.2457      35.341351      29.347969    
   2724000   294.09465      314.80622      290.32983     -2487.859       2476.1445      24.476387      29.350154    
   2725000   296.88133      318.57677      286.87855     -2488.6108      2479.9148      31.698214      29.348422    
   2726000   290.48066      308.62247      285.13715     -2487.3297      2481.5403      23.48532       29.347206    
   2727000   294.3162       322.21809      275.60764     -2491.0769      2482.1048      46.610455      29.347693    
   2728000   298.04401      323.7343       292.56784     -2492.2578      2480.2224      31.166461      29.348639    
   2729000   293.96222      317.90502      286.77417     -2491.7721      2486.1442      31.130847      29.34938     
   2730000   296.46147      316.05299      279.38397     -2492.8353      2487.2196      36.669023      29.351256    
   2731000   294.53853      305.38424      278.38852     -2489.6599      2486.2931      26.99572       29.350604    
   2732000   292.97279      304.76519      276.85105     -2491.4466      2487.61        27.914138      29.348061    
   2733000   295.08227      321.2353       284.95786     -2496.6682      2486.8994      36.277434      29.348897    
   2734000   294.79416      322.11898      280.79389     -2497.2908      2488.1483      41.325088      29.34913     
   2735000   297.13249      331.75447      285.75175     -2496.5988      2487.3013      46.002729      29.34809     
   2736000   293.6731       314.87986      291.46159     -2497.3072      2488.1412      23.418272      29.34604     
   2737000   294.59217      305.12494      286.67342     -2496.6546      2490.3175      18.451527      29.346571    
   2738000   297.15973      307.78195      284.31915     -2495.905       2491.1652      23.462797      29.345254    
   2739000   296.88955      328.56668      296.96976     -2501.7002      2491.0762      31.596924      29.344109    
   2740000   292.7856       302.17626      283.78949     -2497.4322      2494.0384      18.386767      29.342113    
   2741000   294.30015      306.94084      270.86178     -2501.0829      2496.787       36.079059      29.341614    
   2742000   295.54258      317.40339      278.82815     -2504.2986      2496.9672      38.575242      29.342242    
   2743000   295.72074      316.4656       288.75052     -2506.5         2497.4864      27.715077      29.342673    
   2744000   294.60931      300.68011      288.69882     -2505.0939      2498.6678      11.981286      29.34148     
   2745000   295.09759      323.07355      279.40142     -2510.3876      2499.8029      43.672129      29.341597    
   2746000   296.27941      329.70368      289.31235     -2506.8747      2501.0835      40.39133       29.34064     
   2747000   293.86667      311.51499      280.35835     -2506.1071      2500.6629      31.156645      29.341721    
   2748000   295.29221      304.02216      280.30294     -2509.5422      2503.3307      23.719226      29.340349    
   2749000   293.67667      302.98804      287.61831     -2508.3084      2503.4088      15.369732      29.340961    
   2750000   295.056        310.71467      277.5641      -2510.8862      2503.0519      33.150568      29.341564    
   2751000   295.08947      316.12098      282.04089     -2510.1899      2503.3237      34.080096      29.341325    
   2752000   294.05007      312.15449      292.35422     -2511.7769      2504.8785      19.800268      29.340908    
   2753000   293.34694      302.99666      301.96376     -2512.621       2504.1647      1.0328995      29.342787    
   2754000   293.0062       318.82039      288.45214     -2515.3369      2508.6728      30.368246      29.343036    
   2755000   293.97855      311.4782       282.55052     -2513.7996      2507.6347      28.927681      29.342114    
   2756000   295.4526       315.673        287.26651     -2515.8983      2508.795       28.406495      29.341374    
   2757000   291.11943      319.9619       262.72855     -2518.6856      2513.1105      57.233348      29.340645    
   2758000   293.32375      308.34395      276.11365     -2516.9542      2513.4211      32.230293      29.341645    
   2759000   294.44291      314.02454      291.67625     -2518.7108      2512.465       22.348291      29.341913    
   2760000   294.88579      310.93304      287.30712     -2517.3897      2512.9626      23.625925      29.343308    
   2761000   292.58103      329.42793      297.29762     -2518.9699      2515.9139      32.130313      29.341218    
   2762000   294.75967      305.69134      293.64887     -2519.5454      2516.0994      12.042475      29.340453    
   2763000   294.6051       335.5356       275.99797     -2523.4884      2519.3926      59.53763       29.342771    
   2764000   294.77096      318.34095      284.55705     -2523.6517      2518.8893      33.7839        29.343582    
   2765000   292.15567      309.16654      289.65631     -2520.8223      2516.7409      19.510226      29.344206    
   2766000   294.48003      318.36089      295.80278     -2522.7514      2519.3766      22.55811       29.345687    
   2767000   294.02312      316.42798      284.61709     -2523.189       2520.1006      31.810893      29.345735    
   2768000   296.11718      309.12884      297.3989      -2521.4508      2519.4332      11.729937      29.346101    
   2769000   291.52957      320.86966      289.48248     -2523.8755      2523.2216      31.387176      29.346503    
   2770000   293.50354      312.64355      285.7207      -2520.5108      2520.4175      26.922859      29.344438    
   2771000   293.09437      311.72345      288.93205     -2522.3244      2523.7631      22.791406      29.342331    
   2772000   292.66193      306.35524      291.79211     -2521.1174      2525.424       14.563132      29.341199    
   2773000   291.41251      312.29973      281.22731     -2523.4422      2526.5993      31.072411      29.341655    
   2774000   293.98437      309.57192      282.15934     -2526.4924      2528.8519      27.412588      29.342978    
   2775000   292.86863      300.34457      288.10994     -2527.0554      2529.0582      12.234629      29.34206     
   2776000   292.71685      303.50463      281.62697     -2530.2416      2530.701       21.877661      29.342595    
   2777000   293.33817      322.83672      286.59783     -2536.9335      2530.5835      36.23889       29.342556    
   2778000   295.09896      315.70837      289.03218     -2536.1362      2527.8916      26.676192      29.344105    
   2779000   293.22099      310.97866      287.74342     -2534.6159      2530.6095      23.23524       29.345245    
   2780000   292.8036       317.49972      273.40515     -2535.1667      2536.4677      44.094571      29.346273    
   2781000   292.78925      311.94401      273.14168     -2535.7925      2536.304       38.802327      29.345197    
   2782000   293.51293      313.85445      277.31222     -2537.2702      2534.0048      36.542236      29.346267    
   2783000   295.37447      313.06697      285.20453     -2537.6389      2536.6562      27.862433      29.343799    
   2784000   292.61816      303.74111      296.27632     -2536.4989      2535.826       7.4647889      29.343153    
   2785000   291.35966      328.03313      269.50452     -2539.9155      2538.552       58.52861       29.344622    
   2786000   293.32137      309.17998      295.6581      -2540.2434      2537.8965      13.521872      29.343816    
   2787000   295.08154      321.32623      284.10937     -2541.3791      2541.49        37.216854      29.345145    
   2788000   290.51828      314.31454      283.45057     -2540.9335      2539.2685      30.863971      29.345038    
   2789000   295.34635      313.7691       291.0436      -2542.2252      2540.7461      22.725506      29.34349     
   2790000   291.95763      307.83736      288.12759     -2541.7127      2541.8821      19.709765      29.344773    
   2791000   295.52028      315.71319      293.3759      -2546.6862      2542.0133      22.337287      29.343344    
   2792000   294.33369      311.46756      290.07554     -2544.6205      2544.221       21.392022      29.34405     
   2793000   293.49235      314.69897      275.50909     -2547.2183      2545.7138      39.189878      29.343636    
   2794000   293.10964      311.14142      266.9248      -2547.8442      2547.8196      44.216622      29.344245    
   2795000   294.86624      326.64918      290.52133     -2553.0589      2545.7307      36.127847      29.344695    
   2796000   294.13923      321.17835      280.71096     -2553.2938      2548.841       40.467388      29.34446     
   2797000   294.25639      316.04199      292.85433     -2554.6092      2549.2998      23.187657      29.344121    
   2798000   293.93272      321.20844      293.89973     -2557.7411      2547.4391      27.308712      29.345125    
   2799000   291.84981      314.97148      277.40629     -2554.1363      2550.8236      37.565186      29.343072    
   2800000   295.29147      330.45846      288.29473     -2559.5536      2551.0638      42.16373       29.344356    
   2801000   294.02953      314.61288      276.00894     -2558.9322      2552.0807      38.603944      29.345983    
   2802000   294.68336      313.44163      284.87822     -2559.3832      2552.8088      28.563402      29.347782    
   2803000   294.50521      318.96698      289.54047     -2559.795       2552.4561      29.426508      29.347895    
   2804000   294.25434      321.41626      291.13575     -2562.3663      2551.3229      30.280506      29.348451    
   2805000   295.49781      315.15286      282.3719      -2560.9527      2554.6386      32.780954      29.348783    
   2806000   295.98714      323.02817      284.51394     -2564.6346      2556.1653      38.514226      29.34937     
   2807000   295.32324      325.01979      272.51437     -2564.7446      2556.8094      52.505424      29.349456    
   2808000   294.875        328.47716      296.5364      -2568.2859      2555.1539      31.940766      29.350909    
   2809000   295.62843      322.58105      282.72894     -2565.6721      2556.5072      39.852108      29.350588    
   2810000   293.85304      306.68373      283.64402     -2566.46        2556.1046      23.039712      29.350372    
   2811000   296.4325       303.19572      286.25606     -2565.0678      2555.6843      16.939658      29.352456    
   2812000   295.36193      316.38187      277.07941     -2566.5162      2554.7226      39.302467      29.352548    
   2813000   295.31755      322.76013      284.64163     -2571.7711      2554.9438      38.118503      29.352126    
   2814000   299.36365      313.63003      292.58582     -2572.1699      2553.2224      21.044203      29.351242    
   2815000   295.6234       318.47521      284.01314     -2570.3329      2554.7205      34.462071      29.350518    
   2816000   294.06789      316.28424      285.08229     -2573.625       2558.2193      31.201957      29.346234    
   2817000   294.07986      324.31682      283.40468     -2577.2687      2557.1952      40.912146      29.346388    
   2818000   296.35435      316.06151      275.73206     -2574.5772      2560.9241      40.32945       29.346909    
   2819000   296.7582       312.62021      298.41471     -2576.2302      2557.9783      14.205499      29.345122    
   2820000   297.18476      317.21582      288.52768     -2576.7403      2558.7634      28.688135      29.346331    
   2821000   296.21303      309.00965      284.47324     -2577.7155      2559.3586      24.536408      29.345381    
   2822000   297.40623      311.93536      292.52516     -2577.7637      2559.5114      19.410209      29.347564    
   2823000   294.43927      310.55345      280.26846     -2578.1897      2563.3658      30.284982      29.346839    
   2824000   295.4453       315.09746      285.7911      -2578.082       2564.2355      29.306369      29.348074    
   2825000   295.3203       316.9973       292.15251     -2577.4213      2564.4073      24.844784      29.347613    
   2826000   295.08289      319.91913      283.53668     -2581.4854      2566.9836      36.382443      29.347991    
   2827000   295.18024      320.46711      280.77652     -2580.1777      2568.3423      39.69059       29.348385    
   2828000   294.27088      310.83672      285.15232     -2579.3912      2569.1346      25.6844        29.348359    
   2829000   293.65428      313.29753      298.89216     -2579.721       2567.8007      14.405374      29.348323    
   2830000   296.084        306.48066      296.979       -2580.2325      2570.6609      9.5016642      29.348202    
   2831000   293.87607      309.18076      276.45381     -2581.6743      2573.6261      32.726949      29.349155    
   2832000   294.81693      315.28429      282.04023     -2581.2983      2574.438       33.244062      29.348555    
   2833000   295.48756      318.37586      280.39184     -2581.3889      2574.2185      37.98402       29.348057    
   2834000   290.3899       302.95782      287.66042     -2582.7022      2577.4087      15.297399      29.348611    
   2835000   293.42411      306.34763      291.62826     -2582.3005      2576.2666      14.719367      29.346311    
   2836000   292.16672      305.55501      275.06324     -2583.5354      2579.8246      30.491769      29.344286    
   2837000   293.13297      311.48175      288.92503     -2584.6589      2580.2436      22.556725      29.342612    
   2838000   294.52058      306.09993      278.94731     -2586.4518      2580.699       27.152618      29.342053    
   2839000   295.82966      311.22228      272.46495     -2584.2239      2583.5633      38.757326      29.341395    
   2840000   292.78023      321.54266      283.55939     -2589.4475      2580.4899      37.983262      29.339073    
   2841000   292.8377       314.05777      278.79621     -2590.354       2582.3874      35.261557      29.339658    
   2842000   293.57623      307.32183      285.7557      -2588.2878      2584.0287      21.566128      29.339226    
   2843000   294.05157      319.50079      285.14894     -2588.9273      2585.1118      34.351856      29.338402    
   2844000   292.65235      303.95882      283.16104     -2590.9664      2586.5215      20.797781      29.339118    
   2845000   294.58033      315.43688      283.13072     -2593.893       2585.8901      32.306167      29.337533    
   2846000   294.54789      313.86234      283.45131     -2592.8804      2588.2222      30.41103       29.338862    
   2847000   296.68728      333.54203      283.14541     -2595.584       2587.4366      50.39662       29.339667    
   2848000   294.03429      317.1563       276.57645     -2595.1886      2588.7772      40.579854      29.341108    
   2849000   295.16718      312.80085      285.37486     -2594.9696      2587.9382      27.425994      29.340572    
   2850000   293.31412      302.14259      273.33327     -2595.6686      2591.1443      28.809319      29.34086     
   2851000   293.47255      306.82386      281.13497     -2594.0312      2590.794       25.688893      29.341094    
   2852000   295.96757      316.70597      297.0865      -2597.1187      2589.5262      19.619472      29.340021    
   2853000   294.17902      319.38408      299.22207     -2598.6547      2588.4958      20.162013      29.339806    
   2854000   296.93906      318.01804      300.53857     -2598.8234      2590.1456      17.479468      29.340024    
   2855000   294.63202      319.00701      283.66402     -2598.7482      2592.2279      35.342991      29.34002     
   2856000   295.19328      315.51573      280.58322     -2603.3371      2592.4761      34.93251       29.338232    
   2857000   295.99449      316.49618      277.86848     -2603.2228      2594.638       38.627702      29.339962    
   2858000   296.29022      324.07603      292.47254     -2605.7416      2592.1385      31.603494      29.338279    
   2859000   297.63313      325.39243      290.34322     -2605.0433      2594.9615      35.049203      29.339118    
   2860000   292.28294      315.99895      295.71216     -2607.8548      2593.2303      20.286788      29.338041    
   2861000   297.25889      328.35092      283.98336     -2609.7858      2594.7944      44.367559      29.33846     
   2862000   295.9255       305.40247      286.42053     -2607.8351      2594.7577      18.981944      29.340006    
   2863000   295.74062      308.68987      280.0449      -2611.7708      2596.9138      28.644967      29.341913    
   2864000   297.35077      317.81485      285.21854     -2611.9148      2593.6178      32.596308      29.341297    
   2865000   296.11782      313.15652      277.82202     -2614.9215      2600.4187      35.334502      29.340184    
   2866000   296.39701      301.65162      290.97039     -2615.9841      2597.8775      10.681235      29.341393    
   2867000   296.70366      307.89106      284.724       -2616.5815      2598.5588      23.167064      29.34143     
   2868000   298.0755       309.38381      273.3732      -2613.1865      2603.1978      36.010618      29.341148    
   2869000   293.81938      310.4732       294.18751     -2613.9059      2595.9704      16.285695      29.341355    
   2870000   295.14938      312.07573      280.73587     -2615.846       2600.6766      31.339864      29.340706    
   2871000   296.54946      314.46233      291.99984     -2616.8758      2602.5913      22.462494      29.33913     
   2872000   294.39197      312.86935      285.88777     -2618.5514      2607.1759      26.98158       29.33735     
   2873000   295.03075      335.89567      291.309       -2624.1056      2607.1351      44.586672      29.338119    
   2874000   295.20257      301.45989      290.37778     -2619.1998      2609.1046      11.082115      29.338684    
   2875000   294.37667      320.26665      288.90832     -2622.7888      2609.9513      31.358321      29.339788    
   2876000   293.4748       301.28513      282.22651     -2621.2904      2611.1169      19.058615      29.33822     
   2877000   296.8453       306.64225      289.67757     -2622.3553      2612.168       16.964674      29.338453    
   2878000   293.84228      313.86242      292.18996     -2623.2185      2611.9377      21.672465      29.338233    
   2879000   294.81047      318.86705      298.29366     -2625.1593      2612.3462      20.573386      29.340082    
   2880000   292.42967      308.58087      287.80312     -2624.5523      2614.4677      20.777746      29.33763     
   2881000   296.16579      320.86405      284.87139     -2622.7174      2617.4517      35.992665      29.336775    
   2882000   295.676        313.40465      291.06164     -2622.2893      2618.6528      22.343006      29.337598    
   2883000   294.68167      320.64965      287.63486     -2623.0639      2620.0195      33.014792      29.338505    
   2884000   294.57859      324.42898      278.75198     -2624.6771      2621.3571      45.677008      29.338295    
   2885000   293.3379       319.45963      284.0876      -2628.5046      2623.9923      35.372036      29.337909    
   2886000   294.41769      319.91102      287.97124     -2629.1813      2624.6305      31.93978       29.336622    
   2887000   293.43648      317.68319      294.41218     -2629.1893      2622.2633      23.271005      29.336817    
   2888000   295.39054      322.43191      289.04068     -2631.0317      2623.0158      33.391226      29.337565    
   2889000   294.29795      297.02355      286.85361     -2630.5326      2625.0103      10.169944      29.339408    
   2890000   295.4369       320.46515      287.8896      -2633.2825      2624.5419      32.575544      29.338874    
   2891000   293.99727      317.12996      283.92648     -2632.8415      2625.5904      33.203482      29.336449    
   2892000   294.85879      318.1134       275.96774     -2633.6205      2627.9235      42.145656      29.337302    
   2893000   293.94556      319.01089      270.98419     -2637.149       2628.4526      48.026694      29.336893    
   2894000   294.91509      313.52572      276.06522     -2636.1278      2628.6876      37.460505      29.337917    
   2895000   295.14888      310.29531      295.42359     -2636.1161      2629.491       14.871721      29.339445    
   2896000   295.98073      322.53877      292.02638     -2636.6476      2629.722       30.512392      29.338444    
   2897000   295.13125      307.47258      284.27844     -2635.1104      2633.4354      23.194144      29.338297    
   2898000   294.83669      325.05615      293.93061     -2638.1879      2631.6256      31.125543      29.337915    
   2899000   293.44635      299.79049      280.7653      -2636.8889      2633.5143      19.025189      29.337734    
   2900000   293.8211       311.66184      288.4562      -2639.0729      2631.7627      23.205643      29.33699     
   2901000   293.7868       318.12602      290.40731     -2639.5019      2632.8117      27.718708      29.335333    
   2902000   293.5339       308.22052      299.75568     -2640.0037      2633.2806      8.4648358      29.333037    
   2903000   293.13897      298.79112      270.81465     -2640.6339      2639.1056      27.97647       29.331628    
   2904000   293.86615      306.79199      289.52903     -2641.4732      2638.9018      17.262962      29.330938    
   2905000   292.88705      307.37417      284.84142     -2641.7978      2639.0629      22.532748      29.330559    
   2906000   294.67168      310.30993      295.16406     -2642.6088      2639.431       15.145878      29.329882    
   2907000   293.7178       324.14922      281.23341     -2645.9633      2640.1664      42.915812      29.329994    
   2908000   293.72575      319.44457      271.57657     -2647.3616      2641.9482      47.868         29.330552    
   2909000   294.29335      326.56973      288.29256     -2649.3231      2640.7073      38.277171      29.330814    
   2910000   295.9287       325.95926      287.14519     -2649.6416      2640.7189      38.814067      29.331755    
   2911000   293.36761      311.42165      288.08034     -2647.4913      2642.5483      23.341311      29.332216    
   2912000   293.92853      319.73941      279.35413     -2649.5087      2641.5918      40.385276      29.334071    
   2913000   296.72483      311.48482      295.70241     -2648.9289      2641.7305      15.782418      29.333053    
   2914000   295.27229      316.82707      282.75223     -2650.8218      2644.7436      34.074839      29.333891    
   2915000   292.43595      315.00334      286.40731     -2653.2299      2645.3506      28.596039      29.333832    
   2916000   293.57577      328.89768      271.8399      -2655.5455      2646.3629      57.057782      29.333721    
   2917000   298.13092      321.38209      299.32421     -2655.1405      2642.7688      22.057879      29.334076    
   2918000   293.81035      300.1622       274.91408     -2653.4149      2649.3221      25.248128      29.33435     
   2919000   295.9206       303.31646      301.53864     -2652.563       2643.8827      1.77782        29.335689    
   2920000   293.08085      291.49417      293.86874     -2654.6138      2648.6857     -2.3745655      29.334696    
   2921000   295.18971      324.26494      281.72031     -2658.2523      2648.2802      42.544636      29.334378    
   2922000   292.77362      306.41445      282.71322     -2653.9447      2650.2228      23.701228      29.334496    
   2923000   294.23055      327.93241      293.10258     -2661.2588      2650.976       34.829829      29.3355      
   2924000   294.43492      309.77851      283.11208     -2658.6873      2652.0615      26.666433      29.33487     
   2925000   296.6829       323.11653      283.49199     -2661.4051      2652.2521      39.624536      29.333599    
   2926000   294.39685      311.57118      289.60219     -2658.3438      2651.6447      21.96899       29.332894    
   2927000   293.79827      312.93273      281.23205     -2660.1866      2654.2144      31.700677      29.333394    
   2928000   294.54437      317.48021      285.77683     -2664.3782      2653.7021      31.703378      29.332739    
   2929000   290.85505      299.51313      268.16002     -2662.9779      2657.1128      31.353114      29.333306    
   2930000   293.99811      315.48965      293.13915     -2663.4729      2657.3456      22.350502      29.332641    
   2931000   295.19908      313.44093      287.9609      -2665.3926      2660.0417      25.480029      29.334001    
   2932000   293.12459      324.81124      279.9522      -2669.3842      2659.7357      44.859037      29.334653    
   2933000   295.39235      308.51317      288.4104      -2665.755       2659.732       20.102771      29.335961    
   2934000   293.49277      312.28207      286.59439     -2667.0893      2661.5836      25.687689      29.335704    
   2935000   291.75355      316.36395      283.13203     -2667.1348      2662.5761      33.23192       29.338228    
   2936000   293.39107      309.81935      280.14181     -2664.5499      2662.4153      29.677545      29.339596    
   2937000   293.77166      329.14091      282.75745     -2666.6485      2662.2823      46.383467      29.339572    
   2938000   294.29018      309.25816      294.10427     -2665.8195      2661.8311      15.153886      29.338267    
   2939000   293.6124       305.55733      282.40187     -2665.4154      2667.0663      23.155458      29.336336    
   2940000   295.14546      313.0821       280.97998     -2670.9272      2664.9823      32.102125      29.335876    
   2941000   291.3897       304.26657      286.3767      -2670.9558      2664.0173      17.889867      29.335675    
   2942000   293.48816      310.50934      283.63622     -2671.6359      2667.633       26.873128      29.333813    
   2943000   292.72128      313.18371      293.60107     -2671.7119      2669.4125      19.582642      29.335777    
   2944000   293.61639      321.37518      286.48231     -2670.3379      2669.5363      34.892878      29.334084    
   2945000   293.45511      305.1641       283.20179     -2670.2947      2668.5189      21.962315      29.333757    
   2946000   295.18745      325.55047      288.8279      -2674.5325      2669.9341      36.722569      29.336214    
   2947000   294.29856      318.67824      283.58924     -2674.6511      2669.2325      35.089001      29.337777    
   2948000   294.25932      304.46217      285.51222     -2675.9567      2670.0618      18.949943      29.33634     
   2949000   294.62776      321.98064      270.78035     -2678.0095      2674.1701      51.200293      29.335525    
   2950000   294.28915      327.48081      284.23228     -2681.8483      2670.719       43.248528      29.335824    
   2951000   293.34273      319.38587      273.27041     -2677.8383      2677.1082      46.115456      29.337253    
   2952000   292.54348      326.34912      273.92736     -2679.8096      2676.5521      52.421757      29.336152    
   2953000   293.4706       319.45317      275.93456     -2681.5798      2674.6051      43.518604      29.337254    
   2954000   294.15841      330.63877      288.80869     -2680.215       2677.1378      41.830075      29.337752    
   2955000   292.67639      317.71594      274.71761     -2679.2577      2680.866       42.998322      29.337921    
   2956000   291.81822      313.45991      287.18402     -2681.5705      2682.0011      26.275885      29.337715    
   2957000   293.20203      322.30649      283.76303     -2685.2238      2683.1753      38.543456      29.339064    
   2958000   293.35952      301.23906      290.50988     -2678.1877      2681.015       10.729173      29.338973    
   2959000   291.78255      307.08488      283.01967     -2684.0118      2682.8159      24.065204      29.338202    
   2960000   292.04017      315.90893      274.54298     -2684.0092      2683.1374      41.365948      29.337911    
   2961000   292.80091      324.96399      276.94217     -2685.4258      2685.0734      48.021824      29.339533    
   2962000   294.23916      326.4667       287.9868      -2689.1864      2684.1044      38.479899      29.341414    
   2963000   293.18503      301.91577      279.62702     -2687.54        2681.0931      22.288743      29.341606    
   2964000   294.96323      312.20646      283.94548     -2687.9975      2685.1827      28.260989      29.340873    
   2965000   295.77751      315.41962      302.52639     -2689.6816      2682.9069      12.893229      29.341311    
   2966000   295.54238      312.43271      298.16926     -2691.865       2681.9368      14.26345       29.340754    
   2967000   296.49074      319.14857      296.55039     -2693.1361      2682.1723      22.598179      29.342221    
   2968000   296.2237       321.1235       296.1879      -2691.7156      2681.9736      24.935591      29.343342    
   2969000   297.29241      334.3428       290.82815     -2698.5509      2683.6786      43.514655      29.345271    
   2970000   296.89846      322.98227      296.79033     -2696.1109      2681.1505      26.191943      29.347135    
   2971000   295.02473      329.05806      293.71734     -2697.0212      2684.6904      35.340719      29.347296    
   2972000   295.25797      296.01966      288.93686     -2693.776       2685.2654      7.0827989      29.346628    
   2973000   294.50783      305.37921      288.06889     -2695.2414      2691.1058      17.310324      29.347482    
   2974000   294.9551       310.81244      289.56743     -2696.2147      2688.6771      21.245008      29.345938    
   2975000   296.45696      323.03354      292.23832     -2699.6148      2690.0764      30.795218      29.345132    
   2976000   293.20267      319.01725      274.8475      -2697.2514      2691.3025      44.169755      29.346717    
   2977000   295.28813      312.17016      273.36208     -2700.8928      2692.9852      38.808081      29.348435    
   2978000   294.2372       314.58681      296.0603      -2700.2498      2691.6696      18.526506      29.348973    
   2979000   295.01693      305.04884      287.40677     -2699.765       2690.5551      17.642069      29.347727    
   2980000   294.92378      325.12963      288.20368     -2703.4057      2696.5502      36.92595       29.345226    
   2981000   292.1072       295.95326      285.26267     -2701.5713      2695.4722      10.690587      29.34593     
   2982000   295.2104       312.65241      283.1431      -2702.8088      2697.565       29.509309      29.344983    
   2983000   292.671        312.28132      280.90627     -2706.3523      2696.8172      31.375051      29.342659    
   2984000   295.02028      317.50227      290.95777     -2706.8021      2695.0986      26.544504      29.342545    
   2985000   294.03856      316.97395      285.70961     -2707.9996      2698.7735      31.264344      29.341061    
   2986000   293.85487      300.73812      276.38563     -2707.7459      2701.2395      24.352489      29.341382    
   2987000   295.92808      311.4242       277.88737     -2708.4093      2700.0129      33.536829      29.3413      
   2988000   296.5179       309.76868      289.61895     -2711.1777      2699.7907      20.149735      29.3404      
   2989000   294.73453      319.17135      292.02053     -2712.2019      2698.8185      27.150827      29.341173    
   2990000   292.60804      310.70916      297.54968     -2708.5815      2700.5992      13.159475      29.34249     
   2991000   294.14484      316.82333      287.74577     -2707.9961      2701.0653      29.077564      29.34324     
   2992000   294.0046       312.00463      267.48319     -2709.0894      2703.7047      44.521444      29.341306    
   2993000   294.86095      323.2242       279.70718     -2711.9731      2704.7163      43.517018      29.342099    
   2994000   295.96031      320.00282      278.27196     -2711.3902      2706.358       41.730864      29.341897    
   2995000   295.54219      308.37397      301.24972     -2713.0424      2703.5792      7.1242516      29.343095    
   2996000   292.80719      301.16762      278.60393     -2714.3303      2709.1338      22.563691      29.342549    
   2997000   293.86194      313.71061      295.92655     -2714.0262      2708.1347      17.784062      29.340815    
   2998000   295.79343      319.63603      274.37402     -2718.6656      2711.8912      45.262014      29.34014     
   2999000   295.10527      315.98093      284.54595     -2716.045       2712.4948      31.43498       29.339835    
   3000000   291.921        316.81383      273.79227     -2717.419       2713.7032      43.021562      29.340832    
   3001000   294.29808      314.55321      291.96838     -2718.8973      2714.0352      22.584834      29.3419      
   3002000   295.33206      342.73819      282.10457     -2722.0157      2713.8155      60.633617      29.342803    
   3003000   293.89665      302.39135      282.73942     -2720.621       2713.9355      19.651928      29.343208    
   3004000   293.55889      330.76615      274.34394     -2726.5485      2717.0269      56.422208      29.343818    
   3005000   292.69031      319.78462      282.32241     -2724.3346      2718.3375      37.462213      29.344105    
   3006000   294.56626      330.25504      290.49371     -2726.3668      2715.2718      39.761333      29.344545    
   3007000   297.08025      326.38507      288.05789     -2727.9586      2715.4999      38.327175      29.343167    
   3008000   294.21452      313.54428      285.98673     -2729.4561      2720.5549      27.557556      29.343433    
   3009000   293.22324      315.69576      276.14972     -2728.9458      2721.6888      39.546036      29.344434    
   3010000   291.37428      312.77005      272.21156     -2725.5683      2721.4401      40.558489      29.344411    
   3011000   295.4218       307.28521      294.71043     -2725.9622      2719.4525      12.57478       29.343756    
   3012000   292.69033      310.93153      281.69235     -2728.3822      2722.1645      29.239177      29.343055    
   3013000   295.17573      326.50027      293.19991     -2731.894       2721.3802      33.300365      29.343981    
   3014000   294.21813      301.3638       291.86295     -2728.0566      2720.6664      9.5008519      29.343641    
   3015000   290.89004      298.33564      289.14896     -2727.3437      2723.3003      9.1866831      29.342734    
   3016000   292.56741      318.25914      289.08171     -2730.8758      2725.2884      29.177425      29.344608    
   3017000   293.69665      318.62853      283.91081     -2731.3048      2725.7007      34.717719      29.345037    
   3018000   295.68379      321.38554      281.8068      -2736.0767      2727.9818      39.578746      29.345275    
   3019000   295.00507      330.23441      283.92503     -2731.399       2728.1213      46.309385      29.345091    
   3020000   292.45084      320.11539      277.20764     -2733.3351      2728.3599      42.907749      29.343999    
   3021000   293.48801      313.61476      280.48559     -2735.998       2731.6761      33.129169      29.343224    
   3022000   295.78702      317.59072      301.55843     -2734.4455      2725.0866      16.032298      29.344047    
   3023000   294.3669       306.45541      286.23736     -2733.344       2732.1067      20.218045      29.343458    
   3024000   293.86853      319.03697      269.55707     -2738.9378      2737.0072      49.479894      29.343905    
   3025000   292.73106      311.8242       281.98574     -2738.0303      2736.599       29.838466      29.345716    
   3026000   292.46908      331.66347      276.75971     -2742.0064      2735.5569      54.903769      29.345959    
   3027000   292.78385      302.52995      277.52181     -2741.0494      2736.0257      25.008144      29.346417    
   3028000   295.41089      312.97714      294.25057     -2738.9528      2734.4896      18.726564      29.348035    
   3029000   294.7654       313.91364      285.68717     -2741.1005      2737.601       28.226466      29.347529    
   3030000   293.73138      312.79684      286.7056      -2739.7202      2735.139       26.091237      29.348743    
   3031000   292.492        297.67903      289.5015      -2739.7833      2737.4106      8.1775314      29.346909    
   3032000   293.84367      311.57855      278.72347     -2747.0413      2739.2995      32.855084      29.345713    
   3033000   295.67635      317.31132      284.01379     -2749.0459      2739.4055      33.297524      29.345004    
   3034000   295.72131      310.48771      293.06666     -2749.6832      2740.3517      17.421054      29.346099    
   3035000   295.128        301.10674      283.91044     -2747.2388      2741.4797      17.196293      29.347123    
   3036000   295.04948      315.18452      285.18153     -2747.4829      2743.5519      30.002992      29.348866    
   3037000   295.65698      326.70253      284.97034     -2751.8167      2743.0591      41.732185      29.348767    
   3038000   295.08877      319.49368      294.56879     -2750.991       2742.2873      24.92489       29.348417    
   3039000   296.28457      303.82005      286.15508     -2750.7561      2744.1899      17.664973      29.347704    
   3040000   292.21969      313.08827      274.18583     -2752.7103      2749.0397      38.902439      29.347832    
   3041000   295.44107      318.50446      295.67654     -2754.9343      2745.5335      22.827917      29.349664    
   3042000   293.24407      311.77039      286.83538     -2752.1535      2746.364       24.935011      29.349135    
   3043000   295.1256       328.48092      278.18736     -2758.4944      2748.4585      50.29356       29.349055    
   3044000   293.86852      320.91727      273.33374     -2756.3916      2749.5373      47.583528      29.346983    
   3045000   297.78065      318.8521       284.75596     -2759.8342      2748.5608      34.096137      29.346503    
   3046000   294.16173      323.40337      291.11785     -2758.177       2747.6737      32.285518      29.346271    
   3047000   293.9067       304.84696      292.43867     -2758.9375      2746.9425      12.408289      29.34733     
   3048000   294.57008      317.52844      279.91552     -2760.4489      2750.704       37.612918      29.346841    
   3049000   294.8183       318.25405      294.60298     -2762.5073      2747.3231      23.651079      29.34709     
   3050000   295.21018      321.30142      294.07726     -2765.2996      2751.0374      27.22416       29.343811    
   3051000   296.66538      316.26032      284.87429     -2763.3794      2750.8415      31.386032      29.344877    
   3052000   295.11628      320.09948      281.74415     -2761.8861      2752.7743      38.355333      29.34224     
   3053000   294.7158       319.15511      283.76054     -2763.3131      2753.2415      35.39457       29.339891    
   3054000   295.92949      318.72101      276.14196     -2762.3438      2754.554       42.579052      29.340111    
   3055000   296.11811      317.31855      288.76866     -2765.8515      2752.2057      28.549889      29.339845    
   3056000   297.09605      323.46919      277.25283     -2765.7341      2751.7465      46.216367      29.338734    
   3057000   296.9142       314.68281      286.85508     -2768.0239      2752.5261      27.827738      29.33811     
   3058000   294.95652      309.398        302.83075     -2768.3216      2749.9643      6.5672431      29.335167    
   3059000   294.31372      315.94837      296.92075     -2768.2397      2754.63        19.027618      29.333738    
   3060000   294.92849      318.8408       308.23584     -2770.1421      2752.8465      10.604965      29.332169    
   3061000   296.42755      315.16107      297.61825     -2768.9373      2755.4439      17.542824      29.330691    
   3062000   297.41578      317.98132      287.28812     -2773.0623      2755.2633      30.693205      29.331483    
   3063000   294.441        305.91493      276.63926     -2769.8274      2759.352       29.275672      29.331726    
   3064000   295.79351      315.4348       281.18237     -2770.691       2759.9555      34.252424      29.330905    
   3065000   296.01373      316.07358      287.79595     -2773.6359      2761.088       28.277631      29.331606    
   3066000   293.99148      313.99575      286.28837     -2772.8974      2761.138       27.707382      29.331694    
   3067000   296.59696      322.16088      290.48085     -2775.4917      2761.047       31.680029      29.330572    
   3068000   294.37145      320.34884      284.90344     -2776.5506      2765.5541      35.445396      29.330943    
   3069000   294.93131      311.84654      283.28306     -2774.9291      2765.9507      28.563474      29.331993    
   3070000   295.71124      299.80842      297.12247     -2777.2677      2763.1728      2.6859538      29.332775    
   3071000   297.26679      319.03529      296.80814     -2780.9259      2765.7468      22.22715       29.333135    
   3072000   294.76772      318.83106      281.87285     -2779.7541      2766.2599      36.958214      29.332773    
   3073000   295.50348      331.87082      277.52938     -2782.7035      2766.6062      54.341439      29.332486    
   3074000   295.3398       320.60629      282.39774     -2781.9529      2766.8143      38.208548      29.332189    
   3075000   293.1905       317.00792      287.16209     -2781.1385      2768.6176      29.845827      29.330135    
   3076000   294.25349      308.39935      278.00941     -2783.044       2770.749       30.389942      29.329418    
   3077000   294.36143      320.75798      284.66783     -2784.5312      2773.0784      36.090143      29.329554    
   3078000   295.95342      322.82176      284.94147     -2784.6673      2774.2086      37.880282      29.331136    
   3079000   293.77152      317.40272      270.36027     -2786.5225      2777.4699      47.04245       29.330645    
   3080000   297.3554       317.22636      295.7741      -2788.3175      2773.6414      21.452262      29.331093    
   3081000   293.39996      319.46534      281.58479     -2785.3172      2775.3056      37.880554      29.331967    
   3082000   294.98399      312.58446      286.67738     -2787.9702      2777.3614      25.907081      29.332079    
   3083000   295.73127      325.61145      283.75055     -2789.4687      2782.1159      41.860894      29.334257    
   3084000   292.58308      308.89453      276.78813     -2788.1705      2784.295       32.106398      29.332526    
   3085000   292.94536      308.14941      293.97654     -2788.9428      2781.7903      14.172874      29.331314    
   3086000   291.38982      305.21525      280.83076     -2790.0972      2787.0915      24.384485      29.330266    
   3087000   292.74891      319.87124      280.80483     -2795.0806      2789.6218      39.066411      29.330953    
   3088000   292.34319      311.2359       282.62188     -2793.6992      2789.7032      28.61402       29.332762    
   3089000   294.24521      312.85345      279.57817     -2795.238       2790.6271      33.275282      29.332896    
   3090000   293.70275      317.95816      292.37052     -2798.7451      2790.8264      25.58764       29.333508    
   3091000   294.93193      327.57216      292.56358     -2800.8138      2791.8868      35.008583      29.332781    
   3092000   295.99381      306.25457      292.5783      -2799.7563      2793.3622      13.676268      29.331777    
   3093000   292.45305      299.68795      284.12798     -2801.6467      2796.257       15.559977      29.330527    
   3094000   292.68233      318.67714      278.44196     -2803.826       2798.5762      40.235176      29.330558    
   3095000   295.18748      319.26647      293.66604     -2806.1907      2795.984       25.600427      29.331639    
   3096000   292.33146      296.1365       269.17882     -2804.8876      2802.1364      26.95768       29.332567    
   3097000   295.13434      310.88148      271.57163     -2808.2187      2801.9295      39.309847      29.332934    
   3098000   294.37258      314.26809      289.99084     -2810.5338      2800.4079      24.277257      29.332096    
   3099000   294.28692      312.04954      270.46942     -2811.1763      2803.503       41.580123      29.331462    
   3100000   294.93568      311.19194      281.08847     -2812.5025      2802.3711      30.103466      29.331357    
   3101000   296.59155      311.78118      277.45242     -2813.6644      2803.7376      34.328764      29.330397    
   3102000   296.44944      325.59271      283.50698     -2815.6796      2803.3431      42.085728      29.331748    
   3103000   295.35623      321.16707      282.67807     -2817.5206      2804.4426      38.488999      29.332219    
   3104000   295.52251      323.1304       279.42086     -2819.8483      2808.9798      43.709537      29.334402    
   3105000   295.32661      319.60083      288.87178     -2818.9727      2807.1518      30.72904       29.333966    
   3106000   293.35184      315.35934      281.91281     -2817.1271      2808.6104      33.446537      29.331378    
   3107000   294.65802      324.52825      296.13235     -2821.2765      2809.4298      28.395896      29.329577    
   3108000   296.08428      330.81417      284.07662     -2823.1963      2811.2078      46.737547      29.330528    
   3109000   293.98168      318.38074      269.74966     -2823.1128      2814.4527      48.631078      29.329511    
   3110000   296.50876      302.4012       284.27451     -2824.5643      2814.0486      18.126688      29.328588    
   3111000   294.86333      320.04195      299.5968      -2823.4627      2812.0215      20.445142      29.329522    
   3112000   293.3197       310.88525      277.98456     -2825.1967      2812.3388      32.900698      29.330233    
   3113000   294.74744      316.18189      279.14094     -2828.4581      2816.1386      37.040946      29.330056    
   3114000   294.3782       297.04617      279.74547     -2823.885       2816.7185      17.300699      29.329878    
   3115000   293.94319      322.65556      288.302       -2830.0323      2817.5099      34.353557      29.329121    
   3116000   293.61881      308.56015      283.91614     -2829.5979      2820.6273      24.644008      29.32979     
   3117000   295.70377      312.72845      290.59729     -2829.1027      2818.4922      22.131157      29.328971    
   3118000   295.95607      316.63267      282.84155     -2831.5536      2819.5718      33.791118      29.326114    
   3119000   293.76         310.3097       276.6964      -2830.0321      2822.923       33.613293      29.325275    
   3120000   295.97872      310.97941      287.15807     -2831.2958      2821.5235      23.821337      29.325161    
   3121000   297.22583      314.32309      289.13024     -2835.805       2823.2543      25.192852      29.325423    
   3122000   294.7225       312.55077      285.73224     -2836.062       2825.8005      26.818526      29.325228    
   3123000   295.88102      310.73153      285.80251     -2836.2201      2825.8727      24.929012      29.326407    
   3124000   295.76056      318.91143      279.9189      -2835.8248      2831.4201      38.992524      29.327838    
   3125000   295.2468       317.94582      283.12249     -2838.8459      2831.296       34.823326      29.328068    
   3126000   293.33297      320.18206      285.11296     -2836.2201      2831.1839      35.069103      29.328362    
   3127000   294.11544      324.05272      289.93577     -2840.8052      2831.4907      34.116951      29.328309    
   3128000   294.0291       299.36199      277.38721     -2836.7382      2832.007       21.974776      29.328163    
   3129000   294.32668      302.02153      292.51169     -2841.1317      2832.2067      9.5098434      29.326552    
   3130000   294.39969      318.73541      290.95613     -2842.9729      2832.154       27.779279      29.328921    
   3131000   295.34738      316.83983      271.91455     -2843.8307      2838.4305      44.925275      29.328869    
   3132000   295.41078      321.04641      295.06595     -2843.916       2833.845       25.980455      29.329279    
   3133000   294.89508      301.80219      280.74976     -2842.4218      2837.9177      21.052425      29.328763    
   3134000   295.30537      312.75735      271.03257     -2845.0935      2841.5045      41.724779      29.330231    
   3135000   295.57118      330.89692      275.23693     -2847.8417      2839.6258      55.659995      29.330748    
   3136000   293.8224       314.01218      279.76261     -2843.7697      2838.1815      34.249565      29.330337    
   3137000   294.21589      313.58692      297.61832     -2846.415       2838.1292      15.968598      29.33124     
   3138000   294.44695      315.79789      288.10597     -2845.4355      2841.4365      27.691912      29.330399    
   3139000   294.14859      309.65485      284.94674     -2846.9581      2841.7098      24.708109      29.329076    
   3140000   294.22889      315.20421      284.88241     -2850.5414      2842.7265      30.321799      29.329151    
   3141000   294.86983      307.9246       285.584       -2851.4098      2845.5908      22.340604      29.327962    
   3142000   294.35368      313.2437       279.27163     -2853.6377      2846.7547      33.972074      29.327954    
   3143000   292.60854      312.75215      281.04144     -2853.5416      2848.4987      31.710713      29.330495    
   3144000   294.04987      317.68679      275.98321     -2856.4033      2849.3511      41.703584      29.330155    
   3145000   295.24101      325.52347      280.00538     -2855.5758      2850.4326      45.518097      29.330703    
   3146000   293.82126      322.64464      269.55069     -2859.4151      2851.8147      53.093944      29.330521    
   3147000   294.55477      323.18989      287.18924     -2857.9456      2851.1554      36.000653      29.329867    
   3148000   295.17467      317.43818      286.31219     -2860.0884      2850.7545      31.125994      29.328956    
   3149000   295.70912      313.82056      291.74155     -2859.0456      2851.5435      22.079009      29.328413    
   3150000   293.07617      312.93042      286.88378     -2858.5308      2854.2967      26.046641      29.328265    
   3151000   294.7681       319.97679      285.27519     -2862.0974      2858.5193      34.701597      29.327467    
   3152000   295.12274      305.60085      285.54792     -2860.6234      2857.9025      20.052928      29.326617    
   3153000   292.96402      314.09473      289.80975     -2862.2363      2857.2086      24.284982      29.326188    
   3154000   291.98113      305.42551      279.02416     -2862.284       2861.1229      26.401353      29.327197    
   3155000   292.82492      321.17791      288.85101     -2865.6442      2859.821       32.326897      29.325995    
   3156000   295.96359      303.87461      288.5404      -2864.4299      2857.9823      15.334212      29.325459    
   3157000   293.72899      310.35689      302.1357      -2865.6239      2857.4734      8.2211934      29.326682    
   3158000   294.67945      306.96327      295.28649     -2867.8982      2859.4192      11.676784      29.325575    
   3159000   295.44515      307.9604       297.06913     -2867.9438      2860.6419      10.891269      29.325849    
   3160000   292.46433      301.08599      281.78581     -2866.5904      2862.925       19.300179      29.325404    
   3161000   294.82805      321.2013       294.987       -2869.3278      2863.0012      26.214298      29.325563    
   3162000   296.19055      309.98989      286.02681     -2868.9081      2866.5284      23.963076      29.323841    
   3163000   292.92137      301.44688      280.82795     -2868.9564      2868.2448      20.618935      29.32302     
   3164000   294.21829      317.15067      285.87351     -2871.8001      2866.7619      31.277162      29.325007    
   3165000   294.78865      309.15373      287.56002     -2871.9428      2867.1471      21.593719      29.324138    
   3166000   292.64949      323.77312      265.24785     -2876.6892      2871.586       58.525278      29.32452     
   3167000   294.25178      310.5935       288.26945     -2873.8084      2870.1579      22.324042      29.323774    
   3168000   293.57739      319.99185      276.57633     -2875.7627      2874.3282      43.415517      29.322825    
   3169000   293.82426      320.10086      299.85818     -2881.582       2872.0711      20.242678      29.323621    
   3170000   294.96023      316.34333      285.84571     -2880.1823      2875.8498      30.497626      29.325275    
   3171000   293.02606      316.67556      283.3181      -2879.4147      2876.4763      33.35746       29.325757    
   3172000   293.52282      313.96334      278.24771     -2879.0426      2879.3373      35.715635      29.326245    
   3173000   292.33653      319.4284       289.18851     -2880.9654      2878.5501      30.239893      29.32618     
   3174000   294.30158      320.00979      286.93056     -2882.5201      2880.6433      33.079231      29.325873    
   3175000   293.39938      310.10627      285.48076     -2880.9545      2880.8844      24.625508      29.324826    
   3176000   294.0156       322.11792      285.37925     -2880.7781      2879.8363      36.738667      29.325827    
   3177000   290.11617      313.86395      281.96629     -2881.2724      2882.1475      31.897662      29.326325    
   3178000   294.06824      313.64331      291.23266     -2881.9033      2880.423       22.410648      29.325979    
   3179000   293.244        328.52185      272.28127     -2883.9601      2882.3003      56.240584      29.326147    
   3180000   293.90597      325.72635      297.86467     -2887.8166      2880.365       27.861679      29.325813    
   3181000   293.92617      326.85409      282.87455     -2888.6639      2883.248       43.979544      29.326735    
   3182000   293.63029      316.46499      286.80529     -2886.5871      2882.6967      29.659705      29.327657    
   3183000   294.0082       319.59473      294.34836     -2888.4262      2881.0449      25.246372      29.327758    
   3184000   295.93963      320.04728      301.54146     -2886.6768      2879.3441      18.505813      29.3269      
   3185000   292.59961      300.21553      283.59992     -2887.2592      2879.5301      16.615611      29.324859    
   3186000   293.45019      319.14146      282.82002     -2891.1508      2884.4986      36.321435      29.324068    
   3187000   294.7585       328.19937      277.16302     -2890.4735      2885.5946      51.036344      29.324156    
   3188000   292.82372      296.60942      277.31018     -2886.8211      2888.5043      19.299245      29.323474    
   3189000   294.2245       330.71957      287.63092     -2892.8935      2888.1924      43.088653      29.324928    
   3190000   294.36299      319.07192      279.94246     -2890.1393      2886.6173      39.12946       29.326069    
   3191000   294.46873      316.00497      290.35558     -2889.7659      2889.0873      25.649389      29.324034    
   3192000   292.07545      322.43342      279.74534     -2890.3544      2889.3826      42.688081      29.3238      
   3193000   293.33273      318.94385      274.84513     -2892.4119      2893.1602      44.098716      29.324288    
   3194000   292.83833      311.88049      299.69551     -2892.5749      2889.8771      12.184981      29.323651    
   3195000   291.56852      324.42611      270.19857     -2893.1291      2896.4842      54.227542      29.322037    
   3196000   294.69551      314.51969      286.14684     -2895.1767      2891.98        28.37285       29.321862    
   3197000   291.98126      318.94366      284.58847     -2899.4403      2895.796       34.355188      29.320106    
   3198000   294.4778       317.42801      284.57343     -2899.1026      2895.9671      32.854581      29.321408    
   3199000   292.60586      304.91268      284.33139     -2898.718       2896.3429      20.581287      29.320296    
   3200000   294.336        299.32318      284.90189     -2898.9273      2898.8796      14.421286      29.319003    
   3201000   292.83709      322.77873      282.19081     -2902.1931      2900.3761      40.587914      29.318737    
   3202000   294.50402      313.78112      294.71173     -2901.8767      2898.8941      19.069395      29.320594    
   3203000   296.2082       315.33131      296.90012     -2901.5472      2897.0323      18.43119       29.320251    
   3204000   292.79099      312.69911      295.7867      -2901.0333      2899.6889      16.912413      29.31926     
   3205000   292.2962       314.93667      272.75359     -2903.0289      2902.5036      42.183082      29.318297    
   3206000   294.25715      312.06043      276.37035     -2903.2101      2903.1417      35.690088      29.317757    
   3207000   292.15284      298.32791      280.86668     -2904.9729      2900.3114      17.461235      29.317595    
   3208000   294.8109       309.12974      286.73276     -2905.4573      2901.6384      22.396972      29.317497    
   3209000   293.93384      309.92269      282.98255     -2904.4201      2900.5937      26.940136      29.315809    
   3210000   296.49524      304.8127       288.64885     -2905.8496      2902.7221      16.163856      29.315307    
   3211000   294.65861      324.27496      291.83878     -2909.5319      2903.792       32.436185      29.316617    
   3212000   294.64813      312.16817      290.45889     -2909.6229      2904.3328      21.709272      29.317118    
   3213000   292.35908      305.12478      286.11584     -2910.0601      2906.1042      19.00894       29.316276    
   3214000   294.11556      318.62528      284.63307     -2911.9724      2907.0833      33.99221       29.315773    
   3215000   297.95985      323.96346      278.32232     -2914.766       2904.2565      45.641136      29.315497    
   3216000   292.89476      295.50308      291.27917     -2913.3484      2906.0609      4.2239089      29.315826    
   3217000   293.5701       314.03607      278.87546     -2916.6584      2907.3324      35.16061       29.317665    
   3218000   293.96154      318.04702      282.0546      -2916.8929      2908.0069      35.992421      29.319022    
   3219000   294.04027      317.07329      288.96425     -2920.0779      2912.1355      28.109041      29.318814    
   3220000   295.88751      314.77491      284.86858     -2918.9882      2910.6218      29.906329      29.3192      
   3221000   295.64507      322.48879      285.1225      -2920.2557      2911.9742      37.366285      29.321052    
   3222000   293.8788       307.04749      280.76066     -2917.2189      2913.235       26.286829      29.321611    
   3223000   293.00015      298.91         291.61911     -2920.2219      2913.1093      7.2908953      29.321977    
   3224000   294.01207      316.3023       290.27142     -2920.7651      2913.7798      26.03088       29.324368    
   3225000   293.25483      320.46095      293.09428     -2923.1151      2913.7213      27.366666      29.324114    
   3226000   292.94946      303.81579      282.77836     -2918.033       2917.6031      21.037424      29.322485    
   3227000   295.41774      319.7046       289.81315     -2920.9344      2919.0668      29.89145       29.321783    
   3228000   292.75316      315.10691      290.16595     -2921.4367      2920.2423      24.940958      29.319044    
   3229000   293.80426      314.43845      292.84882     -2922.6537      2921.6897      21.589632      29.318586    
   3230000   292.29293      327.16128      276.15102     -2924.2838      2925.847       51.010261      29.316388    
   3231000   291.75918      311.27603      277.53602     -2922.2713      2925.633       33.740017      29.317137    
   3232000   295.99878      326.9473       273.60162     -2927.502       2923.6767      53.345683      29.318398    
   3233000   295.85101      317.71845      280.39316     -2927.6731      2925.4429      37.325292      29.319297    
   3234000   294.49572      320.79114      275.16167     -2930.9553      2927.4439      45.629473      29.319109    
   3235000   296.02595      325.51204      278.08983     -2931.9364      2923.4408      47.422213      29.32049     
   3236000   294.73589      307.21604      270.63779     -2930.4807      2929.026       36.57825       29.321225    
   3237000   294.4745       304.71473      290.07327     -2929.4349      2928.4721      14.641463      29.322395    
   3238000   294.16997      299.76841      287.70606     -2930.7311      2926.4876      12.062348      29.320934    
   3239000   293.85415      309.12098      285.95769     -2934.0686      2926.6751      23.163292      29.321315    
   3240000   294.98734      306.26331      280.28237     -2934.1221      2930.0196      25.980943      29.321594    
   3241000   294.58213      302.63956      281.8415      -2936.1755      2930.8671      20.79806       29.3231      
   3242000   296.57407      316.47158      303.29573     -2936.7523      2929.2072      13.175844      29.320539    
   3243000   296.18782      321.17823      298.46932     -2942.234       2931.2174      22.708911      29.320849    
   3244000   295.38567      316.10469      291.2596      -2940.4236      2933.0109      24.845088      29.320503    
   3245000   294.15839      307.60211      287.0565      -2939.7496      2936.0378      20.545604      29.321481    
   3246000   293.55843      305.64494      281.76231     -2939.9089      2933.3816      23.882634      29.322102    
   3247000   294.20035      318.60719      289.06599     -2941.2073      2934.7121      29.541204      29.32107     
   3248000   293.97109      326.5006       293.91625     -2942.4951      2933.9902      32.584354      29.321954    
   3249000   294.29413      321.00247      296.1577      -2944.5213      2933.1872      24.844765      29.321102    
   3250000   293.89895      314.29281      282.22725     -2942.889       2934.4721      32.065559      29.321676    
   3251000   294.76995      313.23138      301.41209     -2943.9938      2933.6875      11.819292      29.322013    
   3252000   293.0459       310.48118      292.32255     -2945.15        2933.8247      18.158628      29.320851    
   3253000   295.69499      317.90194      296.60922     -2947.4853      2936.371       21.292725      29.320819    
   3254000   296.02415      313.93737      294.98139     -2948.883       2935.7383      18.955973      29.320886    
   3255000   295.25171      322.71383      273.70436     -2947.9293      2940.0706      49.009466      29.320538    
   3256000   295.4925       301.03489      288.97745     -2946.0193      2941.2212      12.057442      29.32024     
   3257000   292.62014      305.04236      293.28526     -2949.5732      2937.8395      11.757106      29.31913     
   3258000   295.03269      306.35949      277.35144     -2947.0697      2940.3241      29.008055      29.317406    
   3259000   292.10404      303.64477      275.32946     -2948.591       2943.4672      28.315314      29.317209    
   3260000   294.9041       320.75725      277.44216     -2951.2636      2942.0845      43.315089      29.31837     
   3261000   292.59056      306.53894      273.80398     -2948.4839      2943.337       32.734963      29.320471    
   3262000   294.34073      308.19821      287.93863     -2951.4028      2945.8973      20.259585      29.320343    
   3263000   294.17857      301.78044      278.63791     -2951.1738      2945.2168      23.142534      29.3193      
   3264000   295.87941      321.27159      282.19382     -2957.4402      2947.1808      39.077765      29.319231    
   3265000   294.67995      311.00041      280.08556     -2954.145       2948.9416      30.914853      29.318528    
   3266000   293.11678      328.13902      289.99445     -2957.8326      2947.1813      38.144569      29.318662    
   3267000   293.48631      303.97582      275.8163      -2957.7115      2950.1034      28.159521      29.318303    
   3268000   295.3134       320.16995      290.09274     -2958.8106      2951.2529      30.077211      29.318847    
   3269000   292.96479      324.91112      288.32539     -2959.6102      2950.1853      36.585733      29.319542    
   3270000   295.15364      320.36378      283.7048      -2961.3618      2951.156       36.65898       29.318664    
   3271000   293.33039      330.63921      278.83783     -2963.4955      2955.1161      51.801376      29.319405    
   3272000   294.28013      313.62661      288.04037     -2961.6089      2953.536       25.586246      29.320097    
   3273000   293.68427      315.98803      289.11762     -2962.369       2952.9837      26.870406      29.320234    
   3274000   294.62061      315.29722      302.79174     -2964.4956      2950.1333      12.505477      29.320204    
   3275000   293.88192      310.29839      278.65117     -2962.6516      2956.4269      31.64722       29.319189    
   3276000   294.85545      316.40082      283.57449     -2962.1546      2954.5248      32.826322      29.318472    
   3277000   295.18053      318.70276      285.43998     -2964.731       2957.0091      33.262783      29.317846    
   3278000   294.21847      329.53694      302.03722     -2967.6224      2956.6765      27.499719      29.317742    
   3279000   293.10811      307.51132      281.4602      -2964.8053      2958.4275      26.051116      29.316719    
   3280000   294.84352      316.82646      291.35539     -2965.9883      2957.2545      25.471071      29.315391    
   3281000   298.4145       326.61628      287.79934     -2968.7621      2958.7493      38.816935      29.315245    
   3282000   293.85882      305.97077      280.19491     -2968.2091      2959.1138      25.775867      29.316439    
   3283000   297.45015      311.28165      292.84611     -2967.9259      2958.6636      18.435548      29.317019    
   3284000   297.45711      312.54154      287.60476     -2970.6119      2959.9896      24.936787      29.316266    
   3285000   296.78767      314.05191      292.17561     -2971.8387      2958.3237      21.876306      29.3158      
   3286000   297.27314      323.06764      292.98607     -2971.2656      2960.3498      30.081566      29.31644     
   3287000   294.67365      309.23327      279.12015     -2970.8518      2964.536       30.113125      29.316399    
   3288000   292.95178      314.81746      278.57624     -2972.9992      2965.9246      36.241219      29.316205    
   3289000   295.93112      322.9601       292.77057     -2975.2435      2967.0043      30.189526      29.317038    
   3290000   294.34752      312.87997      295.31536     -2973.5905      2967.1256      17.564608      29.318338    
   3291000   293.41824      314.1748       279.52323     -2972.4776      2970.6274      34.651567      29.31737     
   3292000   293.10205      307.17038      293.73823     -2974.2609      2971.0127      13.432148      29.318251    
   3293000   292.02936      307.2571       279.32876     -2974.468       2971.5345      27.928349      29.320857    
   3294000   292.63059      326.12232      289.10246     -2976.5072      2974.1239      37.019864      29.320628    
   3295000   295.3653       324.85506      288.16025     -2977.4418      2973.2377      36.694812      29.318741    
   3296000   295.51877      310.50099      290.31466     -2977.6166      2973.4708      20.186331      29.319267    
   3297000   291.96485      316.68681      291.4149      -2978.0019      2975.0865      25.271907      29.319542    
   3298000   293.66421      304.89397      279.77227     -2979.7348      2978.0733      25.121708      29.319718    
   3299000   291.83075      320.08097      294.49062     -2980.989       2978.2808      25.59035       29.319387    
   3300000   292.33235      310.02282      278.33669     -2981.5952      2980.3808      31.686132      29.317875    
   3301000   294.78169      317.87067      275.13259     -2982.8385      2979.0859      42.738081      29.317755    
   3302000   293.82505      307.14711      277.90802     -2983.8168      2979.5875      29.239087      29.318779    
   3303000   295.98605      317.24064      289.07628     -2985.7119      2979.8679      28.164358      29.318096    
   3304000   293.33885      318.89868      293.06582     -2983.6285      2980.9835      25.832864      29.317841    
   3305000   292.61006      321.81486      280.75455     -2987.8191      2983.5381      41.060315      29.317448    
   3306000   291.82645      311.35165      277.55223     -2986.7382      2984.5212      33.799419      29.318544    
   3307000   295.16325      320.26882      282.93137     -2986.2406      2987.99        37.337457      29.318871    
   3308000   291.12478      313.52055      287.84641     -2988.6675      2987.8821      25.67414       29.318559    
   3309000   293.80689      315.06102      287.78789     -2987.4487      2988.0934      27.273125      29.318669    
   3310000   291.0707       314.95374      278.36422     -2987.9462      2990.3617      36.589519      29.320443    
   3311000   291.64022      305.24178      291.36832     -2986.9674      2991.0272      13.873453      29.32092     
   3312000   292.62967      327.10182      288.78815     -2990.8046      2992.0899      38.313673      29.320667    
   3313000   292.30485      310.78098      277.74177     -2988.7283      2995.553       33.039214      29.319026    
   3314000   291.18103      327.14026      281.35681     -2994.1846      2996.0355      45.78345       29.319356    
   3315000   291.99533      326.75871      275.91877     -2991.3862      2996.8133      50.839946      29.319497    
   3316000   291.91801      309.49494      282.91893     -2991.3487      2998.158       26.576002      29.319269    
   3317000   290.5437       300.53555      272.66117     -2993.6381      2996.2638      27.874377      29.32085     
   3318000   294.0309       325.72957      277.87442     -2995.5098      2994.5142      47.855146      29.320901    
   3319000   291.66915      316.23827      275.06763     -2996.5199      2997.3353      41.170637      29.320853    
   3320000   294.45786      306.66486      286.67538     -2995.2023      2996.0208      19.989476      29.32152     
   3321000   291.76394      318.75899      274.73335     -2995.2225      2998.7563      44.025646      29.321938    
   3322000   291.78297      314.34387      292.78628     -2996.5025      2996.1444      21.557588      29.32301     
   3323000   292.04941      303.92753      283.90461     -2996.9947      3000.0188      20.022917      29.32207     
   3324000   293.63875      310.03177      291.70948     -2999.424       3000.5385      18.322288      29.322181    
   3325000   293.43315      307.67829      276.68631     -3000.481       3003.7754      30.991976      29.320675    
   3326000   292.50703      307.64635      288.81721     -3002.0231      3002.9297      18.829144      29.319129    
   3327000   291.82989      316.29124      286.24492     -3003.3438      3002.4104      30.046316      29.319338    
   3328000   295.08245      322.38291      288.19474     -3005.4118      3006.8963      34.188172      29.321069    
   3329000   291.8024       314.84054      278.78368     -3003.1436      3005.4022      36.05686       29.320809    
   3330000   293.67061      325.12618      296.20388     -3004.6131      3006.956       28.9223        29.320378    
   3331000   292.88353      317.32212      282.58443     -3005.5136      3009.9077      34.737691      29.32045     
   3332000   291.79921      319.36898      282.30414     -3007.9042      3009.1144      37.064841      29.322389    
   3333000   292.13324      312.48299      294.32112     -3004.0482      3008.0752      18.161873      29.321903    
   3334000   291.78194      306.06368      291.01291     -3007.6117      3010.2684      15.050764      29.320139    
   3335000   292.96212      300.66945      280.6664      -3007.034       3015.2121      20.003053      29.320862    
   3336000   291.82052      322.10958      293.65139     -3010.8578      3012.9869      28.458191      29.321328    
   3337000   291.78691      307.87398      300.02036     -3011.8555      3015.9552      7.8536178      29.321653    
   3338000   293.09784      327.82286      286.41802     -3011.6524      3015.4727      41.404834      29.321963    
   3339000   293.71128      322.84856      279.69077     -3013.7434      3015.1098      43.157791      29.320349    
   3340000   293.93413      314.88004      270.25396     -3014.737       3017.0128      44.626077      29.321934    
   3341000   294.39472      322.59062      283.38234     -3016.1542      3015.4633      39.20828       29.322712    
   3342000   292.0484       323.01082      295.18408     -3019.3733      3015.1195      27.826734      29.323405    
   3343000   292.56048      328.85671      270.86247     -3021.2443      3018.6207      57.994239      29.32282     
   3344000   294.18336      310.94369      293.11659     -3020.0021      3014.8607      17.827106      29.323118    
   3345000   292.57979      304.33781      286.63959     -3020.9858      3015.0328      17.69822       29.324409    
   3346000   291.49883      303.68532      278.58426     -3021.1944      3019.7103      25.101061      29.325119    
   3347000   292.24496      323.23927      291.78962     -3020.0249      3019.2945      31.449652      29.326765    
   3348000   294.19554      312.60162      287.9157      -3021.8628      3019.0195      24.685917      29.327159    
   3349000   295.58565      315.9167       290.2077      -3022.4687      3018.9025      25.709         29.326285    
   3350000   293.0586       315.12073      286.68456     -3025.1587      3021.1999      28.436163      29.32654     
   3351000   292.38637      307.86196      282.4072      -3023.7684      3020.7371      25.454755      29.326731    
   3352000   293.97775      321.07458      279.01019     -3025.5689      3024.3535      42.064388      29.32684     
   3353000   291.55763      301.17012      289.68814     -3025.313       3024.7433      11.481977      29.327861    
   3354000   294.79647      328.98031      298.57885     -3027.9314      3021.8514      30.40146       29.329639    
   3355000   291.32882      315.06139      283.01756     -3029.2639      3027.3156      32.043831      29.329067    
   3356000   292.82189      325.82871      277.01062     -3029.0066      3028.7795      48.818086      29.329467    
   3357000   293.36378      304.20485      278.64966     -3026.8104      3028.7598      25.555193      29.329843    
   3358000   292.52785      321.5181       287.70636     -3030.7414      3031.1819      33.811741      29.328491    
   3359000   292.04571      323.33469      279.8725      -3030.1664      3032.2482      43.462188      29.328456    
   3360000   294.22254      316.21513      273.91883     -3031.1088      3034.0506      42.296307      29.330138    
   3361000   294.81438      306.62621      292.57948     -3029.1138      3032.8163      14.046737      29.329456    
   3362000   293.66147      308.87146      293.38511     -3031.7158      3032.7928      15.486354      29.329824    
   3363000   292.40898      309.43557      299.68523     -3030.9461      3032.8498      9.7503389      29.329274    
   3364000   293.90357      313.64901      279.83903     -3033.8727      3035.9251      33.809979      29.329543    
   3365000   292.87966      319.2463       277.99465     -3035.2521      3037.2459      41.25165       29.328952    
   3366000   292.23574      321.34425      286.2469      -3037.8262      3035.7904      35.09735       29.328688    
   3367000   294.45513      314.244        289.99796     -3037.8263      3034.7885      24.246039      29.327908    
   3368000   294.80999      317.09534      280.45525     -3038.0492      3038.8121      36.640097      29.327283    
   3369000   293.89807      308.47246      282.22022     -3041.1874      3039.5371      26.252241      29.326956    
   3370000   296.07243      300.52071      294.12375     -3040.3778      3039.4822      6.3969522      29.325834    
   3371000   294.87139      321.89538      278.0455      -3048.0245      3042.3645      43.849879      29.325844    
   3372000   295.05357      315.4572       293.61471     -3049.3302      3039.2022      21.842494      29.324614    
   3373000   296.56347      306.39329      298.62685     -3048.0272      3039.1247      7.7664406      29.323919    
   3374000   294.02225      304.30409      294.29808     -3050.4403      3040.0827      10.006015      29.322536    
   3375000   296.49461      314.34374      281.11548     -3052.0473      3041.96        33.228261      29.323053    
   3376000   294.05092      312.10981      288.35092     -3054.3264      3042.5497      23.758886      29.324199    
   3377000   296.09619      311.07388      289.95344     -3054.2678      3043.7911      21.120436      29.325125    
   3378000   293.87396      310.13037      285.03916     -3054.264       3045.8872      25.091204      29.323794    
   3379000   295.00053      326.97235      284.80131     -3055.6888      3046.1183      42.171035      29.324101    
   3380000   294.73108      300.62794      286.47716     -3053.0379      3046.0901      14.150779      29.323999    
   3381000   294.4442       319.04013      288.30541     -3056.199       3050.6827      30.734714      29.323466    
   3382000   294.82999      310.54432      288.48135     -3057.0307      3049.266       22.06297       29.322451    
   3383000   293.78129      312.41343      283.31304     -3059.2228      3051.2525      29.100386      29.320808    
   3384000   294.36925      323.7254       278.53326     -3065.0891      3052.92        45.192144      29.320597    
   3385000   296.64688      315.7308       275.83363     -3063.3845      3052.8347      39.897171      29.323324    
   3386000   294.1862       308.20269      279.36659     -3061.4725      3053.5818      28.836098      29.322844    
   3387000   294.8329       316.26457      286.73654     -3066.241       3052.3052      29.528031      29.3226      
   3388000   297.58744      321.38637      282.0018      -3065.1669      3054.4923      39.384578      29.323115    
   3389000   297.26081      312.08439      291.15107     -3068.5587      3053.5865      20.933318      29.323047    
   3390000   294.26141      312.7773       287.67272     -3065.6824      3054.9749      25.104575      29.322775    
   3391000   297.85439      315.06509      284.02028     -3067.6159      3054.8723      31.044811      29.322502    
   3392000   296.08617      319.0287       298.08366     -3068.7763      3055.5702      20.945036      29.321444    
   3393000   296.81657      306.8715       304.40939     -3067.3687      3055.8822      2.4621133      29.320454    
   3394000   294.44659      307.46247      279.02605     -3069.6745      3059.703       28.436412      29.318764    
   3395000   295.09747      317.18096      290.73262     -3070.1427      3060.5038      26.448339      29.318156    
   3396000   293.33793      326.45894      283.76442     -3073.6666      3060.2908      42.694522      29.31791     
   3397000   296.69353      319.73781      281.31485     -3072.9891      3064.9494      38.422962      29.317572    
   3398000   292.49316      312.7211       276.78128     -3073.3017      3068.4132      35.939818      29.318431    
   3399000   295.1222       318.96987      292.91863     -3075.7824      3064.2098      26.051245      29.31922     
   3400000   297.37475      315.2422       284.71669     -3074.2108      3068.098       30.525507      29.319384    
   3401000   295.32181      323.79324      269.2304      -3077.7517      3069.1581      54.562843      29.319337    
   3402000   291.44401      296.96359      279.84958     -3073.3598      3068.2404      17.114004      29.320711    
   3403000   293.61612      312.04337      285.984       -3077.8726      3070.2803      26.05937       29.321238    
   3404000   294.49025      324.69242      279.03217     -3081.9362      3070.8306      45.660253      29.321718    
   3405000   295.08036      326.71001      283.73766     -3082.1731      3070.9929      42.972356      29.322367    
   3406000   295.79242      313.2072       289.64347     -3081.2079      3070.0864      23.563732      29.32381     
   3407000   295.67524      320.866        290.68645     -3083.1792      3071.783       30.179543      29.324033    
   3408000   294.78618      310.64531      282.52588     -3082.2149      3075.8562      28.119434      29.324974    
   3409000   295.62418      316.36948      286.88144     -3082.5136      3076.2546      29.488041      29.325065    
   3410000   293.7584       315.10339      281.06238     -3084.3787      3074.6422      34.041013      29.325301    
   3411000   292.97236      301.301        274.20915     -3083.8449      3079.1446      27.091849      29.324749    
   3412000   295.33335      319.83688      272.23043     -3088.7647      3079.0608      47.606446      29.32415     
   3413000   294.43011      300.79043      301.14289     -3085.7387      3074.8923     -0.35245509     29.324873    
   3414000   295.01047      308.93907      284.28186     -3088.9795      3076.9886      24.65721       29.322795    
   3415000   295.1372       319.16827      284.89762     -3089.7287      3077.5757      34.270647      29.322916    
   3416000   295.10391      298.1998       290.33893     -3089.5415      3080.8006      7.8608687      29.321751    
   3417000   294.15376      315.59185      285.26177     -3094.1813      3084.9919      30.33008       29.321833    
   3418000   294.78263      327.29754      282.27396     -3095.3004      3086.4824      45.02358       29.319805    
   3419000   293.62322      305.12878      277.01325     -3093.0151      3086.4545      28.115533      29.319105    
   3420000   293.70583      305.86505      281.62794     -3094.983       3088.8035      24.237117      29.320697    
   3421000   296.5306       309.00199      288.0908      -3094.4342      3084.508       20.911189      29.3199      
   3422000   295.02573      315.85435      287.94274     -3097.423       3085.4617      27.911608      29.319117    
   3423000   295.19024      316.57235      276.43498     -3096.8489      3088.6892      40.137363      29.318924    
   3424000   295.0787       317.96591      268.70782     -3100.2778      3089.2244      49.258095      29.319269    
   3425000   296.39414      304.64329      290.18087     -3097.6279      3089.252       14.462417      29.317853    
   3426000   295.118        321.46541      279.39104     -3100.3416      3088.729       42.074369      29.317417    
   3427000   296.00142      310.30326      282.45472     -3101.9418      3089.6056      27.848539      29.315626    
   3428000   294.98828      312.0293       285.10349     -3102.2724      3091.1806      26.925806      29.316067    
   3429000   294.70479      304.46323      287.53241     -3104.123       3092.3194      16.930816      29.316436    
   3430000   295.2403       318.52947      284.10376     -3107.3486      3094.2891      34.425706      29.316108    
   3431000   293.36881      317.91633      286.08032     -3106.3092      3093.8003      31.836007      29.317719    
   3432000   295.07865      319.26124      275.55464     -3106.8979      3095.0759      43.7066        29.318606    
   3433000   294.52467      303.80822      280.76355     -3104.8089      3094.6765      23.04467       29.318773    
   3434000   294.46366      299.36106      290.40507     -3103.3346      3093.3218      8.9559947      29.318471    
   3435000   294.86871      308.35538      271.65546     -3105.3682      3098.0098      36.699915      29.318432    
   3436000   295.64567      312.53358      280.05375     -3107.6148      3096.4694      32.479832      29.319851    
   3437000   294.62102      310.19853      280.79554     -3108.4446      3096.1211      29.402991      29.319789    
   3438000   293.62092      332.55429      266.07287     -3109.6719      3100.134       66.48142       29.320234    
   3439000   295.11179      308.6049       282.32174     -3108.0353      3098.9749      26.283161      29.32046     
   3440000   295.63608      308.67546      284.26677     -3111.5539      3099.2297      24.408698      29.319979    
   3441000   295.51893      309.24157      290.63772     -3110.9096      3098.8146      18.603845      29.320461    
   3442000   296.36873      312.63252      281.60443     -3112.4243      3103.0018      31.028087      29.319656    
   3443000   296.01346      330.82117      280.12879     -3114.4356      3104.1995      50.692382      29.320712    
   3444000   294.55957      315.00786      290.09617     -3117.2615      3106.856       24.911693      29.321426    
   3445000   292.86908      308.8815       275.73664     -3115.7103      3107.4724      33.144861      29.321201    
   3446000   296.55086      309.41568      284.59085     -3119.8206      3105.5801      24.82483       29.321959    
   3447000   294.61007      321.06146      282.07879     -3119.049       3108.5168      38.982668      29.323121    
   3448000   295.92347      330.20696      283.96037     -3122.2563      3107.4844      46.246589      29.32411     
   3449000   294.34459      306.94215      288.44806     -3120.5421      3108.7177      18.494093      29.323053    
   3450000   296.61676      326.00287      276.00887     -3125.0668      3108.8145      49.993999      29.324595    
   3451000   294.22179      322.50893      281.81306     -3122.9679      3107.8711      40.695868      29.324809    
   3452000   296.91623      333.64066      287.07737     -3125.7767      3107.6957      46.563288      29.32475     
   3453000   295.69102      310.06948      291.74016     -3126.5872      3109.207       18.329319      29.324834    
   3454000   295.37602      302.42622      297.52544     -3124.788       3109.8143      4.9007748      29.325553    
   3455000   292.86603      314.57055      286.50726     -3130.6468      3109.9639      28.063284      29.324634    
   3456000   294.06883      293.87586      285.1706      -3125.3494      3110.2794      8.7052632      29.324092    
   3457000   296.37501      311.8686       299.57843     -3131.6234      3110.634       12.290167      29.323784    
   3458000   297.61384      310.98593      288.59749     -3131.5116      3113.0627      22.388436      29.324299    
   3459000   296.63797      308.77307      303.00668     -3133.5592      3113.2867      5.7663858      29.323344    
   3460000   296.42722      325.08603      277.45564     -3134.3674      3117.2119      47.630389      29.322241    
   3461000   296.34275      308.12162      301.71454     -3133.874       3115.1556      6.4070824      29.324093    
   3462000   293.50173      316.15887      272.95884     -3137.111       3120.3464      43.20003       29.323064    
   3463000   296.69355      315.39757      286.27733     -3136.9474      3117.7136      29.12024       29.322298    
   3464000   294.70233      305.4232       280.85885     -3137.7456      3121.9324      24.564349      29.321742    
   3465000   295.97948      312.25237      286.59801     -3137.6925      3121.9157      25.654353      29.323144    
   3466000   296.6702       327.75232      286.69542     -3140.8336      3122.6479      41.056902      29.324129    
   3467000   297.66697      316.29912      283.62486     -3142.2234      3124.0737      32.674253      29.325285    
   3468000   294.51141      318.35126      279.62998     -3141.6845      3124.0683      38.72128       29.325515    
   3469000   293.78225      320.21783      284.67841     -3144.0763      3125.4488      35.539423      29.326192    
   3470000   296.34298      311.57092      288.04662     -3145.8623      3125.6813      23.52429       29.326123    
   3471000   298.02143      326.62524      293.71503     -3148.2177      3127.0973      32.910207      29.325023    
   3472000   295.5859       302.61503      276.65896     -3143.8948      3130.6029      25.956079      29.326148    
   3473000   295.42248      322.71916      277.51642     -3147.1031      3133.187       45.202739      29.326623    
   3474000   294.85183      315.15383      295.00504     -3148.8068      3130.966       20.148791      29.327379    
   3475000   298.58869      324.86783      290.29595     -3151.1241      3131.3136      34.571873      29.32721     
   3476000   299.39959      321.03728      288.91072     -3151.8995      3135.3475      32.12656       29.327946    
   3477000   295.15634      312.44887      287.43718     -3150.336       3132.9521      25.011689      29.326939    
   3478000   298.61866      313.70094      285.52549     -3152.7804      3131.7509      28.175457      29.327306    
   3479000   297.84205      312.00567      290.97041     -3154.359       3133.0644      21.035263      29.326663    
   3480000   298.94009      319.29617      291.88569     -3154.5032      3134.7456      27.410475      29.327257    
   3481000   296.21745      306.9693       280.35845     -3152.2145      3136.7854      26.610846      29.32839     
   3482000   294.53268      306.02797      282.82948     -3152.1037      3138.7058      23.198488      29.327179    
   3483000   294.77049      314.35573      276.62145     -3152.0741      3141.7597      37.734277      29.327779    
   3484000   294.87012      314.0953       287.9403      -3154.6198      3140.652       26.155         29.329331    
   3485000   295.96479      303.84111      282.27186     -3151.985       3141.9975      21.56925       29.330035    
   3486000   295.73784      318.36987      294.06712     -3156.9733      3140.2955      24.302746      29.329541    
   3487000   295.47534      310.8014       288.32707     -3156.8357      3140.1947      22.474333      29.329843    
   3488000   295.26906      312.53118      272.53392     -3157.4713      3145.2961      39.997261      29.330866    
   3489000   295.66599      331.0735       285.36499     -3160.2057      3143.077       45.708501      29.331056    
   3490000   294.51986      310.16036      274.62169     -3158.4155      3145.1317      35.538666      29.332133    
   3491000   293.91457      317.62679      275.52487     -3161.9717      3145.0861      42.101921      29.333181    
   3492000   295.85714      312.49783      279.08695     -3165.1534      3145.7695      33.410881      29.333306    
   3493000   295.07841      313.36193      279.31424     -3162.7528      3148.1367      34.04769       29.334303    
   3494000   293.69596      313.90362      282.60458     -3163.5884      3148.568       31.299037      29.334332    
   3495000   298.32835      310.70756      284.53316     -3162.7567      3148.5891      26.174406      29.333083    
   3496000   294.55119      307.95829      283.32478     -3163.8705      3148.4929      24.633503      29.333775    
   3497000   297.3016       325.7546       282.91212     -3166.77        3150.7971      42.84248       29.334748    
   3498000   295.84451      309.95651      290.7267      -3167.3279      3147.6389      19.229812      29.334853    
   3499000   294.46848      306.33846      287.07388     -3165.0619      3149.4721      19.264578      29.333619    
   3500000   296.7325       334.45408      282.50485     -3170.6693      3152.8852      51.949232      29.333278    
   3501000   297.24879      315.88695      285.23352     -3167.9695      3153.7321      30.653426      29.332109    
   3502000   295.09335      326.11171      279.52099     -3171.5187      3157.7262      46.590714      29.33152     
   3503000   294.66092      300.43077      291.73028     -3167.4787      3158.5978      8.7004871      29.331669    
   3504000   293.90568      308.03935      292.39777     -3168.0652      3159.0076      15.641579      29.330331    
   3505000   295.18304      308.23367      288.30269     -3172.2167      3159.2018      19.930982      29.329521    
   3506000   294.49841      323.86477      284.59671     -3171.8476      3160.591       39.268059      29.329988    
   3507000   294.46638      331.95503      293.87212     -3174.9633      3160.9502      38.082907      29.331573    
   3508000   296.902        329.37639      289.23341     -3174.9881      3161.9049      40.14298       29.330513    
   3509000   295.97364      314.36401      279.60561     -3175.1311      3163.3701      34.758399      29.329764    
   3510000   295.07567      302.61344      281.86151     -3174.1953      3167.187       20.751931      29.329336    
   3511000   293.75639      315.81368      265.38211     -3176.9982      3167.5156      50.431577      29.32835     
   3512000   295.03209      309.02786      285.91431     -3179.2457      3166.9794      23.113548      29.32713     
   3513000   293.81784      298.71174      290.72152     -3182.0323      3166.0123      7.9902102      29.327436    
   3514000   296.10818      302.66047      285.32068     -3184.1517      3167.483       17.339787      29.327041    
   3515000   293.35656      318.11201      276.90545     -3184.877       3170.2916      41.206554      29.327173    
   3516000   296.73618      321.41244      283.17089     -3186.3854      3171.6529      38.241546      29.328447    
   3517000   299.3459       319.81595      290.53684     -3190.6135      3172.6189      29.279111      29.32936     
   3518000   293.20958      310.17012      281.98796     -3188.5156      3175.6951      28.182168      29.330113    
   3519000   297.17413      308.09149      273.99345     -3189.873       3176.6407      34.098037      29.329345    
   3520000   296.06166      311.83929      275.27336     -3188.6639      3176.8319      36.56593       29.329146    
   3521000   297.22256      315.85023      285.43299     -3195.2948      3178.0646      30.417231      29.328382    
   3522000   293.64667      294.4352       302.13239     -3191.455       3175.8206     -7.6971869      29.327713    
   3523000   295.47899      319.54343      280.52626     -3194.3309      3179.3469      39.017177      29.326395    
   3524000   294.20295      312.25633      275.67507     -3195.3118      3180.2233      36.581254      29.327712    
   3525000   292.82628      309.46351      285.0626      -3192.9507      3181.7234      24.400911      29.326844    
   3526000   295.2681       308.631        293.14503     -3195.8762      3179.5201      15.485973      29.327325    
   3527000   296.95727      323.416        294.68226     -3200.6655      3179.7724      28.733741      29.325755    
   3528000   295.41174      308.74931      286.81403     -3196.6019      3184.0704      21.935276      29.324503    
   3529000   296.6823       312.91787      283.57074     -3199.3045      3183.9159      29.347134      29.324995    
   3530000   294.38931      324.61768      275.07541     -3201.4512      3186.4117      49.542273      29.324454    
   3531000   297.66062      329.38869      287.27962     -3204.0557      3186.8284      42.109068      29.326579    
   3532000   297.21371      321.83823      292.76145     -3203.9046      3185.5649      29.076783      29.327285    
   3533000   295.18777      312.38063      276.86938     -3202.0574      3189.0153      35.511248      29.327416    
   3534000   296.64096      318.20918      279.38417     -3203.3058      3188.3994      38.825006      29.327349    
   3535000   294.33481      302.24295      282.75971     -3202.0401      3189.2188      19.483237      29.328247    
   3536000   297.78161      312.13155      287.17436     -3207.8622      3185.9229      24.957195      29.326834    
   3537000   296.17234      320.46824      287.24657     -3206.578       3188.4361      33.221663      29.326826    
   3538000   297.11737      324.05447      282.70745     -3208.0041      3188.0861      41.347022      29.325126    
   3539000   296.01759      312.68347      282.71528     -3208.7684      3190.5866      29.968193      29.324169    
   3540000   294.72051      311.17986      291.78142     -3208.003       3190.5791      19.398441      29.324356    
   3541000   296.70523      323.58665      285.22157     -3212.6129      3193.0548      38.365071      29.325092    
   3542000   296.09941      307.3016       283.48596     -3210.5559      3195.6167      23.815645      29.325445    
   3543000   295.63382      308.29317      276.12547     -3210.7191      3196.1252      32.167703      29.32641     
   3544000   293.77606      310.19504      279.65967     -3211.2073      3196.6214      30.535372      29.32542     
   3545000   295.69623      321.08333      289.2918      -3212.7755      3195.2501      31.791531      29.324815    
   3546000   296.50438      323.46261      274.59978     -3215.0816      3199.4986      48.862834      29.324885    
   3547000   296.54851      331.29245      300.70819     -3216.0807      3197.3524      30.584263      29.326089    
   3548000   296.27629      304.0167       280.04866     -3213.5407      3200.1824      23.968044      29.326957    
   3549000   296.24601      313.93226      281.36572     -3217.1505      3198.6782      32.566541      29.328651    
   3550000   295.90164      320.56946      279.11234     -3218.1877      3201.5003      41.45712       29.328243    
   3551000   297.46456      306.44836      282.18242     -3220.7639      3201.1794      24.265941      29.329513    
   3552000   297.37388      318.8582       293.26355     -3222.4157      3200.2585      25.594653      29.330074    
   3553000   299.04612      318.31958      295.01521     -3220.8504      3203.8494      23.304361      29.330075    
   3554000   297.47596      321.53706      288.11916     -3223.0102      3205.5685      33.417903      29.328928    
   3555000   293.69746      314.82944      280.64026     -3221.93        3209.1452      34.189178      29.329772    
   3556000   295.25571      310.08877      287.53039     -3223.2111      3208.0217      22.558381      29.331776    
   3557000   292.74246      302.35763      265.24846     -3221.1049      3210.1627      37.109169      29.332711    
   3558000   294.81618      309.7824       296.02657     -3222.7905      3207.6624      13.755838      29.333197    
   3559000   295.68087      315.54799      291.15076     -3221.3231      3210.3229      24.397236      29.332384    
   3560000   293.38315      303.81758      279.85355     -3222.5666      3208.3568      23.964025      29.331517    
   3561000   294.738        319.23366      274.91416     -3223.811       3211.7793      44.319498      29.330985    
   3562000   295.56795      306.05539      286.22956     -3223.2213      3211.1781      19.825825      29.33323     
   3563000   297.04598      320.21973      292.85275     -3226.8413      3209.6309      27.366974      29.332489    
   3564000   294.77497      316.25961      296.3744      -3225.302       3212.5228      19.885211      29.333348    
   3565000   295.12148      315.42217      284.94107     -3227.0264      3213.5119      30.481093      29.332788    
   3566000   295.82611      312.0375       279.45511     -3226.7136      3214.234       32.582392      29.332159    
   3567000   295.38883      315.5435       289.91913     -3228.3383      3214.7324      25.624374      29.333222    
   3568000   295.02625      323.34715      282.74171     -3229.8812      3217.5648      40.605439      29.332106    
   3569000   296.64099      315.52794      292.23589     -3231.0108      3218.2216      23.292054      29.333696    
   3570000   296.29148      323.1709       286.80859     -3233.028       3221.7499      36.362312      29.334792    
   3571000   294.47853      312.18807      285.86044     -3233.7711      3221.5454      26.327632      29.334103    
   3572000   296.12789      317.36491      288.42858     -3233.3782      3220.9343      28.936325      29.334383    
   3573000   295.2774       311.63649      289.28238     -3236.7961      3223.9418      22.354119      29.334492    
   3574000   292.57211      327.82257      278.06872     -3235.7544      3224.0145      49.753851      29.334141    
   3575000   296.7205       319.34801      268.14844     -3235.3668      3226.1329      51.199577      29.334817    
   3576000   294.00639      308.19622      283.79098     -3236.6611      3225.4565      24.405231      29.333796    
   3577000   294.50221      309.10641      279.08737     -3236.9361      3227.0685      30.019044      29.333574    
   3578000   295.17672      317.99766      271.60503     -3240.781       3227.7913      46.392628      29.33397     
   3579000   295.33772      321.59229      291.93599     -3241.6635      3226.1763      29.656307      29.335057    
   3580000   297.12342      306.98028      291.2335      -3241.3458      3227.7834      15.746782      29.334427    
   3581000   293.95657      315.43997      292.28979     -3239.6953      3228.8845      23.150177      29.333303    
   3582000   294.14322      318.6115       287.23454     -3243.9657      3230.1053      31.37696       29.331294    
   3583000   294.35545      317.9492       280.99184     -3243.936       3232.2841      36.957362      29.33191     
   3584000   295.46832      316.37232      287.43359     -3245.6024      3233.022       28.938728      29.331372    
   3585000   295.21352      324.30212      283.73726     -3247.512       3234.4611      40.564858      29.332505    
   3586000   295.18154      313.72781      284.60026     -3243.7037      3233.1753      29.127543      29.332013    
   3587000   294.01044      307.2834       296.32169     -3244.5551      3234.4416      10.961711      29.330037    
   3588000   294.9677       308.30353      284.00446     -3246.1009      3237.4068      24.299066      29.331146    
   3589000   294.64002      320.50406      287.57119     -3248.0108      3235.7998      32.932869      29.332769    
   3590000   296.46133      311.50478      296.67606     -3247.6529      3237.5201      14.828714      29.332127    
   3591000   295.40583      302.31307      289.09361     -3248.415       3239.5139      13.219461      29.331822    
   3592000   296.84221      308.54711      299.50595     -3249.3493      3238.3213      9.0411585      29.332249    
   3593000   294.37907      317.2027       286.93331     -3251.0665      3238.5557      30.269393      29.331266    
   3594000   295.42404      311.53355      281.24696     -3251.0385      3242.2783      30.286598      29.330604    
   3595000   296.91269      319.28056      282.45062     -3254.543       3243.076       36.829937      29.331448    
   3596000   295.9282       303.75942      290.64556     -3252.081       3242.9696      13.113866      29.328815    
   3597000   295.934        326.74416      283.46267     -3258.2039      3243.4002      43.281495      29.328985    
   3598000   296.551        320.41958      283.38539     -3255.8486      3243.3726      37.034192      29.329556    
   3599000   295.05981      312.16864      284.04504     -3257.4397      3245.929       28.123605      29.329018    
   3600000   294.02781      312.12699      285.3945      -3259.024       3246.2834      26.732494      29.328893    
   3601000   293.31504      312.39613      273.57916     -3260.7877      3248.9045      38.81697       29.328088    
   3602000   296.32141      320.91143      287.79756     -3262.5497      3248.8865      33.113876      29.328679    
   3603000   294.91836      314.12414      296.68785     -3261.6723      3247.6559      17.436283      29.327693    
   3604000   295.29564      314.82169      287.53472     -3261.6164      3250.6873      27.286971      29.3277      
   3605000   297.41326      305.99378      297.79321     -3262.9788      3248.6934      8.2005705      29.327186    
   3606000   294.10443      316.83998      281.29875     -3262.396       3251.4519      35.541238      29.325786    
   3607000   293.29131      315.38379      290.53411     -3264.3959      3251.6817      24.849676      29.32544     
   3608000   295.53945      323.7291       285.68004     -3263.4645      3251.6373      38.049065      29.326277    
   3609000   296.89527      317.44587      302.97781     -3267.611       3251.0906      14.468059      29.32567     
   3610000   296.35539      313.72508      294.34841     -3266.6352      3253.2829      19.376678      29.323386    
   3611000   295.31993      322.2013       280.34507     -3269.5781      3256.1399      41.856234      29.324182    
   3612000   294.63209      336.65625      285.1411      -3272.6698      3257.4354      51.515157      29.324685    
   3613000   291.82153      300.81652      285.30424     -3268.9681      3255.4401      15.512274      29.324841    
   3614000   295.3647       317.19868      296.24404     -3269.6742      3253.8335      20.954648      29.324667    
   3615000   295.32009      311.24558      300.10155     -3268.496       3256.0935      11.144024      29.324631    
   3616000   292.52165      316.62119      278.8484      -3268.0532      3260.5027      37.772789      29.325153    
   3617000   296.87718      328.17547      303.64827     -3272.7898      3255.1022      24.527204      29.326445    
   3618000   296.10142      319.21489      279.85899     -3269.7642      3260.5648      39.355903      29.327443    
   3619000   293.7872       300.19204      278.61271     -3266.0671      3262.1895      21.579333      29.327872    
   3620000   294.03361      320.83612      287.55855     -3270.6634      3261.9391      33.277572      29.326914    
   3621000   295.05617      317.48821      292.70433     -3270.21        3259.9395      24.783879      29.325342    
   3622000   296.07557      315.30782      286.78836     -3271.0373      3262.4232      28.519463      29.325526    
   3623000   297.5525       327.14626      279.32835     -3273.6254      3263.9205      47.817903      29.326337    
   3624000   294.19381      320.90026      281.5036      -3275.4474      3265.8832      39.396661      29.328176    
   3625000   293.44454      302.33357      284.09451     -3271.1487      3266.4047      18.239059      29.328897    
   3626000   296.24557      327.58244      293.59861     -3272.7909      3267.2259      33.983827      29.328474    
   3627000   293.85704      314.03803      274.47518     -3270.4221      3271.0358      39.562848      29.327684    
   3628000   293.9478       316.278        290.61638     -3273.1194      3267.8359      25.66161       29.327408    
   3629000   293.88853      314.12884      280.99656     -3272.5115      3273.6984      33.132276      29.327965    
   3630000   292.32216      321.94596      282.25585     -3279.6476      3271.4551      39.690114      29.329143    
   3631000   294.09676      308.33709      285.71534     -3275.2472      3272.57        22.621754      29.330081    
   3632000   294.3394       315.48767      281.47567     -3279.1826      3274.3549      34.011994      29.328878    
   3633000   293.09729      312.9584       283.25399     -3278.8877      3274.766       29.704416      29.32869     
   3634000   294.16627      319.337        287.85318     -3280.7923      3275.0675      31.48382       29.329292    
   3635000   293.23317      315.13459      287.49627     -3282.3705      3276.0503      27.638312      29.328357    
   3636000   294.67824      319.95468      297.68275     -3285.8775      3276.2326      22.271925      29.329652    
   3637000   293.8824       318.82188      297.28616     -3284.1543      3277.7866      21.53572       29.330974    
   3638000   290.81219      307.86413      276.73356     -3282.7941      3279.0174      31.130577      29.331157    
   3639000   294.92606      314.54929      304.4497      -3283.8488      3276.3154      10.099592      29.330626    
   3640000   292.62476      310.82026      287.42956     -3281.1406      3280.751       23.390704      29.329161    
   3641000   294.87028      312.5679       280.93661     -3284.5846      3283.2404      31.631291      29.328436    
   3642000   294.53651      315.55263      289.24944     -3286.7806      3282.755       26.303188      29.327327    
   3643000   292.83582      312.001        281.12881     -3288.7003      3284.3868      30.872191      29.328       
   3644000   293.43714      304.85795      280.74516     -3288.5424      3285.2608      24.112787      29.327761    
   3645000   295.90201      319.75292      284.16553     -3293.8176      3282.7571      35.587394      29.328557    
   3646000   292.61914      295.08416      288.4885      -3289.9737      3287.5788      6.5956547      29.328366    
   3647000   292.9464       321.37335      272.50287     -3294.2288      3289.9687      48.870473      29.32882     
   3648000   292.81661      299.78216      291.26853     -3291.7431      3287.3463      8.5136272      29.329044    
   3649000   294.53826      314.37932      280.98325     -3296.8447      3288.4284      33.396068      29.32873     
   3650000   292.609        300.43402      281.93029     -3295.4997      3288.0208      18.503736      29.328589    
   3651000   297.91065      330.8043       291.4983      -3297.3173      3286.6056      39.306001      29.330426    
   3652000   294.95222      313.76278      292.60047     -3299.4268      3286.6142      21.162313      29.329939    
   3653000   295.95896      316.40775      284.17649     -3297.7587      3287.7621      32.231267      29.330456    
   3654000   293.81413      315.48123      283.38384     -3300.336       3288.3821      32.097387      29.330839    
   3655000   295.09884      312.46485      280.66528     -3300.9013      3289.208       31.799574      29.330302    
   3656000   295.11145      297.91111      288.33093     -3301.7262      3291.5282      9.5801785      29.328642    
   3657000   296.07917      322.06571      291.26232     -3305.3059      3294.2225      30.803388      29.329694    
   3658000   293.16348      308.65311      292.84012     -3303.6089      3292.9231      15.812997      29.32891     
   3659000   295.26768      303.28005      286.90289     -3307.3458      3293.5462      16.37716       29.328252    
   3660000   293.97379      316.40157      281.31289     -3309.0812      3296.5925      35.08868       29.327252    
   3661000   293.06234      312.44116      284.00205     -3307.4997      3296.565       28.439106      29.326189    
   3662000   295.53776      319.2493       275.54319     -3308.1086      3298.0094      43.706114      29.327815    
   3663000   294.82903      312.10589      282.4826      -3311.3941      3300.7209      29.623295      29.329399    
   3664000   297.00676      319.93569      291.17397     -3313.7839      3299.3709      28.76172       29.329557    
   3665000   297.47688      321.16235      284.84221     -3316.9823      3299.3483      36.320142      29.330863    
   3666000   295.33018      316.31605      290.37403     -3314.2185      3298.0912      25.942021      29.331534    
   3667000   297.66268      322.19816      290.05849     -3319.6708      3299.7247      32.139666      29.331447    
   3668000   299.2606       321.01329      295.40031     -3317.4901      3297.4364      25.61298       29.331834    
   3669000   295.85968      314.24249      287.80633     -3321.6672      3301.321       26.436154      29.333408    
   3670000   297.0796       322.1121       283.35921     -3318.0844      3304.8035      38.752891      29.334829    
   3671000   296.39175      324.25312      287.77951     -3320.3143      3302.3465      36.473604      29.333318    
   3672000   296.50434      312.04488      285.69948     -3317.8679      3305.5701      26.345409      29.33284     
   3673000   296.70066      322.8839       293.10689     -3320.0455      3303.7992      29.777016      29.332936    
   3674000   296.47901      319.97107      271.80465     -3322.7101      3308.3735      48.166419      29.332038    
   3675000   294.68476      305.87797      288.31059     -3322.3447      3308.5473      17.567386      29.332469    
   3676000   296.12638      318.10672      290.89269     -3323.2188      3308.8201      27.214028      29.331637    
   3677000   295.98829      310.981        279.9947      -3323.1774      3313.6665      30.986301      29.330831    
   3678000   295.4815       319.91291      284.65208     -3322.295       3313.1026      35.260824      29.330548    
   3679000   293.28122      310.12846      284.74428     -3319.2795      3314.0151      25.384184      29.330558    
   3680000   294.655        312.214        290.98355     -3322.996       3314.561       21.230442      29.330519    
   3681000   295.44626      311.61463      297.71404     -3324.6995      3313.8788      13.900598      29.329366    
   3682000   294.30646      327.06449      285.20509     -3327.5976      3319.4837      41.859397      29.328732    
   3683000   294.27989      305.84215      289.28529     -3322.7378      3319.6081      16.556865      29.33037     
   3684000   294.14216      309.51124      291.33689     -3324.6653      3318.5478      18.174347      29.330668    
   3685000   293.4162       314.65586      280.66535     -3324.1072      3320.8264      33.990508      29.329174    
   3686000   295.43885      308.51086      292.77709     -3328.2734      3319.9261      15.733773      29.328865    
   3687000   295.07257      309.7308       283.95883     -3328.8         3321.8452      25.771967      29.328527    
   3688000   293.36552      309.2084       287.69055     -3330.2954      3321.0733      21.517842      29.328241    
   3689000   295.72143      322.24979      290.0008      -3337.0375      3319.6837      32.248985      29.326795    
   3690000   296.3293       310.00234      298.57435     -3334.5108      3322.6583      11.427987      29.326978    
   3691000   292.89297      314.39744      280.69247     -3338.3937      3325.7544      33.704965      29.327217    
   3692000   295.33399      311.37109      297.75768     -3336.3408      3322.3037      13.61341       29.327075    
   3693000   294.31795      308.55155      285.92733     -3336.8373      3326.9041      22.624219      29.326009    
   3694000   295.09154      313.34908      278.29372     -3336.2159      3327.8876      35.055365      29.325932    
   3695000   295.21262      320.20896      276.01144     -3338.5322      3329.6554      44.197516      29.325446    
   3696000   296.8552       309.70343      305.03232     -3339.7511      3326.1931      4.6711143      29.324885    
   3697000   294.01016      327.83682      272.05115     -3341.9146      3331.7818      55.785675      29.32445     
   3698000   294.51235      305.58209      285.95753     -3342.1167      3329.9037      19.624562      29.325497    
   3699000   296.44444      316.6454       278.70635     -3346.4338      3332.5258      37.939057      29.325067    
   3700000   297.52435      320.52656      284.56077     -3345.9079      3333.0743      35.965783      29.324366    
   3701000   297.00082      323.70717      279.98205     -3350.6421      3331.7187      43.725118      29.323465    
   3702000   296.76072      319.92541      290.07838     -3351.4817      3333.1299      29.847031      29.32424     
   3703000   295.76953      305.10498      285.81706     -3351.8875      3334.9108      19.287918      29.32492     
   3704000   295.70383      312.78653      288.05861     -3351.8928      3336.5022      24.727923      29.325437    
   3705000   294.31245      306.92352      297.20856     -3351.5058      3335.92        9.7149561      29.324877    
   3706000   295.61704      320.0058       302.86688     -3350.8194      3334.5047      17.138919      29.324112    
   3707000   298.27653      319.87258      289.39001     -3353.0193      3337.9231      30.482562      29.32347     
   3708000   295.25355      304.5787       289.99833     -3354.2341      3339.0571      14.580376      29.32344     
   3709000   293.35975      314.30929      283.05567     -3355.0765      3338.9579      31.25362       29.323819    
   3710000   294.907        314.76062      271.82311     -3354.7835      3341.7982      42.937514      29.323081    
   3711000   297.68368      329.82553      287.45049     -3355.4007      3342.0089      42.37504       29.323956    
   3712000   293.51003      313.97969      276.35545     -3355.8524      3342.6992      37.624234      29.325682    
   3713000   293.1089       300.56385      292.45929     -3354.1505      3339.0316      8.1045587      29.324808    
   3714000   292.72086      313.44729      288.5253      -3354.8667      3343.0407      24.921986      29.325709    
   3715000   295.98624      314.15282      283.45058     -3356.9346      3344.3457      30.702239      29.326023    
   3716000   295.64971      306.73875      288.41383     -3357.9285      3343.1538      18.324929      29.327626    
   3717000   297.20761      311.70953      296.00902     -3356.851       3341.2994      15.700517      29.32701     
   3718000   296.09498      318.32344      274.0722      -3357.9424      3346.766       44.251236      29.325691    
   3719000   293.48784      313.30124      272.92212     -3362.4563      3348.7308      40.37912       29.325445    
   3720000   295.97356      310.63161      290.31763     -3363.4105      3345.4973      20.313978      29.324651    
   3721000   294.56471      322.24423      292.32013     -3365.8429      3350.3831      29.924096      29.3241      
   3722000   294.88327      311.44072      266.6636      -3363.8963      3354.5943      44.777118      29.323705    
   3723000   295.20188      304.77941      293.93266     -3364.3808      3351.737       10.846747      29.322299    
   3724000   294.08875      318.15575      278.86106     -3365.7255      3353.0028      39.294691      29.321995    
   3725000   294.29717      299.11955      290.97367     -3365.6964      3355.1053      8.1458814      29.321355    
   3726000   296.39068      310.6849       288.71077     -3368.2878      3355.6658      21.974125      29.319945    
   3727000   294.6191       322.16144      284.55898     -3373.0454      3359.3724      37.60246       29.321178    
   3728000   297.24651      329.02227      279.50649     -3375.0561      3360.3875      49.515778      29.322022    
   3729000   296.09826      329.15133      283.18114     -3376.2302      3357.9182      45.970195      29.321987    
   3730000   293.94016      314.7165       277.04655     -3374.2661      3360.3797      37.669956      29.321677    
   3731000   298.92115      311.6922       291.72341     -3378.1376      3360.0824      19.968793      29.321772    
   3732000   296.09372      314.3827       289.88832     -3378.2688      3361.107       24.494385      29.322016    
   3733000   294.56547      311.5624       297.11234     -3377.2943      3362.7278      14.450059      29.320755    
   3734000   297.35623      301.98554      286.85144     -3378.2013      3364.0679      15.134099      29.320556    
   3735000   295.22762      297.42408      268.71966     -3381.6872      3365.2784      28.704411      29.321758    
   3736000   295.63919      309.37884      286.47458     -3379.9186      3366.2204      22.90426       29.321216    
   3737000   294.89303      310.83533      276.70632     -3384.0311      3369.4302      34.129008      29.321552    
   3738000   296.81292      304.72894      293.55416     -3382.1868      3367.1982      11.174781      29.321644    
   3739000   296.63347      320.72434      279.64479     -3386.1934      3371.3001      41.079546      29.321584    
   3740000   294.82399      300.88298      287.85942     -3384.4369      3369.4111      13.023567      29.321166    
   3741000   297.25771      313.89954      296.62665     -3384.2321      3371.3578      17.272888      29.320591    
   3742000   293.76988      311.42182      275.06676     -3382.5181      3374.9239      36.355062      29.321845    
   3743000   295.36402      326.07663      276.58664     -3389.0807      3373.687       49.489998      29.323611    
   3744000   294.43854      318.90287      279.45955     -3387.279       3374.6335      39.443316      29.325381    
   3745000   294.49245      323.49175      272.66184     -3391.4058      3375.3163      50.829909      29.325195    
   3746000   297.86929      300.5047       283.19676     -3387.5949      3375.9812      17.307936      29.326755    
   3747000   294.11613      303.27354      286.43718     -3389.6499      3378.0954      16.836363      29.325065    
   3748000   294.81761      310.87415      279.37368     -3391.6059      3377.2928      31.50047       29.324036    
   3749000   295.27444      309.21205      290.05482     -3392.5804      3379.3379      19.157228      29.325236    
   3750000   294.69336      326.08455      285.26583     -3393.913       3381.5681      40.818727      29.326227    
   3751000   293.60363      310.23294      287.44542     -3394.137       3384.1618      22.787517      29.32635     
   3752000   292.85342      297.35687      275.91741     -3391.0645      3385.9073      21.43946       29.325805    
   3753000   294.83439      302.07791      280.57473     -3393.3478      3383.1588      21.503182      29.324303    
   3754000   295.52071      309.76355      295.39707     -3394.2046      3383.2096      14.366487      29.323534    
   3755000   296.42004      320.46394      281.76133     -3394.967       3387.4286      38.702602      29.323881    
   3756000   294.07066      313.53899      282.50115     -3394.9962      3383.5855      31.037842      29.324892    
   3757000   295.72012      312.83594      278.00215     -3392.6115      3384.2118      34.833795      29.323454    
   3758000   294.20017      313.54124      292.98856     -3394.7242      3381.3041      20.552677      29.322426    
   3759000   295.19116      318.95168      282.35978     -3398.1693      3385.8502      36.591902      29.322083    
   3760000   295.46318      316.35141      281.23146     -3399.3659      3385.2529      35.119949      29.322688    
   3761000   295.05752      304.51181      296.1236      -3397.6178      3382.0671      8.3882063      29.323175    
   3762000   298.14316      328.60257      291.71477     -3402.4707      3382.3318      36.8878        29.322079    
   3763000   298.02851      323.99692      277.88134     -3399.3158      3385.4444      46.115577      29.320785    
   3764000   298.18841      325.3677       298.22889     -3400.5067      3380.4005      27.138804      29.321867    
   3765000   295.49764      296.37698      282.68481     -3400.0233      3386.0039      13.692165      29.322328    
   3766000   297.2087       299.6556       287.07222     -3401.5659      3385.7861      12.58338       29.321397    
   3767000   298.00695      329.38014      281.68079     -3408.0495      3385.9669      47.699353      29.32057     
   3768000   295.2586       309.90319      281.98041     -3405.7538      3390.5957      27.922774      29.32182     
   3769000   297.15463      316.67122      295.85683     -3409.489       3387.5758      20.814392      29.321335    
   3770000   296.79415      314.64396      280.60227     -3405.6972      3390.0468      34.041691      29.321055    
   3771000   297.50388      313.92344      287.93339     -3409.1462      3390.5341      25.990053      29.320944    
   3772000   296.90641      315.02844      282.60669     -3408.5021      3392.5661      32.421745      29.320361    
   3773000   296.48123      295.46413      301.8758      -3406.2072      3392.7687     -6.4116699      29.318872    
   3774000   296.26626      317.97992      283.77554     -3408.6378      3393.8995      34.204379      29.318268    
   3775000   296.01855      316.85204      290.40989     -3410.2068      3392.6616      26.442147      29.318513    
   3776000   296.20526      310.08102      278.50492     -3408.8022      3396.5461      31.576104      29.318233    
   3777000   296.03264      304.45482      295.33282     -3404.2949      3394.5669      9.1220003      29.317178    
   3778000   296.2903       319.93117      293.86038     -3408.0846      3396.3956      26.070794      29.318586    
   3779000   296.10177      322.45308      288.04878     -3408.7396      3395.815       34.404302      29.317694    
   3780000   292.91788      313.86375      270.90084     -3408.6806      3401.2823      42.962911      29.31843     
   3781000   295.65217      314.54838      284.9231      -3411.981       3399.5229      29.62528       29.318503    
   3782000   294.58631      313.31387      292.56633     -3412.0231      3398.8087      20.747534      29.318098    
   3783000   295.15868      305.41358      282.68352     -3412.8441      3400.9227      22.730059      29.319498    
   3784000   295.56428      317.67369      286.61342     -3412.3967      3400.8769      31.060277      29.318841    
   3785000   293.39542      297.24063      288.84522     -3409.4273      3401.9153      8.3954121      29.319249    
   3786000   295.27494      327.15523      294.71197     -3416.7842      3400.4725      32.443261      29.318638    
   3787000   295.63285      316.11968      280.36975     -3414.0103      3403.1113      35.749929      29.319337    
   3788000   293.49592      302.53586      289.37763     -3413.9604      3403.2319      13.158228      29.31986     
   3789000   296.2842       315.73474      288.4685      -3413.2195      3404.3924      27.266238      29.318725    
   3790000   294.13516      320.7011       279.67584     -3412.9872      3404.72        41.025267      29.319716    
   3791000   295.38079      321.27045      299.90481     -3418.4112      3406.3039      21.365644      29.319086    
   3792000   293.6259       322.93422      283.75304     -3418.4065      3406.9658      39.181183      29.319193    
   3793000   294.78433      299.31366      293.11381     -3415.8016      3406.7752      6.1998445      29.319574    
   3794000   292.89847      319.69554      288.00831     -3419.042       3405.2949      31.687233      29.318456    
   3795000   293.88851      315.85469      279.36393     -3418.565       3410.6605      36.490757      29.318015    
   3796000   293.36401      311.815        281.37359     -3420.7729      3411.5287      30.441414      29.31832     
   3797000   297.56289      338.11896      283.34994     -3427.2714      3413.1002      54.769021      29.321313    
   3798000   294.58044      294.08547      295.72662     -3417.7915      3412.7587     -1.6411502      29.320607    
   3799000   296.99078      322.74058      287.21558     -3423.6688      3412.4594      35.525002      29.320047    
   3800000   295.53421      315.18847      280.55511     -3422.3947      3414.2491      34.633357      29.31822     
   3801000   295.51869      317.52887      260.57548     -3424.0407      3417.7232      56.953383      29.315822    
   3802000   296.3029       322.09513      281.57881     -3428.0196      3416.3548      40.516316      29.315732    
   3803000   293.94442      320.89172      275.4788      -3429.1568      3417.365       45.412916      29.316061    
   3804000   295.45871      306.82186      283.344       -3425.5364      3415.4149      23.477861      29.316371    
   3805000   293.98082      301.48886      293.74357     -3426.5118      3415.8749      7.7452834      29.315906    
   3806000   294.97475      314.79751      268.52699     -3426.8555      3420.937       46.27052       29.316476    
   3807000   292.36141      306.3075       270.71418     -3425.7493      3421.587       35.593318      29.315969    
   3808000   294.97128      320.47092      294.28345     -3428.4823      3417.4115      26.187468      29.316342    
   3809000   296.57471      312.41819      293.30618     -3429.6092      3419.3089      19.112008      29.315661    
   3810000   294.65498      321.14231      286.97283     -3430.579       3422.429       34.169482      29.316745    
   3811000   294.34601      302.6068       291.94579     -3432.1057      3423.3005      10.661006      29.317802    
   3812000   293.02391      312.65973      283.22377     -3435.3828      3425.5481      29.435969      29.31628     
   3813000   296.30411      314.84066      277.02825     -3435.7346      3426.4154      37.812415      29.315295    
   3814000   294.92477      311.05927      291.61292     -3435.8529      3422.1371      19.446358      29.315714    
   3815000   294.63776      323.45367      293.08933     -3437.3086      3425.8599      30.364342      29.315625    
   3816000   294.037        313.59057      281.3773      -3440.6087      3429.4583      32.213267      29.316879    
   3817000   296.53318      318.34859      293.35626     -3439.4909      3426.0991      24.992329      29.31681     
   3818000   296.47674      314.26641      301.90244     -3441.7886      3425.6431      12.363972      29.316804    
   3819000   295.83801      316.3802       297.10127     -3440.619       3428.8987      19.278931      29.317215    
   3820000   293.7362       302.79104      285.26924     -3439.9187      3431.8332      17.521795      29.315906    
   3821000   296.05878      328.32367      293.75642     -3442.8643      3429.6292      34.567248      29.317769    
   3822000   294.95762      325.83532      272.9641      -3444.1964      3433.6095      52.871214      29.318907    
   3823000   294.73027      311.32062      284.45012     -3444.6222      3432.9475      26.8705        29.318374    
   3824000   294.4894       309.3455       290.13243     -3444.5113      3433.6164      19.213067      29.317108    
   3825000   295.21421      302.56021      287.05418     -3444.0787      3435.0099      15.506024      29.31625     
   3826000   295.8083       313.98272      290.14312     -3446.9952      3433.7593      23.839596      29.315867    
   3827000   295.62605      314.32707      286.75809     -3447.4837      3437.0079      27.568979      29.315678    
   3828000   294.92796      313.42289      291.2187      -3448.5748      3436.7734      22.204191      29.314676    
   3829000   293.75253      311.7236       289.81739     -3448.4845      3435.8675      21.906207      29.314027    
   3830000   294.96498      303.35656      279.08436     -3446.7356      3439.358       24.272201      29.314708    
   3831000   293.57142      310.32443      291.80254     -3449.1479      3436.9916      18.521892      29.315106    
   3832000   298.08873      314.64138      277.54106     -3450.9381      3439.3125      37.100317      29.314945    
   3833000   292.59611      309.04738      274.2085      -3450.001       3441.9602      34.838881      29.31624     
   3834000   295.96302      325.5607       298.36291     -3452.8979      3441.4809      27.197791      29.316333    
   3835000   294.86314      312.69869      273.64824     -3455.7413      3444.5478      39.050449      29.317233    
   3836000   293.94602      326.69122      277.31466     -3456.4188      3446.2543      49.376563      29.318614    
   3837000   294.01474      301.02315      297.50331     -3455.8368      3446.1628      3.5198363      29.317886    
   3838000   294.00727      317.41671      272.48261     -3457.5372      3449.8056      44.934098      29.318171    
   3839000   294.25934      310.84899      287.85516     -3456.4601      3447.849       22.993829      29.317347    
   3840000   295.19077      306.53013      288.84006     -3457.8459      3448.3954      17.690072      29.316056    
   3841000   294.25297      312.63968      276.4009      -3457.4096      3452.2207      36.238776      29.317339    
   3842000   294.93538      315.58838      286.87383     -3461.5293      3452.3659      28.714545      29.316351    
   3843000   294.45861      297.60587      291.40181     -3458.3645      3453.4548      6.2040631      29.316516    
   3844000   295.4297       318.7622       280.1544      -3462.1092      3454.1762      38.607799      29.316745    
   3845000   294.19268      296.87912      282.58586     -3461.2822      3454.6937      14.293258      29.315971    
   3846000   296.33663      313.96922      284.93617     -3465.8033      3453.4027      29.033047      29.315466    
   3847000   294.88485      308.41882      282.9009      -3463.6004      3457.3857      25.517925      29.315602    
   3848000   293.36861      317.63262      279.81287     -3466.6852      3458.4592      37.819757      29.315983    
   3849000   292.26467      315.64964      281.34399     -3463.0016      3461.923       34.305647      29.31649     
   3850000   292.70877      311.23674      284.53001     -3466.3839      3461.3346      26.706727      29.317167    
   3851000   293.16989      320.40558      275.41724     -3468.775       3465.4255      44.988338      29.318623    
   3852000   292.672        311.73707      291.15547     -3466.321       3464.7033      20.581606      29.319448    
   3853000   293.20371      311.05929      284.81843     -3467.5857      3466.0044      26.24086       29.318192    
   3854000   294.41828      318.30557      285.22107     -3471.7758      3467.7087      33.084509      29.320014    
   3855000   295.65304      312.16194      293.40295     -3470.3009      3469.6313      18.758987      29.319235    
   3856000   294.35776      303.4953       292.84253     -3471.1129      3467.5622      10.652767      29.317549    
   3857000   294.46807      319.38275      291.87472     -3474.8046      3469.1427      27.508024      29.317461    
   3858000   292.84741      313.13216      286.00232     -3475.6283      3472.7477      27.129842      29.318307    
   3859000   293.89548      312.24174      290.98977     -3476.1417      3471.6398      21.251968      29.318705    
   3860000   296.11432      302.13667      299.21248     -3473.6027      3467.6132      2.9241843      29.318245    
   3861000   293.41056      316.82262      283.75271     -3474.3754      3472.0125      33.069907      29.317443    
   3862000   295.58052      306.3057       280.37729     -3476.8619      3472.8771      25.928409      29.318591    
   3863000   292.94416      304.38555      290.0237      -3476.1098      3473.9824      14.361853      29.318401    
   3864000   292.20265      314.05951      284.12179     -3477.23        3474.2805      29.937722      29.318868    
   3865000   293.42776      320.22828      291.15692     -3477.6102      3476.4204      29.071362      29.320319    
   3866000   291.45963      311.7986       284.33782     -3479.1724      3477.8994      27.460787      29.319874    
   3867000   291.58423      312.64419      281.68919     -3479.3044      3478.5643      30.954995      29.319267    
   3868000   292.25672      323.26821      282.80612     -3480.511       3480.8458      40.462096      29.319678    
   3869000   293.69465      333.94754      284.37862     -3484.7252      3477.0159      49.568914      29.319962    
   3870000   294.33411      318.06787      287.69269     -3482.2562      3480.9468      30.375187      29.319363    
   3871000   294.89367      320.77937      270.16847     -3484.8447      3484.3087      50.610907      29.319652    
   3872000   293.72008      324.3118       285.31488     -3487.0031      3481.2307      38.996911      29.320928    
   3873000   293.56335      317.45221      278.74535     -3487.9991      3483.9427      38.706855      29.318925    
   3874000   294.92549      324.08761      290.19012     -3489.7144      3485.3146      33.897494      29.319298    
   3875000   294.76598      319.34123      285.84509     -3492.4821      3488.8309      33.496142      29.320099    
   3876000   294.16794      307.8495       277.42291     -3492.2506      3489.773       30.426595      29.320508    
   3877000   293.8171       321.25157      283.47486     -3495.9023      3488.1816      37.776712      29.322091    
   3878000   293.29995      320.42906      287.38983     -3495.1475      3488.7226      33.039236      29.320859    
   3879000   293.73288      318.19475      272.34588     -3491.3086      3489.3555      45.848871      29.320635    
   3880000   295.87025      321.28261      305.73765     -3495.6673      3487.5536      15.544961      29.320801    
   3881000   295.29079      316.00101      286.66835     -3495.5189      3490.278       29.332656      29.320493    
   3882000   292.92456      315.9542       286.82826     -3492.9262      3494.2916      29.125938      29.320446    
   3883000   294.20694      315.62495      282.51401     -3494.0167      3491.9342      33.110937      29.31988     
   3884000   293.2461       306.72002      283.11852     -3495.1578      3492.9211      23.601499      29.320738    
   3885000   290.23815      315.67574      282.21966     -3496.9826      3494.5291      33.456075      29.320078    
   3886000   296.0352       324.31068      290.21116     -3501.9211      3494.4268      34.099526      29.319067    
   3887000   294.91087      316.54165      299.00627     -3501.08        3494.3966      17.535384      29.320301    
   3888000   293.47718      316.98129      282.27307     -3500.2854      3496.4793      34.708226      29.319296    
   3889000   294.44575      312.37877      280.21214     -3502.2429      3498.5228      32.166627      29.319846    
   3890000   292.78221      318.23526      289.50771     -3504.1214      3496.5704      28.727555      29.319955    
   3891000   296.45193      318.60861      282.40886     -3504.1985      3496.7544      36.199741      29.319758    
   3892000   293.32782      309.05611      276.27853     -3506.6977      3498.2308      32.777571      29.319731    
   3893000   296.03062      320.69784      281.08513     -3508.7327      3498.4246      39.612709      29.320565    
   3894000   292.38769      301.36833      281.90487     -3508.2105      3501.404       19.46346       29.321055    
   3895000   293.68829      308.4805       292.67046     -3512.1802      3498.9185      15.810039      29.321116    
   3896000   297.37352      316.8456       283.80043     -3514.2634      3499.9771      33.045169      29.321227    
   3897000   296.42072      325.23653      280.36827     -3518.6393      3502.6268      44.868259      29.320717    
   3898000   297.39741      312.54355      288.5032      -3515.7394      3502.3488      24.040344      29.322332    
   3899000   295.7026       310.43734      289.5459      -3518.0789      3501.8841      20.891434      29.321419    
   3900000   296.62915      335.92956      278.08572     -3522.0754      3505.546       57.843843      29.321918    
   3901000   296.19675      313.95752      286.88054     -3518.8543      3505.6362      27.076987      29.322339    
   3902000   291.77157      297.38927      288.45698     -3517.3917      3505.8955      8.932296       29.32267     
   3903000   295.76423      323.53973      284.31928     -3520.079       3507.9716      39.220445      29.323071    
   3904000   294.40683      312.92016      276.05908     -3519.931       3510.1501      36.861078      29.323469    
   3905000   294.93992      315.98868      281.48941     -3520.9562      3509.0363      34.49927       29.324089    
   3906000   293.38548      311.34549      282.43915     -3521.3612      3510.3603      28.906338      29.324968    
   3907000   294.2579       306.03952      284.63909     -3522.5736      3511.9538      21.400427      29.324596    
   3908000   294.04345      319.05031      284.37236     -3525.7049      3511.0819      34.677946      29.325305    
   3909000   293.94675      307.57979      286.0037      -3526.2335      3514.1984      21.576087      29.325861    
   3910000   294.63656      302.65487      277.08605     -3524.3307      3515.2649      25.568817      29.325823    
   3911000   294.87711      324.59107      286.79844     -3525.8157      3515.849       37.792627      29.326007    
   3912000   293.02362      302.97776      285.01663     -3522.3084      3514.9397      17.961132      29.326207    
   3913000   295.44175      320.6294       295.34892     -3527.7044      3514.2675      25.280481      29.325728    
   3914000   295.82922      319.5163       297.77058     -3528.6889      3515.7163      21.745721      29.325397    
   3915000   294.11033      308.57798      283.75087     -3529.4589      3516.9912      24.827109      29.324263    
   3916000   295.03821      309.62387      284.26815     -3533.723       3517.72        25.355722      29.324802    
   3917000   294.81212      331.68801      275.10858     -3532.6397      3521.4893      56.579425      29.325799    
   3918000   295.29704      311.79678      289.09651     -3531.3867      3519.5808      22.700272      29.325862    
   3919000   293.71213      299.74357      292.70938     -3532.3353      3520.1662      7.0341871      29.32707     
   3920000   295.05338      316.95346      279.53663     -3535.5519      3523.2768      37.416828      29.326524    
   3921000   295.77744      329.35652      291.00266     -3535.0016      3522.6684      38.353859      29.326514    
   3922000   293.93767      334.2315       282.09098     -3536.5548      3524.3871      52.140521      29.325139    
   3923000   295.75082      313.23484      289.75347     -3532.8037      3524.3074      23.481363      29.325963    
   3924000   295.75186      312.10246      282.80132     -3537.2266      3526.096       29.301146      29.325548    
   3925000   295.11101      318.42261      284.20915     -3535.5139      3527.4076      34.21346       29.325928    
   3926000   293.48427      310.68325      288.21757     -3537.8045      3529.34        22.465685      29.326194    
   3927000   294.87722      303.20636      291.28886     -3536.9151      3527.9012      11.9175        29.325335    
   3928000   293.3481       317.27187      277.49515     -3538.5567      3530.8549      39.776722      29.322991    
   3929000   292.85501      320.87229      277.15374     -3543.6834      3532.3717      43.71855       29.323527    
   3930000   296.12883      303.79642      281.57962     -3541.1632      3533.1216      22.216799      29.324573    
   3931000   295.82275      314.72971      287.6782      -3543.9189      3531.6056      27.051508      29.324986    
   3932000   295.78353      303.89422      282.97032     -3545.844       3535.5765      20.923899      29.325853    
   3933000   297.37582      321.9167       278.31664     -3547.1142      3531.2914      43.600062      29.32475     
   3934000   294.92997      320.75118      280.33787     -3549.8661      3531.0433      40.413312      29.324863    
   3935000   295.73837      306.22094      283.9891      -3548.0465      3532.8634      22.231843      29.32468     
   3936000   298.3242       312.77093      273.909       -3552.5367      3536.1183      38.86193       29.325011    
   3937000   297.49746      318.33986      292.10651     -3550.573       3533.9199      26.233348      29.322976    
   3938000   299.30183      322.18         296.58087     -3553.909       3535.265       25.599133      29.32346     
   3939000   296.6235       328.0726       290.0482      -3553.0763      3537.7799      38.024402      29.32489     
   3940000   295.44939      306.99982      288.66765     -3552.8847      3537.4102      18.332173      29.324691    
   3941000   295.68579      320.03511      289.5696      -3556.5008      3539.2094      30.465511      29.323611    
   3942000   294.8274       310.59207      276.9041      -3557.0313      3542.2793      33.687972      29.32487     
   3943000   297.1571       317.8544       286.65294     -3557.3528      3542.0733      31.201457      29.32513     
   3944000   296.2104       302.24697      283.79543     -3553.1989      3541.7822      18.451539      29.32498     
   3945000   296.28504      307.83482      273.76627     -3554.3701      3544.3672      34.068552      29.324882    
   3946000   295.73529      306.04881      288.23885     -3555.6405      3540.6777      17.809967      29.325719    
   3947000   297.94379      315.58911      291.255       -3556.905       3544.0625      24.334112      29.324542    
   3948000   295.8984       326.19792      282.36349     -3557.9686      3545.7648      43.834427      29.324301    
   3949000   295.85329      311.49013      284.56006     -3557.9037      3546.6292      26.930073      29.324682    
   3950000   293.91239      313.74139      274.4859      -3554.624       3546.3391      39.255492      29.324718    
   3951000   292.38381      313.43188      288.85778     -3559.4379      3545.5455      24.574104      29.324054    
   3952000   292.80824      292.73164      286.43842     -3554.9817      3549.8616      6.2932176      29.323255    
   3953000   295.72344      312.36875      294.66402     -3559.2406      3547.6237      17.704732      29.323423    
   3954000   296.3462       322.84442      286.09955     -3561.8307      3551.3715      36.744875      29.32329     
   3955000   293.47403      309.94276      289.1152      -3560.5537      3554.1575      20.827562      29.323204    
   3956000   292.9117       303.13066      287.60731     -3562.3723      3554.7246      15.523349      29.322519    
   3957000   296.71643      314.84741      276.17523     -3566.3892      3558.0334      38.672186      29.323017    
   3958000   293.87764      299.60339      282.9092      -3564.337       3557.2565      16.694187      29.324582    
   3959000   292.75832      291.17002      284.20027     -3561.8209      3556.4421      6.9697461      29.322659    
   3960000   296.4877       311.30436      282.78261     -3567.7143      3556.6768      28.521745      29.322104    
   3961000   296.11756      307.87275      282.06248     -3566.7827      3557.2516      25.810274      29.322357    
   3962000   295.27915      322.65295      281.27061     -3568.9893      3557.1868      41.382339      29.323426    
   3963000   296.5917       308.53738      289.50038     -3565.4416      3557.3515      19.037         29.322974    
   3964000   294.87729      314.37991      280.9487      -3567.4572      3557.2661      33.431214      29.322759    
   3965000   294.35096      313.05103      289.70995     -3569.9287      3556.6876      23.34108       29.32303     
   3966000   295.41089      316.00282      275.35424     -3569.9278      3560.1581      40.648581      29.323752    
   3967000   296.76409      316.83452      299.73456     -3573.1184      3556.951       17.099961      29.323993    
   3968000   296.7507       314.88364      290.27544     -3572.1553      3558.1212      24.608194      29.324729    
   3969000   295.75041      317.73934      280.54762     -3572.9785      3558.4648      37.191725      29.323497    
   3970000   295.26368      318.76255      279.95556     -3573.5552      3560.5771      38.806986      29.323415    
   3971000   294.75743      308.50004      269.70178     -3576.4507      3562.8711      38.798256      29.325117    
   3972000   294.74633      317.65293      277.89429     -3575.7643      3563.8808      39.758641      29.326343    
   3973000   296.18242      314.58402      302.22329     -3574.8251      3559.8337      12.36073       29.325737    
   3974000   296.03028      302.50747      283.66664     -3574.8194      3561.6562      18.84083       29.325715    
   3975000   298.28276      310.6422       292.46984     -3576.6666      3562.3016      18.172356      29.32671     
   3976000   296.08908      324.00389      280.03208     -3580.2678      3564.075       43.971812      29.327096    
   3977000   297.20423      314.59875      285.15627     -3579.7961      3565.0992      29.442486      29.329344    
   3978000   294.18736      309.17373      282.84317     -3577.6453      3565.5113      26.330563      29.329455    
   3979000   295.73446      332.95359      291.09809     -3581.951       3566.5897      41.855491      29.329371    
   3980000   292.39818      309.41331      291.0734      -3576.0925      3569.6504      18.339917      29.329992    
   3981000   294.58613      304.33711      291.07849     -3577.39        3568.0891      13.25862       29.330116    
   3982000   292.31299      325.78726      275.09087     -3580.3644      3570.854       50.696388      29.329558    
   3983000   294.75332      329.48553      282.33578     -3584.443       3571.3847      47.149749      29.330952    
   3984000   293.97711      316.51169      294.51118     -3583.0947      3572.9428      22.00051       29.330843    
   3985000   293.36363      299.89022      285.92851     -3582.5598      3573.5574      13.961718      29.332275    
   3986000   296.07468      303.65544      289.25433     -3583.3305      3576.1519      14.401106      29.330489    
   3987000   293.79594      306.63551      291.13452     -3582.1018      3575.9932      15.500998      29.331071    
   3988000   295.04737      317.33162      281.91401     -3584.8908      3574.8674      35.417618      29.331503    
   3989000   295.08809      314.19764      284.72884     -3585.475       3575.9032      29.468799      29.330615    
   3990000   294.98878      324.62395      286.06627     -3583.9628      3576.7379      38.557679      29.330181    
   3991000   294.36114      327.09034      290.61804     -3587.9026      3577.214       36.472302      29.330096    
   3992000   296.04773      317.71131      293.704       -3590.3117      3577.8283      24.007315      29.329952    
   3993000   294.98607      316.1642       287.06192     -3588.0115      3580.5358      29.102281      29.3293      
   3994000   295.18892      318.19476      293.22976     -3592.4262      3579.1674      24.965005      29.329699    
   3995000   294.31782      313.34503      288.53269     -3586.4444      3581.3276      24.812345      29.329916    
   3996000   294.71568      316.72575      281.32759     -3592.8572      3584.9944      35.398161      29.330436    
   3997000   293.36065      312.95331      297.13881     -3592.6591      3583.9917      15.814497      29.330571    
   3998000   295.89514      327.33087      286.615       -3593.7454      3588.0911      40.71587       29.331235    
   3999000   293.1861       315.19654      288.32178     -3590.234       3587.6867      26.87476       29.331866    
   4000000   292.24192      319.85702      295.43621     -3590.9589      3587.7812      24.420816      29.332589    
Loop time of 9416.47 on 16 procs for 4000000 steps with 21568 atoms

Performance: 18.351 ns/day, 1.308 hours/ns, 424.788 timesteps/s, 9.162 Matom-step/s
1485.6% CPU use with 1 MPI tasks x 16 OpenMP threads

MPI task timing breakdown:
Section |  min time  |  avg time  |  max time  |%varavg| %total
---------------------------------------------------------------
Pair    | 7956.6     | 7956.6     | 7956.6     |   0.0 | 84.50
Neigh   | 2.042      | 2.042      | 2.042      |   0.0 |  0.02
Comm    | 108.25     | 108.25     | 108.25     |   0.0 |  1.15
Output  | 2.2675     | 2.2675     | 2.2675     |   0.0 |  0.02
Modify  | 1267.7     | 1267.7     | 1267.7     |   0.0 | 13.46
Other   |            | 79.6       |            |       |  0.85

Nlocal:          21568 ave       21568 max       21568 min
Histogram: 1 0 0 0 0 0 0 0 0 0
Nghost:           7624 ave        7624 max        7624 min
Histogram: 1 0 0 0 0 0 0 0 0 0
Neighs:              0 ave           0 max           0 min
Histogram: 1 0 0 0 0 0 0 0 0 0

Total # of neighbors = 0
Ave neighs/atom = 0
Neighbor list builds = 154
Dangerous builds = 0

# kappa      = 42.640 W·m⁻¹·K⁻¹
Total wall time: 5:08:30
