# ============================================================
# Final LAMMPS input for mass-weighted VDOS post-processing
# System: h-AlN/MoS2 bilayer from Atomsk/LAMMPS data file
# Output: velocity dump file containing id, type, vx, vy, vz
# ============================================================

echo				both

# ---------- user variables ----------

variable 			T equal 300

# In metal units, time is ps. timestep 0.0005 = 0.0005 ps = 0.5 fs.
variable 			DT equal 0.0005

# Dump every 10 MD steps -> sampling interval = 10*0.0005 ps = 0.005 ps = 5 fs.
variable 			DUMP_EVERY equal 10

# 200000 steps at 0.5 fs = 100 ps.
variable 			NVT_STEPS equal 200000
variable 			NVE_STEPS equal 200000

# ---------- system setup ----------
units           	metal
dimension       	3
boundary        	p p f
atom_style      	atomic

read_data       	MoS2_AlN.lmp

# ---------- atom groups for your uploaded Atomsk data file ----------
# Type mapping:
# S  = 1 3 4 6 7 9 10 12
# Mo = 2 5 8 11
# Al = 13
# N  = 14
group gS       		type 1 3 4 6 7 9 10 12
group gMo      		type 2 5 8 11
group gAl      		type 13
group gN       		type 14
group gMoS2    		type 1 2 3 4 5 6 7 8 9 10 11 12
group gAlN     		type 13 14

# ---------- force field ----------
# IMPORTANT:
# Insert exactly the same validated force-field settings used in your pristine TC simulations.
# Because your data file has 14 atom types, any pair_coeff * * mapping must contain 14 labels:
# S Mo S S Mo S S Mo S S Mo S Al N
#
#3 potentials

pair_style 			hybrid sw tersoff lj/cut 10.0

# --- MoS2 intralayer (types 1-12); exclude AlN types with NULL ---

pair_coeff 			* * sw h-mos2.sw S1 Mo1 S2 S3 Mo2 S4 S5 Mo3 S6 S7 Mo4 S8  NULL NULL

# --- AlN intralayer (types 13-14); exclude MoS2 types with NULL ---

pair_coeff 			* * tersoff XN.tersoff  NULL NULL NULL NULL NULL NULL NULL NULL NULL NULL NULL NULL  Al N

# --- Cross-layer UFF LJ (epsilon=eV, sigma=Å) ---
# S types (1,3,4,6,7,9,10,12) with Al(13) and N(14)
# S-Al: eps=0.0161306349, sig=3.795841767

pair_coeff  		1 13 lj/cut 0.0161306349 3.795841767  10.0
pair_coeff  		3 13 lj/cut 0.0161306349 3.795841767  10.0
pair_coeff  		4 13 lj/cut 0.0161306349 3.795841767  10.0
pair_coeff  		6 13 lj/cut 0.0161306349 3.795841767  10.0
pair_coeff  		7 13 lj/cut 0.0161306349 3.795841767  10.0
pair_coeff  		9 13 lj/cut 0.0161306349 3.795841767  10.0
pair_coeff 			10 13 lj/cut 0.0161306349 3.795841767 10.0
pair_coeff 			12 13 lj/cut 0.0161306349 3.795841767 10.0

# S-N: eps=0.0059625264, sig=3.423660138

pair_coeff  		1 14 lj/cut 0.0059625264 3.423660138  10.0
pair_coeff  		3 14 lj/cut 0.0059625264 3.423660138  10.0
pair_coeff  		4 14 lj/cut 0.0059625264 3.423660138  10.0
pair_coeff  		6 14 lj/cut 0.0059625264 3.423660138  10.0
pair_coeff  		7 14 lj/cut 0.0059625264 3.423660138  10.0
pair_coeff  		9 14 lj/cut 0.0059625264 3.423660138  10.0
pair_coeff 			10 14 lj/cut 0.0059625264 3.423660138  10.0
pair_coeff 			12 14 lj/cut 0.0059625264 3.423660138  10.0

# Mo types (2,5,8,11) with Al(13) and N(14)
# Mo-Al: eps=0.0072923951, sig=3.301251376

pair_coeff  		2 13 lj/cut 0.0072923951 3.301251376  10.0
pair_coeff  		5 13 lj/cut 0.0072923951 3.301251376  10.0
pair_coeff  		8 13 lj/cut 0.0072923951 3.301251376  10.0
pair_coeff 			11 13 lj/cut 0.0072923951 3.301251376  10.0

# Mo-N: eps=0.0026955603, sig=2.977564249

pair_coeff  		2 14 lj/cut 0.0026955603 2.977564249  10.0
pair_coeff  		5 14 lj/cut 0.0026955603 2.977564249  10.0
pair_coeff  		8 14 lj/cut 0.0026955603 2.977564249  10.0
pair_coeff 			11 14 lj/cut 0.0026955603 2.977564249  10.0 

neighbor        	2.0 bin
neigh_modify    	every 1 delay 0 check yes

timestep        	${DT}

thermo          	1000
thermo_style    	custom step temp pe ke etotal press

# ---------- relaxation/equilibration ----------
min_style       	cg
minimize        	1.0e-8 1.0e-10 10000 100000

velocity        	all create ${T} 987654 mom yes rot yes dist gaussian

fix             	3 all npt temp 300 300 0.05 x 0.0 0.0 0.5 y 0.0 0.0 0.5 couple xy
run             	200000
unfix           	3

fix             	EQ all nvt temp ${T} ${T} 0.1
run             	${NVT_STEPS}
unfix           	EQ

# Remove center-of-mass drift before NVE production.
velocity        	all zero linear

# ---------- NVE production with velocity dump ----------
reset_timestep  	0
fix             	PROD all nve

dump            	VEL all custom ${DUMP_EVERY} vel_pristine_${T}K.lammpstrj id type vx vy vz
dump_modify     	VEL sort id
dump_modify     	VEL element S Mo S S Mo S S Mo S S Mo S Al N

run             	${NVE_STEPS}

undump          	VEL
unfix          	 	PROD
