 # File generated with Atomsk by ASUS on 2026-03-12 15:24:42 || pre-strain mismatch: x = 0.226219184% y = 0.226219184% || applied biaxial strain: MoS2: +0.113237675% on x and y AlN: -0.112981799% on x and y
 # replicated MoS2.lmp = 12 × 12 || replicated AlN.lmp = 11 × 11 
 
       10784  atoms
          14  atom types
 
      0.000000000000     129.791644799868  xlo xhi
      0.000000000000     149.870482090804  ylo yhi
      0.000000000000     207.168770080000  zlo zhi
 
Masses
 
            1   32.06000000             # S
            2   95.96000000             # Mo
            3   32.06000000             # S
            4   32.06000000             # S
            5   95.96000000             # Mo
            6   32.06000000             # S
            7   32.06000000             # S
            8   95.96000000             # Mo
            9   32.06000000             # S
           10   32.06000000             # S
           11   95.96000000             # Mo
           12   32.06000000             # S
           13   26.98153860             # Al
           14   14.00700000             # N
 
Atoms # atomic
 
         1   13        0.983270030902       1.703073656027     100.000000000000
         2   13        3.933080145451       0.000000000000     100.000000000000
         3   13        0.983270030902       5.109220979003     100.000000000000
         4   13        3.933080145451       3.406147322976     100.000000000000
         5   13        0.983270030902       8.515368301979     100.000000000000
         6   13        3.933080145451       6.812294635030     100.000000000000
         7   13        0.983270030902      11.921515624956     100.000000000000
         8   13        3.933080145451      10.218441958007     100.000000000000
         9   13        6.882890249078       1.703073656027     100.000000000000
        10   13        9.832700363626       0.000000000000     100.000000000000
        11   13        6.882890249078       5.109220979003     100.000000000000
        12   13        9.832700363626       3.406147322976     100.000000000000
        13   13        6.882890249078       8.515368301979     100.000000000000
        14   13        9.832700363626       6.812294635030     100.000000000000
        15   13        6.882890249078      11.921515624956     100.000000000000
        16   13        9.832700363626      10.218441958007     100.000000000000
        17   14        0.000000000000       0.000000000000     100.000000000000
        18   14        2.949810103627       1.703073656027     100.000000000000
        19   14        0.000000000000       3.406147322976     100.000000000000
        20   14        2.949810103627       5.109220979003     100.000000000000
        21   14        0.000000000000       6.812294635030     100.000000000000
        22   14        2.949810103627       8.515368301979     100.000000000000
        23   14        0.000000000000      10.218441958007     100.000000000000
        24   14        2.949810103627      11.921515624956     100.000000000000
        25   14        5.899620218176       0.000000000000     100.000000000000
        26   14        8.849430321804       1.703073656027     100.000000000000
        27   14        5.899620218176       3.406147322976     100.000000000000
        28   14        8.849430321804       5.109220979003     100.000000000000
        29   14        5.899620218176       6.812294635030     100.000000000000
        30   14        8.849430321804       8.515368301979     100.000000000000
        31   14        5.899620218176      10.218441958007     100.000000000000
        32   14        8.849430321804      11.921515624956     100.000000000000
        33   13        0.983270030902      15.327662937010     100.000000000000
        34   13        3.933080145451      13.624589280982     100.000000000000
        35   13        0.983270030902      18.733810259985     100.000000000000
        36   13        3.933080145451      17.030736603959     100.000000000000
        37   13        0.983270030902      22.139957582962     100.000000000000
        38   13        3.933080145451      20.436883916012     100.000000000000
        39   13        0.983270030902      25.546104905938     100.000000000000
        40   13        3.933080145451      23.843031238989     100.000000000000
        41   13        6.882890249078      15.327662937010     100.000000000000
        42   13        9.832700363626      13.624589280982     100.000000000000
        43   13        6.882890249078      18.733810259985     100.000000000000
        44   13        9.832700363626      17.030736603959     100.000000000000
        45   13        6.882890249078      22.139957582962     100.000000000000
        46   13        9.832700363626      20.436883916012     100.000000000000
        47   13        6.882890249078      25.546104905938     100.000000000000
        48   13        9.832700363626      23.843031238989     100.000000000000
        49   14        0.000000000000      13.624589280982     100.000000000000
        50   14        2.949810103627      15.327662937010     100.000000000000
        51   14        0.000000000000      17.030736603959     100.000000000000
        52   14        2.949810103627      18.733810259985     100.000000000000
        53   14        0.000000000000      20.436883916012     100.000000000000
        54   14        2.949810103627      22.139957582962     100.000000000000
        55   14        0.000000000000      23.843031238989     100.000000000000
        56   14        2.949810103627      25.546104905938     100.000000000000
        57   14        5.899620218176      13.624589280982     100.000000000000
        58   14        8.849430321804      15.327662937010     100.000000000000
        59   14        5.899620218176      17.030736603959     100.000000000000
        60   14        8.849430321804      18.733810259985     100.000000000000
        61   14        5.899620218176      20.436883916012     100.000000000000
        62   14        8.849430321804      22.139957582962     100.000000000000
        63   14        5.899620218176      23.843031238989     100.000000000000
        64   14        8.849430321804      25.546104905938     100.000000000000
        65   13        0.983270030902      28.952252217992     100.000000000000
        66   13        3.933080145451      27.249178561964     100.000000000000
        67   13        0.983270030902      32.358399540967     100.000000000000
        68   13        3.933080145451      30.655325884941     100.000000000000
        69   13        0.983270030902      35.764546863944     100.000000000000
        70   13        3.933080145451      34.061473196995     100.000000000000
        71   13        0.983270030902      39.170694186920     100.000000000000
        72   13        3.933080145451      37.467620519971     100.000000000000
        73   13        6.882890249078      28.952252217992     100.000000000000
        74   13        9.832700363626      27.249178561964     100.000000000000
        75   13        6.882890249078      32.358399540967     100.000000000000
        76   13        9.832700363626      30.655325884941     100.000000000000
        77   13        6.882890249078      35.764546863944     100.000000000000
        78   13        9.832700363626      34.061473196995     100.000000000000
        79   13        6.882890249078      39.170694186920     100.000000000000
        80   13        9.832700363626      37.467620519971     100.000000000000
        81   14        0.000000000000      27.249178561964     100.000000000000
        82   14        2.949810103627      28.952252217992     100.000000000000
        83   14        0.000000000000      30.655325884941     100.000000000000
        84   14        2.949810103627      32.358399540967     100.000000000000
        85   14        0.000000000000      34.061473196995     100.000000000000
        86   14        2.949810103627      35.764546863944     100.000000000000
        87   14        0.000000000000      37.467620519971     100.000000000000
        88   14        2.949810103627      39.170694186920     100.000000000000
        89   14        5.899620218176      27.249178561964     100.000000000000
        90   14        8.849430321804      28.952252217992     100.000000000000
        91   14        5.899620218176      30.655325884941     100.000000000000
        92   14        8.849430321804      32.358399540967     100.000000000000
        93   14        5.899620218176      34.061473196995     100.000000000000
        94   14        8.849430321804      35.764546863944     100.000000000000
        95   14        5.899620218176      37.467620519971     100.000000000000
        96   14        8.849430321804      39.170694186920     100.000000000000
        97   13        0.983270030902      42.576841498974     100.000000000000
        98   13        3.933080145451      40.873767842947     100.000000000000
        99   13        0.983270030902      45.982988821949     100.000000000000
       100   13        3.933080145451      44.279915165923     100.000000000000
       101   13        0.983270030902      49.389136144926     100.000000000000
       102   13        3.933080145451      47.686062477977     100.000000000000
       103   13        0.983270030902      52.795283467902     100.000000000000
       104   13        3.933080145451      51.092209800953     100.000000000000
       105   13        6.882890249078      42.576841498974     100.000000000000
       106   13        9.832700363626      40.873767842947     100.000000000000
       107   13        6.882890249078      45.982988821949     100.000000000000
       108   13        9.832700363626      44.279915165923     100.000000000000
       109   13        6.882890249078      49.389136144926     100.000000000000
       110   13        9.832700363626      47.686062477977     100.000000000000
       111   13        6.882890249078      52.795283467902     100.000000000000
       112   13        9.832700363626      51.092209800953     100.000000000000
       113   14        0.000000000000      40.873767842947     100.000000000000
       114   14        2.949810103627      42.576841498974     100.000000000000
       115   14        0.000000000000      44.279915165923     100.000000000000
       116   14        2.949810103627      45.982988821949     100.000000000000
       117   14        0.000000000000      47.686062477977     100.000000000000
       118   14        2.949810103627      49.389136144926     100.000000000000
       119   14        0.000000000000      51.092209800953     100.000000000000
       120   14        2.949810103627      52.795283467902     100.000000000000
       121   14        5.899620218176      40.873767842947     100.000000000000
       122   14        8.849430321804      42.576841498974     100.000000000000
       123   14        5.899620218176      44.279915165923     100.000000000000
       124   14        8.849430321804      45.982988821949     100.000000000000
       125   14        5.899620218176      47.686062477977     100.000000000000
       126   14        8.849430321804      49.389136144926     100.000000000000
       127   14        5.899620218176      51.092209800953     100.000000000000
       128   14        8.849430321804      52.795283467902     100.000000000000
       129   13        0.983270030902      56.201430779956     100.000000000000
       130   13        3.933080145451      54.498357123929     100.000000000000
       131   13        0.983270030902      59.607578102932     100.000000000000
       132   13        3.933080145451      57.904504446905     100.000000000000
       133   13        0.983270030902      63.013725425908     100.000000000000
       134   13        3.933080145451      61.310651758959     100.000000000000
       135   13        0.983270030902      66.419872748885     100.000000000000
       136   13        3.933080145451      64.716799081935     100.000000000000
       137   13        6.882890249078      56.201430779956     100.000000000000
       138   13        9.832700363626      54.498357123929     100.000000000000
       139   13        6.882890249078      59.607578102932     100.000000000000
       140   13        9.832700363626      57.904504446905     100.000000000000
       141   13        6.882890249078      63.013725425908     100.000000000000
       142   13        9.832700363626      61.310651758959     100.000000000000
       143   13        6.882890249078      66.419872748885     100.000000000000
       144   13        9.832700363626      64.716799081935     100.000000000000
       145   14        0.000000000000      54.498357123929     100.000000000000
       146   14        2.949810103627      56.201430779956     100.000000000000
       147   14        0.000000000000      57.904504446905     100.000000000000
       148   14        2.949810103627      59.607578102932     100.000000000000
       149   14        0.000000000000      61.310651758959     100.000000000000
       150   14        2.949810103627      63.013725425908     100.000000000000
       151   14        0.000000000000      64.716799081935     100.000000000000
       152   14        2.949810103627      66.419872748885     100.000000000000
       153   14        5.899620218176      54.498357123929     100.000000000000
       154   14        8.849430321804      56.201430779956     100.000000000000
       155   14        5.899620218176      57.904504446905     100.000000000000
       156   14        8.849430321804      59.607578102932     100.000000000000
       157   14        5.899620218176      61.310651758959     100.000000000000
       158   14        8.849430321804      63.013725425908     100.000000000000
       159   14        5.899620218176      64.716799081935     100.000000000000
       160   14        8.849430321804      66.419872748885     100.000000000000
       161   13        0.983270030902      69.826020060938     100.000000000000
       162   13        3.933080145451      68.122946404911     100.000000000000
       163   13        0.983270030902      73.232167383914     100.000000000000
       164   13        3.933080145451      71.529093727887     100.000000000000
       165   13        0.983270030902      76.638314706890     100.000000000000
       166   13        3.933080145451      74.935241039941     100.000000000000
       167   13        0.983270030902      80.044462029867     100.000000000000
       168   13        3.933080145451      78.341388362918     100.000000000000
       169   13        6.882890249078      69.826020060938     100.000000000000
       170   13        9.832700363626      68.122946404911     100.000000000000
       171   13        6.882890249078      73.232167383914     100.000000000000
       172   13        9.832700363626      71.529093727887     100.000000000000
       173   13        6.882890249078      76.638314706890     100.000000000000
       174   13        9.832700363626      74.935241039941     100.000000000000
       175   13        6.882890249078      80.044462029867     100.000000000000
       176   13        9.832700363626      78.341388362918     100.000000000000
       177   14        0.000000000000      68.122946404911     100.000000000000
       178   14        2.949810103627      69.826020060938     100.000000000000
       179   14        0.000000000000      71.529093727887     100.000000000000
       180   14        2.949810103627      73.232167383914     100.000000000000
       181   14        0.000000000000      74.935241039941     100.000000000000
       182   14        2.949810103627      76.638314706890     100.000000000000
       183   14        0.000000000000      78.341388362918     100.000000000000
       184   14        2.949810103627      80.044462029867     100.000000000000
       185   14        5.899620218176      68.122946404911     100.000000000000
       186   14        8.849430321804      69.826020060938     100.000000000000
       187   14        5.899620218176      71.529093727887     100.000000000000
       188   14        8.849430321804      73.232167383914     100.000000000000
       189   14        5.899620218176      74.935241039941     100.000000000000
       190   14        8.849430321804      76.638314706890     100.000000000000
       191   14        5.899620218176      78.341388362918     100.000000000000
       192   14        8.849430321804      80.044462029867     100.000000000000
       193   13        0.983270030902      83.450609341920     100.000000000000
       194   13        3.933080145451      81.747535685893     100.000000000000
       195   13        0.983270030902      86.856756664896     100.000000000000
       196   13        3.933080145451      85.153683008870     100.000000000000
       197   13        0.983270030902      90.262903987872     100.000000000000
       198   13        3.933080145451      88.559830320923     100.000000000000
       199   13        0.983270030902      93.669051310849     100.000000000000
       200   13        3.933080145451      91.965977643900     100.000000000000
       201   13        6.882890249078      83.450609341920     100.000000000000
       202   13        9.832700363626      81.747535685893     100.000000000000
       203   13        6.882890249078      86.856756664896     100.000000000000
       204   13        9.832700363626      85.153683008870     100.000000000000
       205   13        6.882890249078      90.262903987872     100.000000000000
       206   13        9.832700363626      88.559830320923     100.000000000000
       207   13        6.882890249078      93.669051310849     100.000000000000
       208   13        9.832700363626      91.965977643900     100.000000000000
       209   14        0.000000000000      81.747535685893     100.000000000000
       210   14        2.949810103627      83.450609341920     100.000000000000
       211   14        0.000000000000      85.153683008870     100.000000000000
       212   14        2.949810103627      86.856756664896     100.000000000000
       213   14        0.000000000000      88.559830320923     100.000000000000
       214   14        2.949810103627      90.262903987872     100.000000000000
       215   14        0.000000000000      91.965977643900     100.000000000000
       216   14        2.949810103627      93.669051310849     100.000000000000
       217   14        5.899620218176      81.747535685893     100.000000000000
       218   14        8.849430321804      83.450609341920     100.000000000000
       219   14        5.899620218176      85.153683008870     100.000000000000
       220   14        8.849430321804      86.856756664896     100.000000000000
       221   14        5.899620218176      88.559830320923     100.000000000000
       222   14        8.849430321804      90.262903987872     100.000000000000
       223   14        5.899620218176      91.965977643900     100.000000000000
       224   14        8.849430321804      93.669051310849     100.000000000000
       225   13        0.983270030902      97.075198622903     100.000000000000
       226   13        3.933080145451      95.372124966875     100.000000000000
       227   13        0.983270030902     100.481345945878     100.000000000000
       228   13        3.933080145451      98.778272289852     100.000000000000
       229   13        0.983270030902     103.887493268855     100.000000000000
       230   13        3.933080145451     102.184419601906     100.000000000000
       231   13        0.983270030902     107.293640591831     100.000000000000
       232   13        3.933080145451     105.590566924882     100.000000000000
       233   13        6.882890249078      97.075198622903     100.000000000000
       234   13        9.832700363626      95.372124966875     100.000000000000
       235   13        6.882890249078     100.481345945878     100.000000000000
       236   13        9.832700363626      98.778272289852     100.000000000000
       237   13        6.882890249078     103.887493268855     100.000000000000
       238   13        9.832700363626     102.184419601906     100.000000000000
       239   13        6.882890249078     107.293640591831     100.000000000000
       240   13        9.832700363626     105.590566924882     100.000000000000
       241   14        0.000000000000      95.372124966875     100.000000000000
       242   14        2.949810103627      97.075198622903     100.000000000000
       243   14        0.000000000000      98.778272289852     100.000000000000
       244   14        2.949810103627     100.481345945878     100.000000000000
       245   14        0.000000000000     102.184419601906     100.000000000000
       246   14        2.949810103627     103.887493268855     100.000000000000
       247   14        0.000000000000     105.590566924882     100.000000000000
       248   14        2.949810103627     107.293640591831     100.000000000000
       249   14        5.899620218176      95.372124966875     100.000000000000
       250   14        8.849430321804      97.075198622903     100.000000000000
       251   14        5.899620218176      98.778272289852     100.000000000000
       252   14        8.849430321804     100.481345945878     100.000000000000
       253   14        5.899620218176     102.184419601906     100.000000000000
       254   14        8.849430321804     103.887493268855     100.000000000000
       255   14        5.899620218176     105.590566924882     100.000000000000
       256   14        8.849430321804     107.293640591831     100.000000000000
       257   13        0.983270030902     110.699787903885     100.000000000000
       258   13        3.933080145451     108.996714247857     100.000000000000
       259   13        0.983270030902     114.105935226860     100.000000000000
       260   13        3.933080145451     112.402861570834     100.000000000000
       261   13        0.983270030902     117.512082549837     100.000000000000
       262   13        3.933080145451     115.809008882888     100.000000000000
       263   13        0.983270030902     120.918229872813     100.000000000000
       264   13        3.933080145451     119.215156205864     100.000000000000
       265   13        6.882890249078     110.699787903885     100.000000000000
       266   13        9.832700363626     108.996714247857     100.000000000000
       267   13        6.882890249078     114.105935226860     100.000000000000
       268   13        9.832700363626     112.402861570834     100.000000000000
       269   13        6.882890249078     117.512082549837     100.000000000000
       270   13        9.832700363626     115.809008882888     100.000000000000
       271   13        6.882890249078     120.918229872813     100.000000000000
       272   13        9.832700363626     119.215156205864     100.000000000000
       273   14        0.000000000000     108.996714247857     100.000000000000
       274   14        2.949810103627     110.699787903885     100.000000000000
       275   14        0.000000000000     112.402861570834     100.000000000000
       276   14        2.949810103627     114.105935226860     100.000000000000
       277   14        0.000000000000     115.809008882888     100.000000000000
       278   14        2.949810103627     117.512082549837     100.000000000000
       279   14        0.000000000000     119.215156205864     100.000000000000
       280   14        2.949810103627     120.918229872813     100.000000000000
       281   14        5.899620218176     108.996714247857     100.000000000000
       282   14        8.849430321804     110.699787903885     100.000000000000
       283   14        5.899620218176     112.402861570834     100.000000000000
       284   14        8.849430321804     114.105935226860     100.000000000000
       285   14        5.899620218176     115.809008882888     100.000000000000
       286   14        8.849430321804     117.512082549837     100.000000000000
       287   14        5.899620218176     119.215156205864     100.000000000000
       288   14        8.849430321804     120.918229872813     100.000000000000
       289   13        0.983270030902     124.324377184867     100.000000000000
       290   13        3.933080145451     122.621303528840     100.000000000000
       291   13        0.983270030902     127.730524507842     100.000000000000
       292   13        3.933080145451     126.027450851816     100.000000000000
       293   13        0.983270030902     131.136671830819     100.000000000000
       294   13        3.933080145451     129.433598163870     100.000000000000
       295   13        0.983270030902     134.542819153795     100.000000000000
       296   13        3.933080145451     132.839745486846     100.000000000000
       297   13        6.882890249078     124.324377184867     100.000000000000
       298   13        9.832700363626     122.621303528840     100.000000000000
       299   13        6.882890249078     127.730524507842     100.000000000000
       300   13        9.832700363626     126.027450851816     100.000000000000
       301   13        6.882890249078     131.136671830819     100.000000000000
       302   13        9.832700363626     129.433598163870     100.000000000000
       303   13        6.882890249078     134.542819153795     100.000000000000
       304   13        9.832700363626     132.839745486846     100.000000000000
       305   14        0.000000000000     122.621303528840     100.000000000000
       306   14        2.949810103627     124.324377184867     100.000000000000
       307   14        0.000000000000     126.027450851816     100.000000000000
       308   14        2.949810103627     127.730524507842     100.000000000000
       309   14        0.000000000000     129.433598163870     100.000000000000
       310   14        2.949810103627     131.136671830819     100.000000000000
       311   14        0.000000000000     132.839745486846     100.000000000000
       312   14        2.949810103627     134.542819153795     100.000000000000
       313   14        5.899620218176     122.621303528840     100.000000000000
       314   14        8.849430321804     124.324377184867     100.000000000000
       315   14        5.899620218176     126.027450851816     100.000000000000
       316   14        8.849430321804     127.730524507842     100.000000000000
       317   14        5.899620218176     129.433598163870     100.000000000000
       318   14        8.849430321804     131.136671830819     100.000000000000
       319   14        5.899620218176     132.839745486846     100.000000000000
       320   14        8.849430321804     134.542819153795     100.000000000000
       321   13        0.983270030902     137.948966465849     100.000000000000
       322   13        3.933080145451     136.245892809822     100.000000000000
       323   13        0.983270030902     141.355113788825     100.000000000000
       324   13        3.933080145451     139.652040132798     100.000000000000
       325   13        0.983270030902     144.761261111801     100.000000000000
       326   13        3.933080145451     143.058187444852     100.000000000000
       327   13        0.983270030902     148.167408434778     100.000000000000
       328   13        3.933080145451     146.464334767829     100.000000000000
       329   13        6.882890249078     137.948966465849     100.000000000000
       330   13        9.832700363626     136.245892809822     100.000000000000
       331   13        6.882890249078     141.355113788825     100.000000000000
       332   13        9.832700363626     139.652040132798     100.000000000000
       333   13        6.882890249078     144.761261111801     100.000000000000
       334   13        9.832700363626     143.058187444852     100.000000000000
       335   13        6.882890249078     148.167408434778     100.000000000000
       336   13        9.832700363626     146.464334767829     100.000000000000
       337   14        0.000000000000     136.245892809822     100.000000000000
       338   14        2.949810103627     137.948966465849     100.000000000000
       339   14        0.000000000000     139.652040132798     100.000000000000
       340   14        2.949810103627     141.355113788825     100.000000000000
       341   14        0.000000000000     143.058187444852     100.000000000000
       342   14        2.949810103627     144.761261111801     100.000000000000
       343   14        0.000000000000     146.464334767829     100.000000000000
       344   14        2.949810103627     148.167408434778     100.000000000000
       345   14        5.899620218176     136.245892809822     100.000000000000
       346   14        8.849430321804     137.948966465849     100.000000000000
       347   14        5.899620218176     139.652040132798     100.000000000000
       348   14        8.849430321804     141.355113788825     100.000000000000
       349   14        5.899620218176     143.058187444852     100.000000000000
       350   14        8.849430321804     144.761261111801     100.000000000000
       351   14        5.899620218176     146.464334767829     100.000000000000
       352   14        8.849430321804     148.167408434778     100.000000000000
       353   13       12.782510467254       1.703073656027     100.000000000000
       354   13       15.732320581803       0.000000000000     100.000000000000
       355   13       12.782510467254       5.109220979003     100.000000000000
       356   13       15.732320581803       3.406147322976     100.000000000000
       357   13       12.782510467254       8.515368301979     100.000000000000
       358   13       15.732320581803       6.812294635030     100.000000000000
       359   13       12.782510467254      11.921515624956     100.000000000000
       360   13       15.732320581803      10.218441958007     100.000000000000
       361   13       18.682130685430       1.703073656027     100.000000000000
       362   13       21.631940799978       0.000000000000     100.000000000000
       363   13       18.682130685430       5.109220979003     100.000000000000
       364   13       21.631940799978       3.406147322976     100.000000000000
       365   13       18.682130685430       8.515368301979     100.000000000000
       366   13       21.631940799978       6.812294635030     100.000000000000
       367   13       18.682130685430      11.921515624956     100.000000000000
       368   13       21.631940799978      10.218441958007     100.000000000000
       369   14       11.799240436352       0.000000000000     100.000000000000
       370   14       14.749050539979       1.703073656027     100.000000000000
       371   14       11.799240436352       3.406147322976     100.000000000000
       372   14       14.749050539979       5.109220979003     100.000000000000
       373   14       11.799240436352       6.812294635030     100.000000000000
       374   14       14.749050539979       8.515368301979     100.000000000000
       375   14       11.799240436352      10.218441958007     100.000000000000
       376   14       14.749050539979      11.921515624956     100.000000000000
       377   14       17.698860654528       0.000000000000     100.000000000000
       378   14       20.648670758155       1.703073656027     100.000000000000
       379   14       17.698860654528       3.406147322976     100.000000000000
       380   14       20.648670758155       5.109220979003     100.000000000000
       381   14       17.698860654528       6.812294635030     100.000000000000
       382   14       20.648670758155       8.515368301979     100.000000000000
       383   14       17.698860654528      10.218441958007     100.000000000000
       384   14       20.648670758155      11.921515624956     100.000000000000
       385   13       12.782510467254      15.327662937010     100.000000000000
       386   13       15.732320581803      13.624589280982     100.000000000000
       387   13       12.782510467254      18.733810259985     100.000000000000
       388   13       15.732320581803      17.030736603959     100.000000000000
       389   13       12.782510467254      22.139957582962     100.000000000000
       390   13       15.732320581803      20.436883916012     100.000000000000
       391   13       12.782510467254      25.546104905938     100.000000000000
       392   13       15.732320581803      23.843031238989     100.000000000000
       393   13       18.682130685430      15.327662937010     100.000000000000
       394   13       21.631940799978      13.624589280982     100.000000000000
       395   13       18.682130685430      18.733810259985     100.000000000000
       396   13       21.631940799978      17.030736603959     100.000000000000
       397   13       18.682130685430      22.139957582962     100.000000000000
       398   13       21.631940799978      20.436883916012     100.000000000000
       399   13       18.682130685430      25.546104905938     100.000000000000
       400   13       21.631940799978      23.843031238989     100.000000000000
       401   14       11.799240436352      13.624589280982     100.000000000000
       402   14       14.749050539979      15.327662937010     100.000000000000
       403   14       11.799240436352      17.030736603959     100.000000000000
       404   14       14.749050539979      18.733810259985     100.000000000000
       405   14       11.799240436352      20.436883916012     100.000000000000
       406   14       14.749050539979      22.139957582962     100.000000000000
       407   14       11.799240436352      23.843031238989     100.000000000000
       408   14       14.749050539979      25.546104905938     100.000000000000
       409   14       17.698860654528      13.624589280982     100.000000000000
       410   14       20.648670758155      15.327662937010     100.000000000000
       411   14       17.698860654528      17.030736603959     100.000000000000
       412   14       20.648670758155      18.733810259985     100.000000000000
       413   14       17.698860654528      20.436883916012     100.000000000000
       414   14       20.648670758155      22.139957582962     100.000000000000
       415   14       17.698860654528      23.843031238989     100.000000000000
       416   14       20.648670758155      25.546104905938     100.000000000000
       417   13       12.782510467254      28.952252217992     100.000000000000
       418   13       15.732320581803      27.249178561964     100.000000000000
       419   13       12.782510467254      32.358399540967     100.000000000000
       420   13       15.732320581803      30.655325884941     100.000000000000
       421   13       12.782510467254      35.764546863944     100.000000000000
       422   13       15.732320581803      34.061473196995     100.000000000000
       423   13       12.782510467254      39.170694186920     100.000000000000
       424   13       15.732320581803      37.467620519971     100.000000000000
       425   13       18.682130685430      28.952252217992     100.000000000000
       426   13       21.631940799978      27.249178561964     100.000000000000
       427   13       18.682130685430      32.358399540967     100.000000000000
       428   13       21.631940799978      30.655325884941     100.000000000000
       429   13       18.682130685430      35.764546863944     100.000000000000
       430   13       21.631940799978      34.061473196995     100.000000000000
       431   13       18.682130685430      39.170694186920     100.000000000000
       432   13       21.631940799978      37.467620519971     100.000000000000
       433   14       11.799240436352      27.249178561964     100.000000000000
       434   14       14.749050539979      28.952252217992     100.000000000000
       435   14       11.799240436352      30.655325884941     100.000000000000
       436   14       14.749050539979      32.358399540967     100.000000000000
       437   14       11.799240436352      34.061473196995     100.000000000000
       438   14       14.749050539979      35.764546863944     100.000000000000
       439   14       11.799240436352      37.467620519971     100.000000000000
       440   14       14.749050539979      39.170694186920     100.000000000000
       441   14       17.698860654528      27.249178561964     100.000000000000
       442   14       20.648670758155      28.952252217992     100.000000000000
       443   14       17.698860654528      30.655325884941     100.000000000000
       444   14       20.648670758155      32.358399540967     100.000000000000
       445   14       17.698860654528      34.061473196995     100.000000000000
       446   14       20.648670758155      35.764546863944     100.000000000000
       447   14       17.698860654528      37.467620519971     100.000000000000
       448   14       20.648670758155      39.170694186920     100.000000000000
       449   13       12.782510467254      42.576841498974     100.000000000000
       450   13       15.732320581803      40.873767842947     100.000000000000
       451   13       12.782510467254      45.982988821949     100.000000000000
       452   13       15.732320581803      44.279915165923     100.000000000000
       453   13       12.782510467254      49.389136144926     100.000000000000
       454   13       15.732320581803      47.686062477977     100.000000000000
       455   13       12.782510467254      52.795283467902     100.000000000000
       456   13       15.732320581803      51.092209800953     100.000000000000
       457   13       18.682130685430      42.576841498974     100.000000000000
       458   13       21.631940799978      40.873767842947     100.000000000000
       459   13       18.682130685430      45.982988821949     100.000000000000
       460   13       21.631940799978      44.279915165923     100.000000000000
       461   13       18.682130685430      49.389136144926     100.000000000000
       462   13       21.631940799978      47.686062477977     100.000000000000
       463   13       18.682130685430      52.795283467902     100.000000000000
       464   13       21.631940799978      51.092209800953     100.000000000000
       465   14       11.799240436352      40.873767842947     100.000000000000
       466   14       14.749050539979      42.576841498974     100.000000000000
       467   14       11.799240436352      44.279915165923     100.000000000000
       468   14       14.749050539979      45.982988821949     100.000000000000
       469   14       11.799240436352      47.686062477977     100.000000000000
       470   14       14.749050539979      49.389136144926     100.000000000000
       471   14       11.799240436352      51.092209800953     100.000000000000
       472   14       14.749050539979      52.795283467902     100.000000000000
       473   14       17.698860654528      40.873767842947     100.000000000000
       474   14       20.648670758155      42.576841498974     100.000000000000
       475   14       17.698860654528      44.279915165923     100.000000000000
       476   14       20.648670758155      45.982988821949     100.000000000000
       477   14       17.698860654528      47.686062477977     100.000000000000
       478   14       20.648670758155      49.389136144926     100.000000000000
       479   14       17.698860654528      51.092209800953     100.000000000000
       480   14       20.648670758155      52.795283467902     100.000000000000
       481   13       12.782510467254      56.201430779956     100.000000000000
       482   13       15.732320581803      54.498357123929     100.000000000000
       483   13       12.782510467254      59.607578102932     100.000000000000
       484   13       15.732320581803      57.904504446905     100.000000000000
       485   13       12.782510467254      63.013725425908     100.000000000000
       486   13       15.732320581803      61.310651758959     100.000000000000
       487   13       12.782510467254      66.419872748885     100.000000000000
       488   13       15.732320581803      64.716799081935     100.000000000000
       489   13       18.682130685430      56.201430779956     100.000000000000
       490   13       21.631940799978      54.498357123929     100.000000000000
       491   13       18.682130685430      59.607578102932     100.000000000000
       492   13       21.631940799978      57.904504446905     100.000000000000
       493   13       18.682130685430      63.013725425908     100.000000000000
       494   13       21.631940799978      61.310651758959     100.000000000000
       495   13       18.682130685430      66.419872748885     100.000000000000
       496   13       21.631940799978      64.716799081935     100.000000000000
       497   14       11.799240436352      54.498357123929     100.000000000000
       498   14       14.749050539979      56.201430779956     100.000000000000
       499   14       11.799240436352      57.904504446905     100.000000000000
       500   14       14.749050539979      59.607578102932     100.000000000000
       501   14       11.799240436352      61.310651758959     100.000000000000
       502   14       14.749050539979      63.013725425908     100.000000000000
       503   14       11.799240436352      64.716799081935     100.000000000000
       504   14       14.749050539979      66.419872748885     100.000000000000
       505   14       17.698860654528      54.498357123929     100.000000000000
       506   14       20.648670758155      56.201430779956     100.000000000000
       507   14       17.698860654528      57.904504446905     100.000000000000
       508   14       20.648670758155      59.607578102932     100.000000000000
       509   14       17.698860654528      61.310651758959     100.000000000000
       510   14       20.648670758155      63.013725425908     100.000000000000
       511   14       17.698860654528      64.716799081935     100.000000000000
       512   14       20.648670758155      66.419872748885     100.000000000000
       513   13       12.782510467254      69.826020060938     100.000000000000
       514   13       15.732320581803      68.122946404911     100.000000000000
       515   13       12.782510467254      73.232167383914     100.000000000000
       516   13       15.732320581803      71.529093727887     100.000000000000
       517   13       12.782510467254      76.638314706890     100.000000000000
       518   13       15.732320581803      74.935241039941     100.000000000000
       519   13       12.782510467254      80.044462029867     100.000000000000
       520   13       15.732320581803      78.341388362918     100.000000000000
       521   13       18.682130685430      69.826020060938     100.000000000000
       522   13       21.631940799978      68.122946404911     100.000000000000
       523   13       18.682130685430      73.232167383914     100.000000000000
       524   13       21.631940799978      71.529093727887     100.000000000000
       525   13       18.682130685430      76.638314706890     100.000000000000
       526   13       21.631940799978      74.935241039941     100.000000000000
       527   13       18.682130685430      80.044462029867     100.000000000000
       528   13       21.631940799978      78.341388362918     100.000000000000
       529   14       11.799240436352      68.122946404911     100.000000000000
       530   14       14.749050539979      69.826020060938     100.000000000000
       531   14       11.799240436352      71.529093727887     100.000000000000
       532   14       14.749050539979      73.232167383914     100.000000000000
       533   14       11.799240436352      74.935241039941     100.000000000000
       534   14       14.749050539979      76.638314706890     100.000000000000
       535   14       11.799240436352      78.341388362918     100.000000000000
       536   14       14.749050539979      80.044462029867     100.000000000000
       537   14       17.698860654528      68.122946404911     100.000000000000
       538   14       20.648670758155      69.826020060938     100.000000000000
       539   14       17.698860654528      71.529093727887     100.000000000000
       540   14       20.648670758155      73.232167383914     100.000000000000
       541   14       17.698860654528      74.935241039941     100.000000000000
       542   14       20.648670758155      76.638314706890     100.000000000000
       543   14       17.698860654528      78.341388362918     100.000000000000
       544   14       20.648670758155      80.044462029867     100.000000000000
       545   13       12.782510467254      83.450609341920     100.000000000000
       546   13       15.732320581803      81.747535685893     100.000000000000
       547   13       12.782510467254      86.856756664896     100.000000000000
       548   13       15.732320581803      85.153683008870     100.000000000000
       549   13       12.782510467254      90.262903987872     100.000000000000
       550   13       15.732320581803      88.559830320923     100.000000000000
       551   13       12.782510467254      93.669051310849     100.000000000000
       552   13       15.732320581803      91.965977643900     100.000000000000
       553   13       18.682130685430      83.450609341920     100.000000000000
       554   13       21.631940799978      81.747535685893     100.000000000000
       555   13       18.682130685430      86.856756664896     100.000000000000
       556   13       21.631940799978      85.153683008870     100.000000000000
       557   13       18.682130685430      90.262903987872     100.000000000000
       558   13       21.631940799978      88.559830320923     100.000000000000
       559   13       18.682130685430      93.669051310849     100.000000000000
       560   13       21.631940799978      91.965977643900     100.000000000000
       561   14       11.799240436352      81.747535685893     100.000000000000
       562   14       14.749050539979      83.450609341920     100.000000000000
       563   14       11.799240436352      85.153683008870     100.000000000000
       564   14       14.749050539979      86.856756664896     100.000000000000
       565   14       11.799240436352      88.559830320923     100.000000000000
       566   14       14.749050539979      90.262903987872     100.000000000000
       567   14       11.799240436352      91.965977643900     100.000000000000
       568   14       14.749050539979      93.669051310849     100.000000000000
       569   14       17.698860654528      81.747535685893     100.000000000000
       570   14       20.648670758155      83.450609341920     100.000000000000
       571   14       17.698860654528      85.153683008870     100.000000000000
       572   14       20.648670758155      86.856756664896     100.000000000000
       573   14       17.698860654528      88.559830320923     100.000000000000
       574   14       20.648670758155      90.262903987872     100.000000000000
       575   14       17.698860654528      91.965977643900     100.000000000000
       576   14       20.648670758155      93.669051310849     100.000000000000
       577   13       12.782510467254      97.075198622903     100.000000000000
       578   13       15.732320581803      95.372124966875     100.000000000000
       579   13       12.782510467254     100.481345945878     100.000000000000
       580   13       15.732320581803      98.778272289852     100.000000000000
       581   13       12.782510467254     103.887493268855     100.000000000000
       582   13       15.732320581803     102.184419601906     100.000000000000
       583   13       12.782510467254     107.293640591831     100.000000000000
       584   13       15.732320581803     105.590566924882     100.000000000000
       585   13       18.682130685430      97.075198622903     100.000000000000
       586   13       21.631940799978      95.372124966875     100.000000000000
       587   13       18.682130685430     100.481345945878     100.000000000000
       588   13       21.631940799978      98.778272289852     100.000000000000
       589   13       18.682130685430     103.887493268855     100.000000000000
       590   13       21.631940799978     102.184419601906     100.000000000000
       591   13       18.682130685430     107.293640591831     100.000000000000
       592   13       21.631940799978     105.590566924882     100.000000000000
       593   14       11.799240436352      95.372124966875     100.000000000000
       594   14       14.749050539979      97.075198622903     100.000000000000
       595   14       11.799240436352      98.778272289852     100.000000000000
       596   14       14.749050539979     100.481345945878     100.000000000000
       597   14       11.799240436352     102.184419601906     100.000000000000
       598   14       14.749050539979     103.887493268855     100.000000000000
       599   14       11.799240436352     105.590566924882     100.000000000000
       600   14       14.749050539979     107.293640591831     100.000000000000
       601   14       17.698860654528      95.372124966875     100.000000000000
       602   14       20.648670758155      97.075198622903     100.000000000000
       603   14       17.698860654528      98.778272289852     100.000000000000
       604   14       20.648670758155     100.481345945878     100.000000000000
       605   14       17.698860654528     102.184419601906     100.000000000000
       606   14       20.648670758155     103.887493268855     100.000000000000
       607   14       17.698860654528     105.590566924882     100.000000000000
       608   14       20.648670758155     107.293640591831     100.000000000000
       609   13       12.782510467254     110.699787903885     100.000000000000
       610   13       15.732320581803     108.996714247857     100.000000000000
       611   13       12.782510467254     114.105935226860     100.000000000000
       612   13       15.732320581803     112.402861570834     100.000000000000
       613   13       12.782510467254     117.512082549837     100.000000000000
       614   13       15.732320581803     115.809008882888     100.000000000000
       615   13       12.782510467254     120.918229872813     100.000000000000
       616   13       15.732320581803     119.215156205864     100.000000000000
       617   13       18.682130685430     110.699787903885     100.000000000000
       618   13       21.631940799978     108.996714247857     100.000000000000
       619   13       18.682130685430     114.105935226860     100.000000000000
       620   13       21.631940799978     112.402861570834     100.000000000000
       621   13       18.682130685430     117.512082549837     100.000000000000
       622   13       21.631940799978     115.809008882888     100.000000000000
       623   13       18.682130685430     120.918229872813     100.000000000000
       624   13       21.631940799978     119.215156205864     100.000000000000
       625   14       11.799240436352     108.996714247857     100.000000000000
       626   14       14.749050539979     110.699787903885     100.000000000000
       627   14       11.799240436352     112.402861570834     100.000000000000
       628   14       14.749050539979     114.105935226860     100.000000000000
       629   14       11.799240436352     115.809008882888     100.000000000000
       630   14       14.749050539979     117.512082549837     100.000000000000
       631   14       11.799240436352     119.215156205864     100.000000000000
       632   14       14.749050539979     120.918229872813     100.000000000000
       633   14       17.698860654528     108.996714247857     100.000000000000
       634   14       20.648670758155     110.699787903885     100.000000000000
       635   14       17.698860654528     112.402861570834     100.000000000000
       636   14       20.648670758155     114.105935226860     100.000000000000
       637   14       17.698860654528     115.809008882888     100.000000000000
       638   14       20.648670758155     117.512082549837     100.000000000000
       639   14       17.698860654528     119.215156205864     100.000000000000
       640   14       20.648670758155     120.918229872813     100.000000000000
       641   13       12.782510467254     124.324377184867     100.000000000000
       642   13       15.732320581803     122.621303528840     100.000000000000
       643   13       12.782510467254     127.730524507842     100.000000000000
       644   13       15.732320581803     126.027450851816     100.000000000000
       645   13       12.782510467254     131.136671830819     100.000000000000
       646   13       15.732320581803     129.433598163870     100.000000000000
       647   13       12.782510467254     134.542819153795     100.000000000000
       648   13       15.732320581803     132.839745486846     100.000000000000
       649   13       18.682130685430     124.324377184867     100.000000000000
       650   13       21.631940799978     122.621303528840     100.000000000000
       651   13       18.682130685430     127.730524507842     100.000000000000
       652   13       21.631940799978     126.027450851816     100.000000000000
       653   13       18.682130685430     131.136671830819     100.000000000000
       654   13       21.631940799978     129.433598163870     100.000000000000
       655   13       18.682130685430     134.542819153795     100.000000000000
       656   13       21.631940799978     132.839745486846     100.000000000000
       657   14       11.799240436352     122.621303528840     100.000000000000
       658   14       14.749050539979     124.324377184867     100.000000000000
       659   14       11.799240436352     126.027450851816     100.000000000000
       660   14       14.749050539979     127.730524507842     100.000000000000
       661   14       11.799240436352     129.433598163870     100.000000000000
       662   14       14.749050539979     131.136671830819     100.000000000000
       663   14       11.799240436352     132.839745486846     100.000000000000
       664   14       14.749050539979     134.542819153795     100.000000000000
       665   14       17.698860654528     122.621303528840     100.000000000000
       666   14       20.648670758155     124.324377184867     100.000000000000
       667   14       17.698860654528     126.027450851816     100.000000000000
       668   14       20.648670758155     127.730524507842     100.000000000000
       669   14       17.698860654528     129.433598163870     100.000000000000
       670   14       20.648670758155     131.136671830819     100.000000000000
       671   14       17.698860654528     132.839745486846     100.000000000000
       672   14       20.648670758155     134.542819153795     100.000000000000
       673   13       12.782510467254     137.948966465849     100.000000000000
       674   13       15.732320581803     136.245892809822     100.000000000000
       675   13       12.782510467254     141.355113788825     100.000000000000
       676   13       15.732320581803     139.652040132798     100.000000000000
       677   13       12.782510467254     144.761261111801     100.000000000000
       678   13       15.732320581803     143.058187444852     100.000000000000
       679   13       12.782510467254     148.167408434778     100.000000000000
       680   13       15.732320581803     146.464334767829     100.000000000000
       681   13       18.682130685430     137.948966465849     100.000000000000
       682   13       21.631940799978     136.245892809822     100.000000000000
       683   13       18.682130685430     141.355113788825     100.000000000000
       684   13       21.631940799978     139.652040132798     100.000000000000
       685   13       18.682130685430     144.761261111801     100.000000000000
       686   13       21.631940799978     143.058187444852     100.000000000000
       687   13       18.682130685430     148.167408434778     100.000000000000
       688   13       21.631940799978     146.464334767829     100.000000000000
       689   14       11.799240436352     136.245892809822     100.000000000000
       690   14       14.749050539979     137.948966465849     100.000000000000
       691   14       11.799240436352     139.652040132798     100.000000000000
       692   14       14.749050539979     141.355113788825     100.000000000000
       693   14       11.799240436352     143.058187444852     100.000000000000
       694   14       14.749050539979     144.761261111801     100.000000000000
       695   14       11.799240436352     146.464334767829     100.000000000000
       696   14       14.749050539979     148.167408434778     100.000000000000
       697   14       17.698860654528     136.245892809822     100.000000000000
       698   14       20.648670758155     137.948966465849     100.000000000000
       699   14       17.698860654528     139.652040132798     100.000000000000
       700   14       20.648670758155     141.355113788825     100.000000000000
       701   14       17.698860654528     143.058187444852     100.000000000000
       702   14       20.648670758155     144.761261111801     100.000000000000
       703   14       17.698860654528     146.464334767829     100.000000000000
       704   14       20.648670758155     148.167408434778     100.000000000000
       705   13       24.581750903605       1.703073656027     100.000000000000
       706   13       27.531561018154       0.000000000000     100.000000000000
       707   13       24.581750903605       5.109220979003     100.000000000000
       708   13       27.531561018154       3.406147322976     100.000000000000
       709   13       24.581750903605       8.515368301979     100.000000000000
       710   13       27.531561018154       6.812294635030     100.000000000000
       711   13       24.581750903605      11.921515624956     100.000000000000
       712   13       27.531561018154      10.218441958007     100.000000000000
       713   13       30.481371121782       1.703073656027     100.000000000000
       714   13       33.431181236330       0.000000000000     100.000000000000
       715   13       30.481371121782       5.109220979003     100.000000000000
       716   13       33.431181236330       3.406147322976     100.000000000000
       717   13       30.481371121782       8.515368301979     100.000000000000
       718   13       33.431181236330       6.812294635030     100.000000000000
       719   13       30.481371121782      11.921515624956     100.000000000000
       720   13       33.431181236330      10.218441958007     100.000000000000
       721   14       23.598480872703       0.000000000000     100.000000000000
       722   14       26.548290976331       1.703073656027     100.000000000000
       723   14       23.598480872703       3.406147322976     100.000000000000
       724   14       26.548290976331       5.109220979003     100.000000000000
       725   14       23.598480872703       6.812294635030     100.000000000000
       726   14       26.548290976331       8.515368301979     100.000000000000
       727   14       23.598480872703      10.218441958007     100.000000000000
       728   14       26.548290976331      11.921515624956     100.000000000000
       729   14       29.498101090880       0.000000000000     100.000000000000
       730   14       32.447911194507       1.703073656027     100.000000000000
       731   14       29.498101090880       3.406147322976     100.000000000000
       732   14       32.447911194507       5.109220979003     100.000000000000
       733   14       29.498101090880       6.812294635030     100.000000000000
       734   14       32.447911194507       8.515368301979     100.000000000000
       735   14       29.498101090880      10.218441958007     100.000000000000
       736   14       32.447911194507      11.921515624956     100.000000000000
       737   13       24.581750903605      15.327662937010     100.000000000000
       738   13       27.531561018154      13.624589280982     100.000000000000
       739   13       24.581750903605      18.733810259985     100.000000000000
       740   13       27.531561018154      17.030736603959     100.000000000000
       741   13       24.581750903605      22.139957582962     100.000000000000
       742   13       27.531561018154      20.436883916012     100.000000000000
       743   13       24.581750903605      25.546104905938     100.000000000000
       744   13       27.531561018154      23.843031238989     100.000000000000
       745   13       30.481371121782      15.327662937010     100.000000000000
       746   13       33.431181236330      13.624589280982     100.000000000000
       747   13       30.481371121782      18.733810259985     100.000000000000
       748   13       33.431181236330      17.030736603959     100.000000000000
       749   13       30.481371121782      22.139957582962     100.000000000000
       750   13       33.431181236330      20.436883916012     100.000000000000
       751   13       30.481371121782      25.546104905938     100.000000000000
       752   13       33.431181236330      23.843031238989     100.000000000000
       753   14       23.598480872703      13.624589280982     100.000000000000
       754   14       26.548290976331      15.327662937010     100.000000000000
       755   14       23.598480872703      17.030736603959     100.000000000000
       756   14       26.548290976331      18.733810259985     100.000000000000
       757   14       23.598480872703      20.436883916012     100.000000000000
       758   14       26.548290976331      22.139957582962     100.000000000000
       759   14       23.598480872703      23.843031238989     100.000000000000
       760   14       26.548290976331      25.546104905938     100.000000000000
       761   14       29.498101090880      13.624589280982     100.000000000000
       762   14       32.447911194507      15.327662937010     100.000000000000
       763   14       29.498101090880      17.030736603959     100.000000000000
       764   14       32.447911194507      18.733810259985     100.000000000000
       765   14       29.498101090880      20.436883916012     100.000000000000
       766   14       32.447911194507      22.139957582962     100.000000000000
       767   14       29.498101090880      23.843031238989     100.000000000000
       768   14       32.447911194507      25.546104905938     100.000000000000
       769   13       24.581750903605      28.952252217992     100.000000000000
       770   13       27.531561018154      27.249178561964     100.000000000000
       771   13       24.581750903605      32.358399540967     100.000000000000
       772   13       27.531561018154      30.655325884941     100.000000000000
       773   13       24.581750903605      35.764546863944     100.000000000000
       774   13       27.531561018154      34.061473196995     100.000000000000
       775   13       24.581750903605      39.170694186920     100.000000000000
       776   13       27.531561018154      37.467620519971     100.000000000000
       777   13       30.481371121782      28.952252217992     100.000000000000
       778   13       33.431181236330      27.249178561964     100.000000000000
       779   13       30.481371121782      32.358399540967     100.000000000000
       780   13       33.431181236330      30.655325884941     100.000000000000
       781   13       30.481371121782      35.764546863944     100.000000000000
       782   13       33.431181236330      34.061473196995     100.000000000000
       783   13       30.481371121782      39.170694186920     100.000000000000
       784   13       33.431181236330      37.467620519971     100.000000000000
       785   14       23.598480872703      27.249178561964     100.000000000000
       786   14       26.548290976331      28.952252217992     100.000000000000
       787   14       23.598480872703      30.655325884941     100.000000000000
       788   14       26.548290976331      32.358399540967     100.000000000000
       789   14       23.598480872703      34.061473196995     100.000000000000
       790   14       26.548290976331      35.764546863944     100.000000000000
       791   14       23.598480872703      37.467620519971     100.000000000000
       792   14       26.548290976331      39.170694186920     100.000000000000
       793   14       29.498101090880      27.249178561964     100.000000000000
       794   14       32.447911194507      28.952252217992     100.000000000000
       795   14       29.498101090880      30.655325884941     100.000000000000
       796   14       32.447911194507      32.358399540967     100.000000000000
       797   14       29.498101090880      34.061473196995     100.000000000000
       798   14       32.447911194507      35.764546863944     100.000000000000
       799   14       29.498101090880      37.467620519971     100.000000000000
       800   14       32.447911194507      39.170694186920     100.000000000000
       801   13       24.581750903605      42.576841498974     100.000000000000
       802   13       27.531561018154      40.873767842947     100.000000000000
       803   13       24.581750903605      45.982988821949     100.000000000000
       804   13       27.531561018154      44.279915165923     100.000000000000
       805   13       24.581750903605      49.389136144926     100.000000000000
       806   13       27.531561018154      47.686062477977     100.000000000000
       807   13       24.581750903605      52.795283467902     100.000000000000
       808   13       27.531561018154      51.092209800953     100.000000000000
       809   13       30.481371121782      42.576841498974     100.000000000000
       810   13       33.431181236330      40.873767842947     100.000000000000
       811   13       30.481371121782      45.982988821949     100.000000000000
       812   13       33.431181236330      44.279915165923     100.000000000000
       813   13       30.481371121782      49.389136144926     100.000000000000
       814   13       33.431181236330      47.686062477977     100.000000000000
       815   13       30.481371121782      52.795283467902     100.000000000000
       816   13       33.431181236330      51.092209800953     100.000000000000
       817   14       23.598480872703      40.873767842947     100.000000000000
       818   14       26.548290976331      42.576841498974     100.000000000000
       819   14       23.598480872703      44.279915165923     100.000000000000
       820   14       26.548290976331      45.982988821949     100.000000000000
       821   14       23.598480872703      47.686062477977     100.000000000000
       822   14       26.548290976331      49.389136144926     100.000000000000
       823   14       23.598480872703      51.092209800953     100.000000000000
       824   14       26.548290976331      52.795283467902     100.000000000000
       825   14       29.498101090880      40.873767842947     100.000000000000
       826   14       32.447911194507      42.576841498974     100.000000000000
       827   14       29.498101090880      44.279915165923     100.000000000000
       828   14       32.447911194507      45.982988821949     100.000000000000
       829   14       29.498101090880      47.686062477977     100.000000000000
       830   14       32.447911194507      49.389136144926     100.000000000000
       831   14       29.498101090880      51.092209800953     100.000000000000
       832   14       32.447911194507      52.795283467902     100.000000000000
       833   13       24.581750903605      56.201430779956     100.000000000000
       834   13       27.531561018154      54.498357123929     100.000000000000
       835   13       24.581750903605      59.607578102932     100.000000000000
       836   13       27.531561018154      57.904504446905     100.000000000000
       837   13       24.581750903605      63.013725425908     100.000000000000
       838   13       27.531561018154      61.310651758959     100.000000000000
       839   13       24.581750903605      66.419872748885     100.000000000000
       840   13       27.531561018154      64.716799081935     100.000000000000
       841   13       30.481371121782      56.201430779956     100.000000000000
       842   13       33.431181236330      54.498357123929     100.000000000000
       843   13       30.481371121782      59.607578102932     100.000000000000
       844   13       33.431181236330      57.904504446905     100.000000000000
       845   13       30.481371121782      63.013725425908     100.000000000000
       846   13       33.431181236330      61.310651758959     100.000000000000
       847   13       30.481371121782      66.419872748885     100.000000000000
       848   13       33.431181236330      64.716799081935     100.000000000000
       849   14       23.598480872703      54.498357123929     100.000000000000
       850   14       26.548290976331      56.201430779956     100.000000000000
       851   14       23.598480872703      57.904504446905     100.000000000000
       852   14       26.548290976331      59.607578102932     100.000000000000
       853   14       23.598480872703      61.310651758959     100.000000000000
       854   14       26.548290976331      63.013725425908     100.000000000000
       855   14       23.598480872703      64.716799081935     100.000000000000
       856   14       26.548290976331      66.419872748885     100.000000000000
       857   14       29.498101090880      54.498357123929     100.000000000000
       858   14       32.447911194507      56.201430779956     100.000000000000
       859   14       29.498101090880      57.904504446905     100.000000000000
       860   14       32.447911194507      59.607578102932     100.000000000000
       861   14       29.498101090880      61.310651758959     100.000000000000
       862   14       32.447911194507      63.013725425908     100.000000000000
       863   14       29.498101090880      64.716799081935     100.000000000000
       864   14       32.447911194507      66.419872748885     100.000000000000
       865   13       24.581750903605      69.826020060938     100.000000000000
       866   13       27.531561018154      68.122946404911     100.000000000000
       867   13       24.581750903605      73.232167383914     100.000000000000
       868   13       27.531561018154      71.529093727887     100.000000000000
       869   13       24.581750903605      76.638314706890     100.000000000000
       870   13       27.531561018154      74.935241039941     100.000000000000
       871   13       24.581750903605      80.044462029867     100.000000000000
       872   13       27.531561018154      78.341388362918     100.000000000000
       873   13       30.481371121782      69.826020060938     100.000000000000
       874   13       33.431181236330      68.122946404911     100.000000000000
       875   13       30.481371121782      73.232167383914     100.000000000000
       876   13       33.431181236330      71.529093727887     100.000000000000
       877   13       30.481371121782      76.638314706890     100.000000000000
       878   13       33.431181236330      74.935241039941     100.000000000000
       879   13       30.481371121782      80.044462029867     100.000000000000
       880   13       33.431181236330      78.341388362918     100.000000000000
       881   14       23.598480872703      68.122946404911     100.000000000000
       882   14       26.548290976331      69.826020060938     100.000000000000
       883   14       23.598480872703      71.529093727887     100.000000000000
       884   14       26.548290976331      73.232167383914     100.000000000000
       885   14       23.598480872703      74.935241039941     100.000000000000
       886   14       26.548290976331      76.638314706890     100.000000000000
       887   14       23.598480872703      78.341388362918     100.000000000000
       888   14       26.548290976331      80.044462029867     100.000000000000
       889   14       29.498101090880      68.122946404911     100.000000000000
       890   14       32.447911194507      69.826020060938     100.000000000000
       891   14       29.498101090880      71.529093727887     100.000000000000
       892   14       32.447911194507      73.232167383914     100.000000000000
       893   14       29.498101090880      74.935241039941     100.000000000000
       894   14       32.447911194507      76.638314706890     100.000000000000
       895   14       29.498101090880      78.341388362918     100.000000000000
       896   14       32.447911194507      80.044462029867     100.000000000000
       897   13       24.581750903605      83.450609341920     100.000000000000
       898   13       27.531561018154      81.747535685893     100.000000000000
       899   13       24.581750903605      86.856756664896     100.000000000000
       900   13       27.531561018154      85.153683008870     100.000000000000
       901   13       24.581750903605      90.262903987872     100.000000000000
       902   13       27.531561018154      88.559830320923     100.000000000000
       903   13       24.581750903605      93.669051310849     100.000000000000
       904   13       27.531561018154      91.965977643900     100.000000000000
       905   13       30.481371121782      83.450609341920     100.000000000000
       906   13       33.431181236330      81.747535685893     100.000000000000
       907   13       30.481371121782      86.856756664896     100.000000000000
       908   13       33.431181236330      85.153683008870     100.000000000000
       909   13       30.481371121782      90.262903987872     100.000000000000
       910   13       33.431181236330      88.559830320923     100.000000000000
       911   13       30.481371121782      93.669051310849     100.000000000000
       912   13       33.431181236330      91.965977643900     100.000000000000
       913   14       23.598480872703      81.747535685893     100.000000000000
       914   14       26.548290976331      83.450609341920     100.000000000000
       915   14       23.598480872703      85.153683008870     100.000000000000
       916   14       26.548290976331      86.856756664896     100.000000000000
       917   14       23.598480872703      88.559830320923     100.000000000000
       918   14       26.548290976331      90.262903987872     100.000000000000
       919   14       23.598480872703      91.965977643900     100.000000000000
       920   14       26.548290976331      93.669051310849     100.000000000000
       921   14       29.498101090880      81.747535685893     100.000000000000
       922   14       32.447911194507      83.450609341920     100.000000000000
       923   14       29.498101090880      85.153683008870     100.000000000000
       924   14       32.447911194507      86.856756664896     100.000000000000
       925   14       29.498101090880      88.559830320923     100.000000000000
       926   14       32.447911194507      90.262903987872     100.000000000000
       927   14       29.498101090880      91.965977643900     100.000000000000
       928   14       32.447911194507      93.669051310849     100.000000000000
       929   13       24.581750903605      97.075198622903     100.000000000000
       930   13       27.531561018154      95.372124966875     100.000000000000
       931   13       24.581750903605     100.481345945878     100.000000000000
       932   13       27.531561018154      98.778272289852     100.000000000000
       933   13       24.581750903605     103.887493268855     100.000000000000
       934   13       27.531561018154     102.184419601906     100.000000000000
       935   13       24.581750903605     107.293640591831     100.000000000000
       936   13       27.531561018154     105.590566924882     100.000000000000
       937   13       30.481371121782      97.075198622903     100.000000000000
       938   13       33.431181236330      95.372124966875     100.000000000000
       939   13       30.481371121782     100.481345945878     100.000000000000
       940   13       33.431181236330      98.778272289852     100.000000000000
       941   13       30.481371121782     103.887493268855     100.000000000000
       942   13       33.431181236330     102.184419601906     100.000000000000
       943   13       30.481371121782     107.293640591831     100.000000000000
       944   13       33.431181236330     105.590566924882     100.000000000000
       945   14       23.598480872703      95.372124966875     100.000000000000
       946   14       26.548290976331      97.075198622903     100.000000000000
       947   14       23.598480872703      98.778272289852     100.000000000000
       948   14       26.548290976331     100.481345945878     100.000000000000
       949   14       23.598480872703     102.184419601906     100.000000000000
       950   14       26.548290976331     103.887493268855     100.000000000000
       951   14       23.598480872703     105.590566924882     100.000000000000
       952   14       26.548290976331     107.293640591831     100.000000000000
       953   14       29.498101090880      95.372124966875     100.000000000000
       954   14       32.447911194507      97.075198622903     100.000000000000
       955   14       29.498101090880      98.778272289852     100.000000000000
       956   14       32.447911194507     100.481345945878     100.000000000000
       957   14       29.498101090880     102.184419601906     100.000000000000
       958   14       32.447911194507     103.887493268855     100.000000000000
       959   14       29.498101090880     105.590566924882     100.000000000000
       960   14       32.447911194507     107.293640591831     100.000000000000
       961   13       24.581750903605     110.699787903885     100.000000000000
       962   13       27.531561018154     108.996714247857     100.000000000000
       963   13       24.581750903605     114.105935226860     100.000000000000
       964   13       27.531561018154     112.402861570834     100.000000000000
       965   13       24.581750903605     117.512082549837     100.000000000000
       966   13       27.531561018154     115.809008882888     100.000000000000
       967   13       24.581750903605     120.918229872813     100.000000000000
       968   13       27.531561018154     119.215156205864     100.000000000000
       969   13       30.481371121782     110.699787903885     100.000000000000
       970   13       33.431181236330     108.996714247857     100.000000000000
       971   13       30.481371121782     114.105935226860     100.000000000000
       972   13       33.431181236330     112.402861570834     100.000000000000
       973   13       30.481371121782     117.512082549837     100.000000000000
       974   13       33.431181236330     115.809008882888     100.000000000000
       975   13       30.481371121782     120.918229872813     100.000000000000
       976   13       33.431181236330     119.215156205864     100.000000000000
       977   14       23.598480872703     108.996714247857     100.000000000000
       978   14       26.548290976331     110.699787903885     100.000000000000
       979   14       23.598480872703     112.402861570834     100.000000000000
       980   14       26.548290976331     114.105935226860     100.000000000000
       981   14       23.598480872703     115.809008882888     100.000000000000
       982   14       26.548290976331     117.512082549837     100.000000000000
       983   14       23.598480872703     119.215156205864     100.000000000000
       984   14       26.548290976331     120.918229872813     100.000000000000
       985   14       29.498101090880     108.996714247857     100.000000000000
       986   14       32.447911194507     110.699787903885     100.000000000000
       987   14       29.498101090880     112.402861570834     100.000000000000
       988   14       32.447911194507     114.105935226860     100.000000000000
       989   14       29.498101090880     115.809008882888     100.000000000000
       990   14       32.447911194507     117.512082549837     100.000000000000
       991   14       29.498101090880     119.215156205864     100.000000000000
       992   14       32.447911194507     120.918229872813     100.000000000000
       993   13       24.581750903605     124.324377184867     100.000000000000
       994   13       27.531561018154     122.621303528840     100.000000000000
       995   13       24.581750903605     127.730524507842     100.000000000000
       996   13       27.531561018154     126.027450851816     100.000000000000
       997   13       24.581750903605     131.136671830819     100.000000000000
       998   13       27.531561018154     129.433598163870     100.000000000000
       999   13       24.581750903605     134.542819153795     100.000000000000
      1000   13       27.531561018154     132.839745486846     100.000000000000
      1001   13       30.481371121782     124.324377184867     100.000000000000
      1002   13       33.431181236330     122.621303528840     100.000000000000
      1003   13       30.481371121782     127.730524507842     100.000000000000
      1004   13       33.431181236330     126.027450851816     100.000000000000
      1005   13       30.481371121782     131.136671830819     100.000000000000
      1006   13       33.431181236330     129.433598163870     100.000000000000
      1007   13       30.481371121782     134.542819153795     100.000000000000
      1008   13       33.431181236330     132.839745486846     100.000000000000
      1009   14       23.598480872703     122.621303528840     100.000000000000
      1010   14       26.548290976331     124.324377184867     100.000000000000
      1011   14       23.598480872703     126.027450851816     100.000000000000
      1012   14       26.548290976331     127.730524507842     100.000000000000
      1013   14       23.598480872703     129.433598163870     100.000000000000
      1014   14       26.548290976331     131.136671830819     100.000000000000
      1015   14       23.598480872703     132.839745486846     100.000000000000
      1016   14       26.548290976331     134.542819153795     100.000000000000
      1017   14       29.498101090880     122.621303528840     100.000000000000
      1018   14       32.447911194507     124.324377184867     100.000000000000
      1019   14       29.498101090880     126.027450851816     100.000000000000
      1020   14       32.447911194507     127.730524507842     100.000000000000
      1021   14       29.498101090880     129.433598163870     100.000000000000
      1022   14       32.447911194507     131.136671830819     100.000000000000
      1023   14       29.498101090880     132.839745486846     100.000000000000
      1024   14       32.447911194507     134.542819153795     100.000000000000
      1025   13       24.581750903605     137.948966465849     100.000000000000
      1026   13       27.531561018154     136.245892809822     100.000000000000
      1027   13       24.581750903605     141.355113788825     100.000000000000
      1028   13       27.531561018154     139.652040132798     100.000000000000
      1029   13       24.581750903605     144.761261111801     100.000000000000
      1030   13       27.531561018154     143.058187444852     100.000000000000
      1031   13       24.581750903605     148.167408434778     100.000000000000
      1032   13       27.531561018154     146.464334767829     100.000000000000
      1033   13       30.481371121782     137.948966465849     100.000000000000
      1034   13       33.431181236330     136.245892809822     100.000000000000
      1035   13       30.481371121782     141.355113788825     100.000000000000
      1036   13       33.431181236330     139.652040132798     100.000000000000
      1037   13       30.481371121782     144.761261111801     100.000000000000
      1038   13       33.431181236330     143.058187444852     100.000000000000
      1039   13       30.481371121782     148.167408434778     100.000000000000
      1040   13       33.431181236330     146.464334767829     100.000000000000
      1041   14       23.598480872703     136.245892809822     100.000000000000
      1042   14       26.548290976331     137.948966465849     100.000000000000
      1043   14       23.598480872703     139.652040132798     100.000000000000
      1044   14       26.548290976331     141.355113788825     100.000000000000
      1045   14       23.598480872703     143.058187444852     100.000000000000
      1046   14       26.548290976331     144.761261111801     100.000000000000
      1047   14       23.598480872703     146.464334767829     100.000000000000
      1048   14       26.548290976331     148.167408434778     100.000000000000
      1049   14       29.498101090880     136.245892809822     100.000000000000
      1050   14       32.447911194507     137.948966465849     100.000000000000
      1051   14       29.498101090880     139.652040132798     100.000000000000
      1052   14       32.447911194507     141.355113788825     100.000000000000
      1053   14       29.498101090880     143.058187444852     100.000000000000
      1054   14       32.447911194507     144.761261111801     100.000000000000
      1055   14       29.498101090880     146.464334767829     100.000000000000
      1056   14       32.447911194507     148.167408434778     100.000000000000
      1057   13       36.380991339957       1.703073656027     100.000000000000
      1058   13       39.330801454506       0.000000000000     100.000000000000
      1059   13       36.380991339957       5.109220979003     100.000000000000
      1060   13       39.330801454506       3.406147322976     100.000000000000
      1061   13       36.380991339957       8.515368301979     100.000000000000
      1062   13       39.330801454506       6.812294635030     100.000000000000
      1063   13       36.380991339957      11.921515624956     100.000000000000
      1064   13       39.330801454506      10.218441958007     100.000000000000
      1065   13       42.280611558133       1.703073656027     100.000000000000
      1066   13       45.230421672681       0.000000000000     100.000000000000
      1067   13       42.280611558133       5.109220979003     100.000000000000
      1068   13       45.230421672681       3.406147322976     100.000000000000
      1069   13       42.280611558133       8.515368301979     100.000000000000
      1070   13       45.230421672681       6.812294635030     100.000000000000
      1071   13       42.280611558133      11.921515624956     100.000000000000
      1072   13       45.230421672681      10.218441958007     100.000000000000
      1073   14       35.397721309055       0.000000000000     100.000000000000
      1074   14       38.347531412682       1.703073656027     100.000000000000
      1075   14       35.397721309055       3.406147322976     100.000000000000
      1076   14       38.347531412682       5.109220979003     100.000000000000
      1077   14       35.397721309055       6.812294635030     100.000000000000
      1078   14       38.347531412682       8.515368301979     100.000000000000
      1079   14       35.397721309055      10.218441958007     100.000000000000
      1080   14       38.347531412682      11.921515624956     100.000000000000
      1081   14       41.297341527231       0.000000000000     100.000000000000
      1082   14       44.247151630859       1.703073656027     100.000000000000
      1083   14       41.297341527231       3.406147322976     100.000000000000
      1084   14       44.247151630859       5.109220979003     100.000000000000
      1085   14       41.297341527231       6.812294635030     100.000000000000
      1086   14       44.247151630859       8.515368301979     100.000000000000
      1087   14       41.297341527231      10.218441958007     100.000000000000
      1088   14       44.247151630859      11.921515624956     100.000000000000
      1089   13       36.380991339957      15.327662937010     100.000000000000
      1090   13       39.330801454506      13.624589280982     100.000000000000
      1091   13       36.380991339957      18.733810259985     100.000000000000
      1092   13       39.330801454506      17.030736603959     100.000000000000
      1093   13       36.380991339957      22.139957582962     100.000000000000
      1094   13       39.330801454506      20.436883916012     100.000000000000
      1095   13       36.380991339957      25.546104905938     100.000000000000
      1096   13       39.330801454506      23.843031238989     100.000000000000
      1097   13       42.280611558133      15.327662937010     100.000000000000
      1098   13       45.230421672681      13.624589280982     100.000000000000
      1099   13       42.280611558133      18.733810259985     100.000000000000
      1100   13       45.230421672681      17.030736603959     100.000000000000
      1101   13       42.280611558133      22.139957582962     100.000000000000
      1102   13       45.230421672681      20.436883916012     100.000000000000
      1103   13       42.280611558133      25.546104905938     100.000000000000
      1104   13       45.230421672681      23.843031238989     100.000000000000
      1105   14       35.397721309055      13.624589280982     100.000000000000
      1106   14       38.347531412682      15.327662937010     100.000000000000
      1107   14       35.397721309055      17.030736603959     100.000000000000
      1108   14       38.347531412682      18.733810259985     100.000000000000
      1109   14       35.397721309055      20.436883916012     100.000000000000
      1110   14       38.347531412682      22.139957582962     100.000000000000
      1111   14       35.397721309055      23.843031238989     100.000000000000
      1112   14       38.347531412682      25.546104905938     100.000000000000
      1113   14       41.297341527231      13.624589280982     100.000000000000
      1114   14       44.247151630859      15.327662937010     100.000000000000
      1115   14       41.297341527231      17.030736603959     100.000000000000
      1116   14       44.247151630859      18.733810259985     100.000000000000
      1117   14       41.297341527231      20.436883916012     100.000000000000
      1118   14       44.247151630859      22.139957582962     100.000000000000
      1119   14       41.297341527231      23.843031238989     100.000000000000
      1120   14       44.247151630859      25.546104905938     100.000000000000
      1121   13       36.380991339957      28.952252217992     100.000000000000
      1122   13       39.330801454506      27.249178561964     100.000000000000
      1123   13       36.380991339957      32.358399540967     100.000000000000
      1124   13       39.330801454506      30.655325884941     100.000000000000
      1125   13       36.380991339957      35.764546863944     100.000000000000
      1126   13       39.330801454506      34.061473196995     100.000000000000
      1127   13       36.380991339957      39.170694186920     100.000000000000
      1128   13       39.330801454506      37.467620519971     100.000000000000
      1129   13       42.280611558133      28.952252217992     100.000000000000
      1130   13       45.230421672681      27.249178561964     100.000000000000
      1131   13       42.280611558133      32.358399540967     100.000000000000
      1132   13       45.230421672681      30.655325884941     100.000000000000
      1133   13       42.280611558133      35.764546863944     100.000000000000
      1134   13       45.230421672681      34.061473196995     100.000000000000
      1135   13       42.280611558133      39.170694186920     100.000000000000
      1136   13       45.230421672681      37.467620519971     100.000000000000
      1137   14       35.397721309055      27.249178561964     100.000000000000
      1138   14       38.347531412682      28.952252217992     100.000000000000
      1139   14       35.397721309055      30.655325884941     100.000000000000
      1140   14       38.347531412682      32.358399540967     100.000000000000
      1141   14       35.397721309055      34.061473196995     100.000000000000
      1142   14       38.347531412682      35.764546863944     100.000000000000
      1143   14       35.397721309055      37.467620519971     100.000000000000
      1144   14       38.347531412682      39.170694186920     100.000000000000
      1145   14       41.297341527231      27.249178561964     100.000000000000
      1146   14       44.247151630859      28.952252217992     100.000000000000
      1147   14       41.297341527231      30.655325884941     100.000000000000
      1148   14       44.247151630859      32.358399540967     100.000000000000
      1149   14       41.297341527231      34.061473196995     100.000000000000
      1150   14       44.247151630859      35.764546863944     100.000000000000
      1151   14       41.297341527231      37.467620519971     100.000000000000
      1152   14       44.247151630859      39.170694186920     100.000000000000
      1153   13       36.380991339957      42.576841498974     100.000000000000
      1154   13       39.330801454506      40.873767842947     100.000000000000
      1155   13       36.380991339957      45.982988821949     100.000000000000
      1156   13       39.330801454506      44.279915165923     100.000000000000
      1157   13       36.380991339957      49.389136144926     100.000000000000
      1158   13       39.330801454506      47.686062477977     100.000000000000
      1159   13       36.380991339957      52.795283467902     100.000000000000
      1160   13       39.330801454506      51.092209800953     100.000000000000
      1161   13       42.280611558133      42.576841498974     100.000000000000
      1162   13       45.230421672681      40.873767842947     100.000000000000
      1163   13       42.280611558133      45.982988821949     100.000000000000
      1164   13       45.230421672681      44.279915165923     100.000000000000
      1165   13       42.280611558133      49.389136144926     100.000000000000
      1166   13       45.230421672681      47.686062477977     100.000000000000
      1167   13       42.280611558133      52.795283467902     100.000000000000
      1168   13       45.230421672681      51.092209800953     100.000000000000
      1169   14       35.397721309055      40.873767842947     100.000000000000
      1170   14       38.347531412682      42.576841498974     100.000000000000
      1171   14       35.397721309055      44.279915165923     100.000000000000
      1172   14       38.347531412682      45.982988821949     100.000000000000
      1173   14       35.397721309055      47.686062477977     100.000000000000
      1174   14       38.347531412682      49.389136144926     100.000000000000
      1175   14       35.397721309055      51.092209800953     100.000000000000
      1176   14       38.347531412682      52.795283467902     100.000000000000
      1177   14       41.297341527231      40.873767842947     100.000000000000
      1178   14       44.247151630859      42.576841498974     100.000000000000
      1179   14       41.297341527231      44.279915165923     100.000000000000
      1180   14       44.247151630859      45.982988821949     100.000000000000
      1181   14       41.297341527231      47.686062477977     100.000000000000
      1182   14       44.247151630859      49.389136144926     100.000000000000
      1183   14       41.297341527231      51.092209800953     100.000000000000
      1184   14       44.247151630859      52.795283467902     100.000000000000
      1185   13       36.380991339957      56.201430779956     100.000000000000
      1186   13       39.330801454506      54.498357123929     100.000000000000
      1187   13       36.380991339957      59.607578102932     100.000000000000
      1188   13       39.330801454506      57.904504446905     100.000000000000
      1189   13       36.380991339957      63.013725425908     100.000000000000
      1190   13       39.330801454506      61.310651758959     100.000000000000
      1191   13       36.380991339957      66.419872748885     100.000000000000
      1192   13       39.330801454506      64.716799081935     100.000000000000
      1193   13       42.280611558133      56.201430779956     100.000000000000
      1194   13       45.230421672681      54.498357123929     100.000000000000
      1195   13       42.280611558133      59.607578102932     100.000000000000
      1196   13       45.230421672681      57.904504446905     100.000000000000
      1197   13       42.280611558133      63.013725425908     100.000000000000
      1198   13       45.230421672681      61.310651758959     100.000000000000
      1199   13       42.280611558133      66.419872748885     100.000000000000
      1200   13       45.230421672681      64.716799081935     100.000000000000
      1201   14       35.397721309055      54.498357123929     100.000000000000
      1202   14       38.347531412682      56.201430779956     100.000000000000
      1203   14       35.397721309055      57.904504446905     100.000000000000
      1204   14       38.347531412682      59.607578102932     100.000000000000
      1205   14       35.397721309055      61.310651758959     100.000000000000
      1206   14       38.347531412682      63.013725425908     100.000000000000
      1207   14       35.397721309055      64.716799081935     100.000000000000
      1208   14       38.347531412682      66.419872748885     100.000000000000
      1209   14       41.297341527231      54.498357123929     100.000000000000
      1210   14       44.247151630859      56.201430779956     100.000000000000
      1211   14       41.297341527231      57.904504446905     100.000000000000
      1212   14       44.247151630859      59.607578102932     100.000000000000
      1213   14       41.297341527231      61.310651758959     100.000000000000
      1214   14       44.247151630859      63.013725425908     100.000000000000
      1215   14       41.297341527231      64.716799081935     100.000000000000
      1216   14       44.247151630859      66.419872748885     100.000000000000
      1217   13       36.380991339957      69.826020060938     100.000000000000
      1218   13       39.330801454506      68.122946404911     100.000000000000
      1219   13       36.380991339957      73.232167383914     100.000000000000
      1220   13       39.330801454506      71.529093727887     100.000000000000
      1221   13       36.380991339957      76.638314706890     100.000000000000
      1222   13       39.330801454506      74.935241039941     100.000000000000
      1223   13       36.380991339957      80.044462029867     100.000000000000
      1224   13       39.330801454506      78.341388362918     100.000000000000
      1225   13       42.280611558133      69.826020060938     100.000000000000
      1226   13       45.230421672681      68.122946404911     100.000000000000
      1227   13       42.280611558133      73.232167383914     100.000000000000
      1228   13       45.230421672681      71.529093727887     100.000000000000
      1229   13       42.280611558133      76.638314706890     100.000000000000
      1230   13       45.230421672681      74.935241039941     100.000000000000
      1231   13       42.280611558133      80.044462029867     100.000000000000
      1232   13       45.230421672681      78.341388362918     100.000000000000
      1233   14       35.397721309055      68.122946404911     100.000000000000
      1234   14       38.347531412682      69.826020060938     100.000000000000
      1235   14       35.397721309055      71.529093727887     100.000000000000
      1236   14       38.347531412682      73.232167383914     100.000000000000
      1237   14       35.397721309055      74.935241039941     100.000000000000
      1238   14       38.347531412682      76.638314706890     100.000000000000
      1239   14       35.397721309055      78.341388362918     100.000000000000
      1240   14       38.347531412682      80.044462029867     100.000000000000
      1241   14       41.297341527231      68.122946404911     100.000000000000
      1242   14       44.247151630859      69.826020060938     100.000000000000
      1243   14       41.297341527231      71.529093727887     100.000000000000
      1244   14       44.247151630859      73.232167383914     100.000000000000
      1245   14       41.297341527231      74.935241039941     100.000000000000
      1246   14       44.247151630859      76.638314706890     100.000000000000
      1247   14       41.297341527231      78.341388362918     100.000000000000
      1248   14       44.247151630859      80.044462029867     100.000000000000
      1249   13       36.380991339957      83.450609341920     100.000000000000
      1250   13       39.330801454506      81.747535685893     100.000000000000
      1251   13       36.380991339957      86.856756664896     100.000000000000
      1252   13       39.330801454506      85.153683008870     100.000000000000
      1253   13       36.380991339957      90.262903987872     100.000000000000
      1254   13       39.330801454506      88.559830320923     100.000000000000
      1255   13       36.380991339957      93.669051310849     100.000000000000
      1256   13       39.330801454506      91.965977643900     100.000000000000
      1257   13       42.280611558133      83.450609341920     100.000000000000
      1258   13       45.230421672681      81.747535685893     100.000000000000
      1259   13       42.280611558133      86.856756664896     100.000000000000
      1260   13       45.230421672681      85.153683008870     100.000000000000
      1261   13       42.280611558133      90.262903987872     100.000000000000
      1262   13       45.230421672681      88.559830320923     100.000000000000
      1263   13       42.280611558133      93.669051310849     100.000000000000
      1264   13       45.230421672681      91.965977643900     100.000000000000
      1265   14       35.397721309055      81.747535685893     100.000000000000
      1266   14       38.347531412682      83.450609341920     100.000000000000
      1267   14       35.397721309055      85.153683008870     100.000000000000
      1268   14       38.347531412682      86.856756664896     100.000000000000
      1269   14       35.397721309055      88.559830320923     100.000000000000
      1270   14       38.347531412682      90.262903987872     100.000000000000
      1271   14       35.397721309055      91.965977643900     100.000000000000
      1272   14       38.347531412682      93.669051310849     100.000000000000
      1273   14       41.297341527231      81.747535685893     100.000000000000
      1274   14       44.247151630859      83.450609341920     100.000000000000
      1275   14       41.297341527231      85.153683008870     100.000000000000
      1276   14       44.247151630859      86.856756664896     100.000000000000
      1277   14       41.297341527231      88.559830320923     100.000000000000
      1278   14       44.247151630859      90.262903987872     100.000000000000
      1279   14       41.297341527231      91.965977643900     100.000000000000
      1280   14       44.247151630859      93.669051310849     100.000000000000
      1281   13       36.380991339957      97.075198622903     100.000000000000
      1282   13       39.330801454506      95.372124966875     100.000000000000
      1283   13       36.380991339957     100.481345945878     100.000000000000
      1284   13       39.330801454506      98.778272289852     100.000000000000
      1285   13       36.380991339957     103.887493268855     100.000000000000
      1286   13       39.330801454506     102.184419601906     100.000000000000
      1287   13       36.380991339957     107.293640591831     100.000000000000
      1288   13       39.330801454506     105.590566924882     100.000000000000
      1289   13       42.280611558133      97.075198622903     100.000000000000
      1290   13       45.230421672681      95.372124966875     100.000000000000
      1291   13       42.280611558133     100.481345945878     100.000000000000
      1292   13       45.230421672681      98.778272289852     100.000000000000
      1293   13       42.280611558133     103.887493268855     100.000000000000
      1294   13       45.230421672681     102.184419601906     100.000000000000
      1295   13       42.280611558133     107.293640591831     100.000000000000
      1296   13       45.230421672681     105.590566924882     100.000000000000
      1297   14       35.397721309055      95.372124966875     100.000000000000
      1298   14       38.347531412682      97.075198622903     100.000000000000
      1299   14       35.397721309055      98.778272289852     100.000000000000
      1300   14       38.347531412682     100.481345945878     100.000000000000
      1301   14       35.397721309055     102.184419601906     100.000000000000
      1302   14       38.347531412682     103.887493268855     100.000000000000
      1303   14       35.397721309055     105.590566924882     100.000000000000
      1304   14       38.347531412682     107.293640591831     100.000000000000
      1305   14       41.297341527231      95.372124966875     100.000000000000
      1306   14       44.247151630859      97.075198622903     100.000000000000
      1307   14       41.297341527231      98.778272289852     100.000000000000
      1308   14       44.247151630859     100.481345945878     100.000000000000
      1309   14       41.297341527231     102.184419601906     100.000000000000
      1310   14       44.247151630859     103.887493268855     100.000000000000
      1311   14       41.297341527231     105.590566924882     100.000000000000
      1312   14       44.247151630859     107.293640591831     100.000000000000
      1313   13       36.380991339957     110.699787903885     100.000000000000
      1314   13       39.330801454506     108.996714247857     100.000000000000
      1315   13       36.380991339957     114.105935226860     100.000000000000
      1316   13       39.330801454506     112.402861570834     100.000000000000
      1317   13       36.380991339957     117.512082549837     100.000000000000
      1318   13       39.330801454506     115.809008882888     100.000000000000
      1319   13       36.380991339957     120.918229872813     100.000000000000
      1320   13       39.330801454506     119.215156205864     100.000000000000
      1321   13       42.280611558133     110.699787903885     100.000000000000
      1322   13       45.230421672681     108.996714247857     100.000000000000
      1323   13       42.280611558133     114.105935226860     100.000000000000
      1324   13       45.230421672681     112.402861570834     100.000000000000
      1325   13       42.280611558133     117.512082549837     100.000000000000
      1326   13       45.230421672681     115.809008882888     100.000000000000
      1327   13       42.280611558133     120.918229872813     100.000000000000
      1328   13       45.230421672681     119.215156205864     100.000000000000
      1329   14       35.397721309055     108.996714247857     100.000000000000
      1330   14       38.347531412682     110.699787903885     100.000000000000
      1331   14       35.397721309055     112.402861570834     100.000000000000
      1332   14       38.347531412682     114.105935226860     100.000000000000
      1333   14       35.397721309055     115.809008882888     100.000000000000
      1334   14       38.347531412682     117.512082549837     100.000000000000
      1335   14       35.397721309055     119.215156205864     100.000000000000
      1336   14       38.347531412682     120.918229872813     100.000000000000
      1337   14       41.297341527231     108.996714247857     100.000000000000
      1338   14       44.247151630859     110.699787903885     100.000000000000
      1339   14       41.297341527231     112.402861570834     100.000000000000
      1340   14       44.247151630859     114.105935226860     100.000000000000
      1341   14       41.297341527231     115.809008882888     100.000000000000
      1342   14       44.247151630859     117.512082549837     100.000000000000
      1343   14       41.297341527231     119.215156205864     100.000000000000
      1344   14       44.247151630859     120.918229872813     100.000000000000
      1345   13       36.380991339957     124.324377184867     100.000000000000
      1346   13       39.330801454506     122.621303528840     100.000000000000
      1347   13       36.380991339957     127.730524507842     100.000000000000
      1348   13       39.330801454506     126.027450851816     100.000000000000
      1349   13       36.380991339957     131.136671830819     100.000000000000
      1350   13       39.330801454506     129.433598163870     100.000000000000
      1351   13       36.380991339957     134.542819153795     100.000000000000
      1352   13       39.330801454506     132.839745486846     100.000000000000
      1353   13       42.280611558133     124.324377184867     100.000000000000
      1354   13       45.230421672681     122.621303528840     100.000000000000
      1355   13       42.280611558133     127.730524507842     100.000000000000
      1356   13       45.230421672681     126.027450851816     100.000000000000
      1357   13       42.280611558133     131.136671830819     100.000000000000
      1358   13       45.230421672681     129.433598163870     100.000000000000
      1359   13       42.280611558133     134.542819153795     100.000000000000
      1360   13       45.230421672681     132.839745486846     100.000000000000
      1361   14       35.397721309055     122.621303528840     100.000000000000
      1362   14       38.347531412682     124.324377184867     100.000000000000
      1363   14       35.397721309055     126.027450851816     100.000000000000
      1364   14       38.347531412682     127.730524507842     100.000000000000
      1365   14       35.397721309055     129.433598163870     100.000000000000
      1366   14       38.347531412682     131.136671830819     100.000000000000
      1367   14       35.397721309055     132.839745486846     100.000000000000
      1368   14       38.347531412682     134.542819153795     100.000000000000
      1369   14       41.297341527231     122.621303528840     100.000000000000
      1370   14       44.247151630859     124.324377184867     100.000000000000
      1371   14       41.297341527231     126.027450851816     100.000000000000
      1372   14       44.247151630859     127.730524507842     100.000000000000
      1373   14       41.297341527231     129.433598163870     100.000000000000
      1374   14       44.247151630859     131.136671830819     100.000000000000
      1375   14       41.297341527231     132.839745486846     100.000000000000
      1376   14       44.247151630859     134.542819153795     100.000000000000
      1377   13       36.380991339957     137.948966465849     100.000000000000
      1378   13       39.330801454506     136.245892809822     100.000000000000
      1379   13       36.380991339957     141.355113788825     100.000000000000
      1380   13       39.330801454506     139.652040132798     100.000000000000
      1381   13       36.380991339957     144.761261111801     100.000000000000
      1382   13       39.330801454506     143.058187444852     100.000000000000
      1383   13       36.380991339957     148.167408434778     100.000000000000
      1384   13       39.330801454506     146.464334767829     100.000000000000
      1385   13       42.280611558133     137.948966465849     100.000000000000
      1386   13       45.230421672681     136.245892809822     100.000000000000
      1387   13       42.280611558133     141.355113788825     100.000000000000
      1388   13       45.230421672681     139.652040132798     100.000000000000
      1389   13       42.280611558133     144.761261111801     100.000000000000
      1390   13       45.230421672681     143.058187444852     100.000000000000
      1391   13       42.280611558133     148.167408434778     100.000000000000
      1392   13       45.230421672681     146.464334767829     100.000000000000
      1393   14       35.397721309055     136.245892809822     100.000000000000
      1394   14       38.347531412682     137.948966465849     100.000000000000
      1395   14       35.397721309055     139.652040132798     100.000000000000
      1396   14       38.347531412682     141.355113788825     100.000000000000
      1397   14       35.397721309055     143.058187444852     100.000000000000
      1398   14       38.347531412682     144.761261111801     100.000000000000
      1399   14       35.397721309055     146.464334767829     100.000000000000
      1400   14       38.347531412682     148.167408434778     100.000000000000
      1401   14       41.297341527231     136.245892809822     100.000000000000
      1402   14       44.247151630859     137.948966465849     100.000000000000
      1403   14       41.297341527231     139.652040132798     100.000000000000
      1404   14       44.247151630859     141.355113788825     100.000000000000
      1405   14       41.297341527231     143.058187444852     100.000000000000
      1406   14       44.247151630859     144.761261111801     100.000000000000
      1407   14       41.297341527231     146.464334767829     100.000000000000
      1408   14       44.247151630859     148.167408434778     100.000000000000
      1409   13       48.180231776309       1.703073656027     100.000000000000
      1410   13       51.130041890858       0.000000000000     100.000000000000
      1411   13       48.180231776309       5.109220979003     100.000000000000
      1412   13       51.130041890858       3.406147322976     100.000000000000
      1413   13       48.180231776309       8.515368301979     100.000000000000
      1414   13       51.130041890858       6.812294635030     100.000000000000
      1415   13       48.180231776309      11.921515624956     100.000000000000
      1416   13       51.130041890858      10.218441958007     100.000000000000
      1417   13       54.079851994485       1.703073656027     100.000000000000
      1418   13       57.029662109033       0.000000000000     100.000000000000
      1419   13       54.079851994485       5.109220979003     100.000000000000
      1420   13       57.029662109033       3.406147322976     100.000000000000
      1421   13       54.079851994485       8.515368301979     100.000000000000
      1422   13       57.029662109033       6.812294635030     100.000000000000
      1423   13       54.079851994485      11.921515624956     100.000000000000
      1424   13       57.029662109033      10.218441958007     100.000000000000
      1425   14       47.196961745407       0.000000000000     100.000000000000
      1426   14       50.146771849034       1.703073656027     100.000000000000
      1427   14       47.196961745407       3.406147322976     100.000000000000
      1428   14       50.146771849034       5.109220979003     100.000000000000
      1429   14       47.196961745407       6.812294635030     100.000000000000
      1430   14       50.146771849034       8.515368301979     100.000000000000
      1431   14       47.196961745407      10.218441958007     100.000000000000
      1432   14       50.146771849034      11.921515624956     100.000000000000
      1433   14       53.096581963583       0.000000000000     100.000000000000
      1434   14       56.046392067210       1.703073656027     100.000000000000
      1435   14       53.096581963583       3.406147322976     100.000000000000
      1436   14       56.046392067210       5.109220979003     100.000000000000
      1437   14       53.096581963583       6.812294635030     100.000000000000
      1438   14       56.046392067210       8.515368301979     100.000000000000
      1439   14       53.096581963583      10.218441958007     100.000000000000
      1440   14       56.046392067210      11.921515624956     100.000000000000
      1441   13       48.180231776309      15.327662937010     100.000000000000
      1442   13       51.130041890858      13.624589280982     100.000000000000
      1443   13       48.180231776309      18.733810259985     100.000000000000
      1444   13       51.130041890858      17.030736603959     100.000000000000
      1445   13       48.180231776309      22.139957582962     100.000000000000
      1446   13       51.130041890858      20.436883916012     100.000000000000
      1447   13       48.180231776309      25.546104905938     100.000000000000
      1448   13       51.130041890858      23.843031238989     100.000000000000
      1449   13       54.079851994485      15.327662937010     100.000000000000
      1450   13       57.029662109033      13.624589280982     100.000000000000
      1451   13       54.079851994485      18.733810259985     100.000000000000
      1452   13       57.029662109033      17.030736603959     100.000000000000
      1453   13       54.079851994485      22.139957582962     100.000000000000
      1454   13       57.029662109033      20.436883916012     100.000000000000
      1455   13       54.079851994485      25.546104905938     100.000000000000
      1456   13       57.029662109033      23.843031238989     100.000000000000
      1457   14       47.196961745407      13.624589280982     100.000000000000
      1458   14       50.146771849034      15.327662937010     100.000000000000
      1459   14       47.196961745407      17.030736603959     100.000000000000
      1460   14       50.146771849034      18.733810259985     100.000000000000
      1461   14       47.196961745407      20.436883916012     100.000000000000
      1462   14       50.146771849034      22.139957582962     100.000000000000
      1463   14       47.196961745407      23.843031238989     100.000000000000
      1464   14       50.146771849034      25.546104905938     100.000000000000
      1465   14       53.096581963583      13.624589280982     100.000000000000
      1466   14       56.046392067210      15.327662937010     100.000000000000
      1467   14       53.096581963583      17.030736603959     100.000000000000
      1468   14       56.046392067210      18.733810259985     100.000000000000
      1469   14       53.096581963583      20.436883916012     100.000000000000
      1470   14       56.046392067210      22.139957582962     100.000000000000
      1471   14       53.096581963583      23.843031238989     100.000000000000
      1472   14       56.046392067210      25.546104905938     100.000000000000
      1473   13       48.180231776309      28.952252217992     100.000000000000
      1474   13       51.130041890858      27.249178561964     100.000000000000
      1475   13       48.180231776309      32.358399540967     100.000000000000
      1476   13       51.130041890858      30.655325884941     100.000000000000
      1477   13       48.180231776309      35.764546863944     100.000000000000
      1478   13       51.130041890858      34.061473196995     100.000000000000
      1479   13       48.180231776309      39.170694186920     100.000000000000
      1480   13       51.130041890858      37.467620519971     100.000000000000
      1481   13       54.079851994485      28.952252217992     100.000000000000
      1482   13       57.029662109033      27.249178561964     100.000000000000
      1483   13       54.079851994485      32.358399540967     100.000000000000
      1484   13       57.029662109033      30.655325884941     100.000000000000
      1485   13       54.079851994485      35.764546863944     100.000000000000
      1486   13       57.029662109033      34.061473196995     100.000000000000
      1487   13       54.079851994485      39.170694186920     100.000000000000
      1488   13       57.029662109033      37.467620519971     100.000000000000
      1489   14       47.196961745407      27.249178561964     100.000000000000
      1490   14       50.146771849034      28.952252217992     100.000000000000
      1491   14       47.196961745407      30.655325884941     100.000000000000
      1492   14       50.146771849034      32.358399540967     100.000000000000
      1493   14       47.196961745407      34.061473196995     100.000000000000
      1494   14       50.146771849034      35.764546863944     100.000000000000
      1495   14       47.196961745407      37.467620519971     100.000000000000
      1496   14       50.146771849034      39.170694186920     100.000000000000
      1497   14       53.096581963583      27.249178561964     100.000000000000
      1498   14       56.046392067210      28.952252217992     100.000000000000
      1499   14       53.096581963583      30.655325884941     100.000000000000
      1500   14       56.046392067210      32.358399540967     100.000000000000
      1501   14       53.096581963583      34.061473196995     100.000000000000
      1502   14       56.046392067210      35.764546863944     100.000000000000
      1503   14       53.096581963583      37.467620519971     100.000000000000
      1504   14       56.046392067210      39.170694186920     100.000000000000
      1505   13       48.180231776309      42.576841498974     100.000000000000
      1506   13       51.130041890858      40.873767842947     100.000000000000
      1507   13       48.180231776309      45.982988821949     100.000000000000
      1508   13       51.130041890858      44.279915165923     100.000000000000
      1509   13       48.180231776309      49.389136144926     100.000000000000
      1510   13       51.130041890858      47.686062477977     100.000000000000
      1511   13       48.180231776309      52.795283467902     100.000000000000
      1512   13       51.130041890858      51.092209800953     100.000000000000
      1513   13       54.079851994485      42.576841498974     100.000000000000
      1514   13       57.029662109033      40.873767842947     100.000000000000
      1515   13       54.079851994485      45.982988821949     100.000000000000
      1516   13       57.029662109033      44.279915165923     100.000000000000
      1517   13       54.079851994485      49.389136144926     100.000000000000
      1518   13       57.029662109033      47.686062477977     100.000000000000
      1519   13       54.079851994485      52.795283467902     100.000000000000
      1520   13       57.029662109033      51.092209800953     100.000000000000
      1521   14       47.196961745407      40.873767842947     100.000000000000
      1522   14       50.146771849034      42.576841498974     100.000000000000
      1523   14       47.196961745407      44.279915165923     100.000000000000
      1524   14       50.146771849034      45.982988821949     100.000000000000
      1525   14       47.196961745407      47.686062477977     100.000000000000
      1526   14       50.146771849034      49.389136144926     100.000000000000
      1527   14       47.196961745407      51.092209800953     100.000000000000
      1528   14       50.146771849034      52.795283467902     100.000000000000
      1529   14       53.096581963583      40.873767842947     100.000000000000
      1530   14       56.046392067210      42.576841498974     100.000000000000
      1531   14       53.096581963583      44.279915165923     100.000000000000
      1532   14       56.046392067210      45.982988821949     100.000000000000
      1533   14       53.096581963583      47.686062477977     100.000000000000
      1534   14       56.046392067210      49.389136144926     100.000000000000
      1535   14       53.096581963583      51.092209800953     100.000000000000
      1536   14       56.046392067210      52.795283467902     100.000000000000
      1537   13       48.180231776309      56.201430779956     100.000000000000
      1538   13       51.130041890858      54.498357123929     100.000000000000
      1539   13       48.180231776309      59.607578102932     100.000000000000
      1540   13       51.130041890858      57.904504446905     100.000000000000
      1541   13       48.180231776309      63.013725425908     100.000000000000
      1542   13       51.130041890858      61.310651758959     100.000000000000
      1543   13       48.180231776309      66.419872748885     100.000000000000
      1544   13       51.130041890858      64.716799081935     100.000000000000
      1545   13       54.079851994485      56.201430779956     100.000000000000
      1546   13       57.029662109033      54.498357123929     100.000000000000
      1547   13       54.079851994485      59.607578102932     100.000000000000
      1548   13       57.029662109033      57.904504446905     100.000000000000
      1549   13       54.079851994485      63.013725425908     100.000000000000
      1550   13       57.029662109033      61.310651758959     100.000000000000
      1551   13       54.079851994485      66.419872748885     100.000000000000
      1552   13       57.029662109033      64.716799081935     100.000000000000
      1553   14       47.196961745407      54.498357123929     100.000000000000
      1554   14       50.146771849034      56.201430779956     100.000000000000
      1555   14       47.196961745407      57.904504446905     100.000000000000
      1556   14       50.146771849034      59.607578102932     100.000000000000
      1557   14       47.196961745407      61.310651758959     100.000000000000
      1558   14       50.146771849034      63.013725425908     100.000000000000
      1559   14       47.196961745407      64.716799081935     100.000000000000
      1560   14       50.146771849034      66.419872748885     100.000000000000
      1561   14       53.096581963583      54.498357123929     100.000000000000
      1562   14       56.046392067210      56.201430779956     100.000000000000
      1563   14       53.096581963583      57.904504446905     100.000000000000
      1564   14       56.046392067210      59.607578102932     100.000000000000
      1565   14       53.096581963583      61.310651758959     100.000000000000
      1566   14       56.046392067210      63.013725425908     100.000000000000
      1567   14       53.096581963583      64.716799081935     100.000000000000
      1568   14       56.046392067210      66.419872748885     100.000000000000
      1569   13       48.180231776309      69.826020060938     100.000000000000
      1570   13       51.130041890858      68.122946404911     100.000000000000
      1571   13       48.180231776309      73.232167383914     100.000000000000
      1572   13       51.130041890858      71.529093727887     100.000000000000
      1573   13       48.180231776309      76.638314706890     100.000000000000
      1574   13       51.130041890858      74.935241039941     100.000000000000
      1575   13       48.180231776309      80.044462029867     100.000000000000
      1576   13       51.130041890858      78.341388362918     100.000000000000
      1577   13       54.079851994485      69.826020060938     100.000000000000
      1578   13       57.029662109033      68.122946404911     100.000000000000
      1579   13       54.079851994485      73.232167383914     100.000000000000
      1580   13       57.029662109033      71.529093727887     100.000000000000
      1581   13       54.079851994485      76.638314706890     100.000000000000
      1582   13       57.029662109033      74.935241039941     100.000000000000
      1583   13       54.079851994485      80.044462029867     100.000000000000
      1584   13       57.029662109033      78.341388362918     100.000000000000
      1585   14       47.196961745407      68.122946404911     100.000000000000
      1586   14       50.146771849034      69.826020060938     100.000000000000
      1587   14       47.196961745407      71.529093727887     100.000000000000
      1588   14       50.146771849034      73.232167383914     100.000000000000
      1589   14       47.196961745407      74.935241039941     100.000000000000
      1590   14       50.146771849034      76.638314706890     100.000000000000
      1591   14       47.196961745407      78.341388362918     100.000000000000
      1592   14       50.146771849034      80.044462029867     100.000000000000
      1593   14       53.096581963583      68.122946404911     100.000000000000
      1594   14       56.046392067210      69.826020060938     100.000000000000
      1595   14       53.096581963583      71.529093727887     100.000000000000
      1596   14       56.046392067210      73.232167383914     100.000000000000
      1597   14       53.096581963583      74.935241039941     100.000000000000
      1598   14       56.046392067210      76.638314706890     100.000000000000
      1599   14       53.096581963583      78.341388362918     100.000000000000
      1600   14       56.046392067210      80.044462029867     100.000000000000
      1601   13       48.180231776309      83.450609341920     100.000000000000
      1602   13       51.130041890858      81.747535685893     100.000000000000
      1603   13       48.180231776309      86.856756664896     100.000000000000
      1604   13       51.130041890858      85.153683008870     100.000000000000
      1605   13       48.180231776309      90.262903987872     100.000000000000
      1606   13       51.130041890858      88.559830320923     100.000000000000
      1607   13       48.180231776309      93.669051310849     100.000000000000
      1608   13       51.130041890858      91.965977643900     100.000000000000
      1609   13       54.079851994485      83.450609341920     100.000000000000
      1610   13       57.029662109033      81.747535685893     100.000000000000
      1611   13       54.079851994485      86.856756664896     100.000000000000
      1612   13       57.029662109033      85.153683008870     100.000000000000
      1613   13       54.079851994485      90.262903987872     100.000000000000
      1614   13       57.029662109033      88.559830320923     100.000000000000
      1615   13       54.079851994485      93.669051310849     100.000000000000
      1616   13       57.029662109033      91.965977643900     100.000000000000
      1617   14       47.196961745407      81.747535685893     100.000000000000
      1618   14       50.146771849034      83.450609341920     100.000000000000
      1619   14       47.196961745407      85.153683008870     100.000000000000
      1620   14       50.146771849034      86.856756664896     100.000000000000
      1621   14       47.196961745407      88.559830320923     100.000000000000
      1622   14       50.146771849034      90.262903987872     100.000000000000
      1623   14       47.196961745407      91.965977643900     100.000000000000
      1624   14       50.146771849034      93.669051310849     100.000000000000
      1625   14       53.096581963583      81.747535685893     100.000000000000
      1626   14       56.046392067210      83.450609341920     100.000000000000
      1627   14       53.096581963583      85.153683008870     100.000000000000
      1628   14       56.046392067210      86.856756664896     100.000000000000
      1629   14       53.096581963583      88.559830320923     100.000000000000
      1630   14       56.046392067210      90.262903987872     100.000000000000
      1631   14       53.096581963583      91.965977643900     100.000000000000
      1632   14       56.046392067210      93.669051310849     100.000000000000
      1633   13       48.180231776309      97.075198622903     100.000000000000
      1634   13       51.130041890858      95.372124966875     100.000000000000
      1635   13       48.180231776309     100.481345945878     100.000000000000
      1636   13       51.130041890858      98.778272289852     100.000000000000
      1637   13       48.180231776309     103.887493268855     100.000000000000
      1638   13       51.130041890858     102.184419601906     100.000000000000
      1639   13       48.180231776309     107.293640591831     100.000000000000
      1640   13       51.130041890858     105.590566924882     100.000000000000
      1641   13       54.079851994485      97.075198622903     100.000000000000
      1642   13       57.029662109033      95.372124966875     100.000000000000
      1643   13       54.079851994485     100.481345945878     100.000000000000
      1644   13       57.029662109033      98.778272289852     100.000000000000
      1645   13       54.079851994485     103.887493268855     100.000000000000
      1646   13       57.029662109033     102.184419601906     100.000000000000
      1647   13       54.079851994485     107.293640591831     100.000000000000
      1648   13       57.029662109033     105.590566924882     100.000000000000
      1649   14       47.196961745407      95.372124966875     100.000000000000
      1650   14       50.146771849034      97.075198622903     100.000000000000
      1651   14       47.196961745407      98.778272289852     100.000000000000
      1652   14       50.146771849034     100.481345945878     100.000000000000
      1653   14       47.196961745407     102.184419601906     100.000000000000
      1654   14       50.146771849034     103.887493268855     100.000000000000
      1655   14       47.196961745407     105.590566924882     100.000000000000
      1656   14       50.146771849034     107.293640591831     100.000000000000
      1657   14       53.096581963583      95.372124966875     100.000000000000
      1658   14       56.046392067210      97.075198622903     100.000000000000
      1659   14       53.096581963583      98.778272289852     100.000000000000
      1660   14       56.046392067210     100.481345945878     100.000000000000
      1661   14       53.096581963583     102.184419601906     100.000000000000
      1662   14       56.046392067210     103.887493268855     100.000000000000
      1663   14       53.096581963583     105.590566924882     100.000000000000
      1664   14       56.046392067210     107.293640591831     100.000000000000
      1665   13       48.180231776309     110.699787903885     100.000000000000
      1666   13       51.130041890858     108.996714247857     100.000000000000
      1667   13       48.180231776309     114.105935226860     100.000000000000
      1668   13       51.130041890858     112.402861570834     100.000000000000
      1669   13       48.180231776309     117.512082549837     100.000000000000
      1670   13       51.130041890858     115.809008882888     100.000000000000
      1671   13       48.180231776309     120.918229872813     100.000000000000
      1672   13       51.130041890858     119.215156205864     100.000000000000
      1673   13       54.079851994485     110.699787903885     100.000000000000
      1674   13       57.029662109033     108.996714247857     100.000000000000
      1675   13       54.079851994485     114.105935226860     100.000000000000
      1676   13       57.029662109033     112.402861570834     100.000000000000
      1677   13       54.079851994485     117.512082549837     100.000000000000
      1678   13       57.029662109033     115.809008882888     100.000000000000
      1679   13       54.079851994485     120.918229872813     100.000000000000
      1680   13       57.029662109033     119.215156205864     100.000000000000
      1681   14       47.196961745407     108.996714247857     100.000000000000
      1682   14       50.146771849034     110.699787903885     100.000000000000
      1683   14       47.196961745407     112.402861570834     100.000000000000
      1684   14       50.146771849034     114.105935226860     100.000000000000
      1685   14       47.196961745407     115.809008882888     100.000000000000
      1686   14       50.146771849034     117.512082549837     100.000000000000
      1687   14       47.196961745407     119.215156205864     100.000000000000
      1688   14       50.146771849034     120.918229872813     100.000000000000
      1689   14       53.096581963583     108.996714247857     100.000000000000
      1690   14       56.046392067210     110.699787903885     100.000000000000
      1691   14       53.096581963583     112.402861570834     100.000000000000
      1692   14       56.046392067210     114.105935226860     100.000000000000
      1693   14       53.096581963583     115.809008882888     100.000000000000
      1694   14       56.046392067210     117.512082549837     100.000000000000
      1695   14       53.096581963583     119.215156205864     100.000000000000
      1696   14       56.046392067210     120.918229872813     100.000000000000
      1697   13       48.180231776309     124.324377184867     100.000000000000
      1698   13       51.130041890858     122.621303528840     100.000000000000
      1699   13       48.180231776309     127.730524507842     100.000000000000
      1700   13       51.130041890858     126.027450851816     100.000000000000
      1701   13       48.180231776309     131.136671830819     100.000000000000
      1702   13       51.130041890858     129.433598163870     100.000000000000
      1703   13       48.180231776309     134.542819153795     100.000000000000
      1704   13       51.130041890858     132.839745486846     100.000000000000
      1705   13       54.079851994485     124.324377184867     100.000000000000
      1706   13       57.029662109033     122.621303528840     100.000000000000
      1707   13       54.079851994485     127.730524507842     100.000000000000
      1708   13       57.029662109033     126.027450851816     100.000000000000
      1709   13       54.079851994485     131.136671830819     100.000000000000
      1710   13       57.029662109033     129.433598163870     100.000000000000
      1711   13       54.079851994485     134.542819153795     100.000000000000
      1712   13       57.029662109033     132.839745486846     100.000000000000
      1713   14       47.196961745407     122.621303528840     100.000000000000
      1714   14       50.146771849034     124.324377184867     100.000000000000
      1715   14       47.196961745407     126.027450851816     100.000000000000
      1716   14       50.146771849034     127.730524507842     100.000000000000
      1717   14       47.196961745407     129.433598163870     100.000000000000
      1718   14       50.146771849034     131.136671830819     100.000000000000
      1719   14       47.196961745407     132.839745486846     100.000000000000
      1720   14       50.146771849034     134.542819153795     100.000000000000
      1721   14       53.096581963583     122.621303528840     100.000000000000
      1722   14       56.046392067210     124.324377184867     100.000000000000
      1723   14       53.096581963583     126.027450851816     100.000000000000
      1724   14       56.046392067210     127.730524507842     100.000000000000
      1725   14       53.096581963583     129.433598163870     100.000000000000
      1726   14       56.046392067210     131.136671830819     100.000000000000
      1727   14       53.096581963583     132.839745486846     100.000000000000
      1728   14       56.046392067210     134.542819153795     100.000000000000
      1729   13       48.180231776309     137.948966465849     100.000000000000
      1730   13       51.130041890858     136.245892809822     100.000000000000
      1731   13       48.180231776309     141.355113788825     100.000000000000
      1732   13       51.130041890858     139.652040132798     100.000000000000
      1733   13       48.180231776309     144.761261111801     100.000000000000
      1734   13       51.130041890858     143.058187444852     100.000000000000
      1735   13       48.180231776309     148.167408434778     100.000000000000
      1736   13       51.130041890858     146.464334767829     100.000000000000
      1737   13       54.079851994485     137.948966465849     100.000000000000
      1738   13       57.029662109033     136.245892809822     100.000000000000
      1739   13       54.079851994485     141.355113788825     100.000000000000
      1740   13       57.029662109033     139.652040132798     100.000000000000
      1741   13       54.079851994485     144.761261111801     100.000000000000
      1742   13       57.029662109033     143.058187444852     100.000000000000
      1743   13       54.079851994485     148.167408434778     100.000000000000
      1744   13       57.029662109033     146.464334767829     100.000000000000
      1745   14       47.196961745407     136.245892809822     100.000000000000
      1746   14       50.146771849034     137.948966465849     100.000000000000
      1747   14       47.196961745407     139.652040132798     100.000000000000
      1748   14       50.146771849034     141.355113788825     100.000000000000
      1749   14       47.196961745407     143.058187444852     100.000000000000
      1750   14       50.146771849034     144.761261111801     100.000000000000
      1751   14       47.196961745407     146.464334767829     100.000000000000
      1752   14       50.146771849034     148.167408434778     100.000000000000
      1753   14       53.096581963583     136.245892809822     100.000000000000
      1754   14       56.046392067210     137.948966465849     100.000000000000
      1755   14       53.096581963583     139.652040132798     100.000000000000
      1756   14       56.046392067210     141.355113788825     100.000000000000
      1757   14       53.096581963583     143.058187444852     100.000000000000
      1758   14       56.046392067210     144.761261111801     100.000000000000
      1759   14       53.096581963583     146.464334767829     100.000000000000
      1760   14       56.046392067210     148.167408434778     100.000000000000
      1761   13       59.979472212660       1.703073656027     100.000000000000
      1762   13       62.929282327209       0.000000000000     100.000000000000
      1763   13       59.979472212660       5.109220979003     100.000000000000
      1764   13       62.929282327209       3.406147322976     100.000000000000
      1765   13       59.979472212660       8.515368301979     100.000000000000
      1766   13       62.929282327209       6.812294635030     100.000000000000
      1767   13       59.979472212660      11.921515624956     100.000000000000
      1768   13       62.929282327209      10.218441958007     100.000000000000
      1769   13       65.879092430837       1.703073656027     100.000000000000
      1770   13       68.828902545385       0.000000000000     100.000000000000
      1771   13       65.879092430837       5.109220979003     100.000000000000
      1772   13       68.828902545385       3.406147322976     100.000000000000
      1773   13       65.879092430837       8.515368301979     100.000000000000
      1774   13       68.828902545385       6.812294635030     100.000000000000
      1775   13       65.879092430837      11.921515624956     100.000000000000
      1776   13       68.828902545385      10.218441958007     100.000000000000
      1777   14       58.996202181758       0.000000000000     100.000000000000
      1778   14       61.946012285386       1.703073656027     100.000000000000
      1779   14       58.996202181758       3.406147322976     100.000000000000
      1780   14       61.946012285386       5.109220979003     100.000000000000
      1781   14       58.996202181758       6.812294635030     100.000000000000
      1782   14       61.946012285386       8.515368301979     100.000000000000
      1783   14       58.996202181758      10.218441958007     100.000000000000
      1784   14       61.946012285386      11.921515624956     100.000000000000
      1785   14       64.895822399935       0.000000000000     100.000000000000
      1786   14       67.845632503562       1.703073656027     100.000000000000
      1787   14       64.895822399935       3.406147322976     100.000000000000
      1788   14       67.845632503562       5.109220979003     100.000000000000
      1789   14       64.895822399935       6.812294635030     100.000000000000
      1790   14       67.845632503562       8.515368301979     100.000000000000
      1791   14       64.895822399935      10.218441958007     100.000000000000
      1792   14       67.845632503562      11.921515624956     100.000000000000
      1793   13       59.979472212660      15.327662937010     100.000000000000
      1794   13       62.929282327209      13.624589280982     100.000000000000
      1795   13       59.979472212660      18.733810259985     100.000000000000
      1796   13       62.929282327209      17.030736603959     100.000000000000
      1797   13       59.979472212660      22.139957582962     100.000000000000
      1798   13       62.929282327209      20.436883916012     100.000000000000
      1799   13       59.979472212660      25.546104905938     100.000000000000
      1800   13       62.929282327209      23.843031238989     100.000000000000
      1801   13       65.879092430837      15.327662937010     100.000000000000
      1802   13       68.828902545385      13.624589280982     100.000000000000
      1803   13       65.879092430837      18.733810259985     100.000000000000
      1804   13       68.828902545385      17.030736603959     100.000000000000
      1805   13       65.879092430837      22.139957582962     100.000000000000
      1806   13       68.828902545385      20.436883916012     100.000000000000
      1807   13       65.879092430837      25.546104905938     100.000000000000
      1808   13       68.828902545385      23.843031238989     100.000000000000
      1809   14       58.996202181758      13.624589280982     100.000000000000
      1810   14       61.946012285386      15.327662937010     100.000000000000
      1811   14       58.996202181758      17.030736603959     100.000000000000
      1812   14       61.946012285386      18.733810259985     100.000000000000
      1813   14       58.996202181758      20.436883916012     100.000000000000
      1814   14       61.946012285386      22.139957582962     100.000000000000
      1815   14       58.996202181758      23.843031238989     100.000000000000
      1816   14       61.946012285386      25.546104905938     100.000000000000
      1817   14       64.895822399935      13.624589280982     100.000000000000
      1818   14       67.845632503562      15.327662937010     100.000000000000
      1819   14       64.895822399935      17.030736603959     100.000000000000
      1820   14       67.845632503562      18.733810259985     100.000000000000
      1821   14       64.895822399935      20.436883916012     100.000000000000
      1822   14       67.845632503562      22.139957582962     100.000000000000
      1823   14       64.895822399935      23.843031238989     100.000000000000
      1824   14       67.845632503562      25.546104905938     100.000000000000
      1825   13       59.979472212660      28.952252217992     100.000000000000
      1826   13       62.929282327209      27.249178561964     100.000000000000
      1827   13       59.979472212660      32.358399540967     100.000000000000
      1828   13       62.929282327209      30.655325884941     100.000000000000
      1829   13       59.979472212660      35.764546863944     100.000000000000
      1830   13       62.929282327209      34.061473196995     100.000000000000
      1831   13       59.979472212660      39.170694186920     100.000000000000
      1832   13       62.929282327209      37.467620519971     100.000000000000
      1833   13       65.879092430837      28.952252217992     100.000000000000
      1834   13       68.828902545385      27.249178561964     100.000000000000
      1835   13       65.879092430837      32.358399540967     100.000000000000
      1836   13       68.828902545385      30.655325884941     100.000000000000
      1837   13       65.879092430837      35.764546863944     100.000000000000
      1838   13       68.828902545385      34.061473196995     100.000000000000
      1839   13       65.879092430837      39.170694186920     100.000000000000
      1840   13       68.828902545385      37.467620519971     100.000000000000
      1841   14       58.996202181758      27.249178561964     100.000000000000
      1842   14       61.946012285386      28.952252217992     100.000000000000
      1843   14       58.996202181758      30.655325884941     100.000000000000
      1844   14       61.946012285386      32.358399540967     100.000000000000
      1845   14       58.996202181758      34.061473196995     100.000000000000
      1846   14       61.946012285386      35.764546863944     100.000000000000
      1847   14       58.996202181758      37.467620519971     100.000000000000
      1848   14       61.946012285386      39.170694186920     100.000000000000
      1849   14       64.895822399935      27.249178561964     100.000000000000
      1850   14       67.845632503562      28.952252217992     100.000000000000
      1851   14       64.895822399935      30.655325884941     100.000000000000
      1852   14       67.845632503562      32.358399540967     100.000000000000
      1853   14       64.895822399935      34.061473196995     100.000000000000
      1854   14       67.845632503562      35.764546863944     100.000000000000
      1855   14       64.895822399935      37.467620519971     100.000000000000
      1856   14       67.845632503562      39.170694186920     100.000000000000
      1857   13       59.979472212660      42.576841498974     100.000000000000
      1858   13       62.929282327209      40.873767842947     100.000000000000
      1859   13       59.979472212660      45.982988821949     100.000000000000
      1860   13       62.929282327209      44.279915165923     100.000000000000
      1861   13       59.979472212660      49.389136144926     100.000000000000
      1862   13       62.929282327209      47.686062477977     100.000000000000
      1863   13       59.979472212660      52.795283467902     100.000000000000
      1864   13       62.929282327209      51.092209800953     100.000000000000
      1865   13       65.879092430837      42.576841498974     100.000000000000
      1866   13       68.828902545385      40.873767842947     100.000000000000
      1867   13       65.879092430837      45.982988821949     100.000000000000
      1868   13       68.828902545385      44.279915165923     100.000000000000
      1869   13       65.879092430837      49.389136144926     100.000000000000
      1870   13       68.828902545385      47.686062477977     100.000000000000
      1871   13       65.879092430837      52.795283467902     100.000000000000
      1872   13       68.828902545385      51.092209800953     100.000000000000
      1873   14       58.996202181758      40.873767842947     100.000000000000
      1874   14       61.946012285386      42.576841498974     100.000000000000
      1875   14       58.996202181758      44.279915165923     100.000000000000
      1876   14       61.946012285386      45.982988821949     100.000000000000
      1877   14       58.996202181758      47.686062477977     100.000000000000
      1878   14       61.946012285386      49.389136144926     100.000000000000
      1879   14       58.996202181758      51.092209800953     100.000000000000
      1880   14       61.946012285386      52.795283467902     100.000000000000
      1881   14       64.895822399935      40.873767842947     100.000000000000
      1882   14       67.845632503562      42.576841498974     100.000000000000
      1883   14       64.895822399935      44.279915165923     100.000000000000
      1884   14       67.845632503562      45.982988821949     100.000000000000
      1885   14       64.895822399935      47.686062477977     100.000000000000
      1886   14       67.845632503562      49.389136144926     100.000000000000
      1887   14       64.895822399935      51.092209800953     100.000000000000
      1888   14       67.845632503562      52.795283467902     100.000000000000
      1889   13       59.979472212660      56.201430779956     100.000000000000
      1890   13       62.929282327209      54.498357123929     100.000000000000
      1891   13       59.979472212660      59.607578102932     100.000000000000
      1892   13       62.929282327209      57.904504446905     100.000000000000
      1893   13       59.979472212660      63.013725425908     100.000000000000
      1894   13       62.929282327209      61.310651758959     100.000000000000
      1895   13       59.979472212660      66.419872748885     100.000000000000
      1896   13       62.929282327209      64.716799081935     100.000000000000
      1897   13       65.879092430837      56.201430779956     100.000000000000
      1898   13       68.828902545385      54.498357123929     100.000000000000
      1899   13       65.879092430837      59.607578102932     100.000000000000
      1900   13       68.828902545385      57.904504446905     100.000000000000
      1901   13       65.879092430837      63.013725425908     100.000000000000
      1902   13       68.828902545385      61.310651758959     100.000000000000
      1903   13       65.879092430837      66.419872748885     100.000000000000
      1904   13       68.828902545385      64.716799081935     100.000000000000
      1905   14       58.996202181758      54.498357123929     100.000000000000
      1906   14       61.946012285386      56.201430779956     100.000000000000
      1907   14       58.996202181758      57.904504446905     100.000000000000
      1908   14       61.946012285386      59.607578102932     100.000000000000
      1909   14       58.996202181758      61.310651758959     100.000000000000
      1910   14       61.946012285386      63.013725425908     100.000000000000
      1911   14       58.996202181758      64.716799081935     100.000000000000
      1912   14       61.946012285386      66.419872748885     100.000000000000
      1913   14       64.895822399935      54.498357123929     100.000000000000
      1914   14       67.845632503562      56.201430779956     100.000000000000
      1915   14       64.895822399935      57.904504446905     100.000000000000
      1916   14       67.845632503562      59.607578102932     100.000000000000
      1917   14       64.895822399935      61.310651758959     100.000000000000
      1918   14       67.845632503562      63.013725425908     100.000000000000
      1919   14       64.895822399935      64.716799081935     100.000000000000
      1920   14       67.845632503562      66.419872748885     100.000000000000
      1921   13       59.979472212660      69.826020060938     100.000000000000
      1922   13       62.929282327209      68.122946404911     100.000000000000
      1923   13       59.979472212660      73.232167383914     100.000000000000
      1924   13       62.929282327209      71.529093727887     100.000000000000
      1925   13       59.979472212660      76.638314706890     100.000000000000
      1926   13       62.929282327209      74.935241039941     100.000000000000
      1927   13       59.979472212660      80.044462029867     100.000000000000
      1928   13       62.929282327209      78.341388362918     100.000000000000
      1929   13       65.879092430837      69.826020060938     100.000000000000
      1930   13       68.828902545385      68.122946404911     100.000000000000
      1931   13       65.879092430837      73.232167383914     100.000000000000
      1932   13       68.828902545385      71.529093727887     100.000000000000
      1933   13       65.879092430837      76.638314706890     100.000000000000
      1934   13       68.828902545385      74.935241039941     100.000000000000
      1935   13       65.879092430837      80.044462029867     100.000000000000
      1936   13       68.828902545385      78.341388362918     100.000000000000
      1937   14       58.996202181758      68.122946404911     100.000000000000
      1938   14       61.946012285386      69.826020060938     100.000000000000
      1939   14       58.996202181758      71.529093727887     100.000000000000
      1940   14       61.946012285386      73.232167383914     100.000000000000
      1941   14       58.996202181758      74.935241039941     100.000000000000
      1942   14       61.946012285386      76.638314706890     100.000000000000
      1943   14       58.996202181758      78.341388362918     100.000000000000
      1944   14       61.946012285386      80.044462029867     100.000000000000
      1945   14       64.895822399935      68.122946404911     100.000000000000
      1946   14       67.845632503562      69.826020060938     100.000000000000
      1947   14       64.895822399935      71.529093727887     100.000000000000
      1948   14       67.845632503562      73.232167383914     100.000000000000
      1949   14       64.895822399935      74.935241039941     100.000000000000
      1950   14       67.845632503562      76.638314706890     100.000000000000
      1951   14       64.895822399935      78.341388362918     100.000000000000
      1952   14       67.845632503562      80.044462029867     100.000000000000
      1953   13       59.979472212660      83.450609341920     100.000000000000
      1954   13       62.929282327209      81.747535685893     100.000000000000
      1955   13       59.979472212660      86.856756664896     100.000000000000
      1956   13       62.929282327209      85.153683008870     100.000000000000
      1957   13       59.979472212660      90.262903987872     100.000000000000
      1958   13       62.929282327209      88.559830320923     100.000000000000
      1959   13       59.979472212660      93.669051310849     100.000000000000
      1960   13       62.929282327209      91.965977643900     100.000000000000
      1961   13       65.879092430837      83.450609341920     100.000000000000
      1962   13       68.828902545385      81.747535685893     100.000000000000
      1963   13       65.879092430837      86.856756664896     100.000000000000
      1964   13       68.828902545385      85.153683008870     100.000000000000
      1965   13       65.879092430837      90.262903987872     100.000000000000
      1966   13       68.828902545385      88.559830320923     100.000000000000
      1967   13       65.879092430837      93.669051310849     100.000000000000
      1968   13       68.828902545385      91.965977643900     100.000000000000
      1969   14       58.996202181758      81.747535685893     100.000000000000
      1970   14       61.946012285386      83.450609341920     100.000000000000
      1971   14       58.996202181758      85.153683008870     100.000000000000
      1972   14       61.946012285386      86.856756664896     100.000000000000
      1973   14       58.996202181758      88.559830320923     100.000000000000
      1974   14       61.946012285386      90.262903987872     100.000000000000
      1975   14       58.996202181758      91.965977643900     100.000000000000
      1976   14       61.946012285386      93.669051310849     100.000000000000
      1977   14       64.895822399935      81.747535685893     100.000000000000
      1978   14       67.845632503562      83.450609341920     100.000000000000
      1979   14       64.895822399935      85.153683008870     100.000000000000
      1980   14       67.845632503562      86.856756664896     100.000000000000
      1981   14       64.895822399935      88.559830320923     100.000000000000
      1982   14       67.845632503562      90.262903987872     100.000000000000
      1983   14       64.895822399935      91.965977643900     100.000000000000
      1984   14       67.845632503562      93.669051310849     100.000000000000
      1985   13       59.979472212660      97.075198622903     100.000000000000
      1986   13       62.929282327209      95.372124966875     100.000000000000
      1987   13       59.979472212660     100.481345945878     100.000000000000
      1988   13       62.929282327209      98.778272289852     100.000000000000
      1989   13       59.979472212660     103.887493268855     100.000000000000
      1990   13       62.929282327209     102.184419601906     100.000000000000
      1991   13       59.979472212660     107.293640591831     100.000000000000
      1992   13       62.929282327209     105.590566924882     100.000000000000
      1993   13       65.879092430837      97.075198622903     100.000000000000
      1994   13       68.828902545385      95.372124966875     100.000000000000
      1995   13       65.879092430837     100.481345945878     100.000000000000
      1996   13       68.828902545385      98.778272289852     100.000000000000
      1997   13       65.879092430837     103.887493268855     100.000000000000
      1998   13       68.828902545385     102.184419601906     100.000000000000
      1999   13       65.879092430837     107.293640591831     100.000000000000
      2000   13       68.828902545385     105.590566924882     100.000000000000
      2001   14       58.996202181758      95.372124966875     100.000000000000
      2002   14       61.946012285386      97.075198622903     100.000000000000
      2003   14       58.996202181758      98.778272289852     100.000000000000
      2004   14       61.946012285386     100.481345945878     100.000000000000
      2005   14       58.996202181758     102.184419601906     100.000000000000
      2006   14       61.946012285386     103.887493268855     100.000000000000
      2007   14       58.996202181758     105.590566924882     100.000000000000
      2008   14       61.946012285386     107.293640591831     100.000000000000
      2009   14       64.895822399935      95.372124966875     100.000000000000
      2010   14       67.845632503562      97.075198622903     100.000000000000
      2011   14       64.895822399935      98.778272289852     100.000000000000
      2012   14       67.845632503562     100.481345945878     100.000000000000
      2013   14       64.895822399935     102.184419601906     100.000000000000
      2014   14       67.845632503562     103.887493268855     100.000000000000
      2015   14       64.895822399935     105.590566924882     100.000000000000
      2016   14       67.845632503562     107.293640591831     100.000000000000
      2017   13       59.979472212660     110.699787903885     100.000000000000
      2018   13       62.929282327209     108.996714247857     100.000000000000
      2019   13       59.979472212660     114.105935226860     100.000000000000
      2020   13       62.929282327209     112.402861570834     100.000000000000
      2021   13       59.979472212660     117.512082549837     100.000000000000
      2022   13       62.929282327209     115.809008882888     100.000000000000
      2023   13       59.979472212660     120.918229872813     100.000000000000
      2024   13       62.929282327209     119.215156205864     100.000000000000
      2025   13       65.879092430837     110.699787903885     100.000000000000
      2026   13       68.828902545385     108.996714247857     100.000000000000
      2027   13       65.879092430837     114.105935226860     100.000000000000
      2028   13       68.828902545385     112.402861570834     100.000000000000
      2029   13       65.879092430837     117.512082549837     100.000000000000
      2030   13       68.828902545385     115.809008882888     100.000000000000
      2031   13       65.879092430837     120.918229872813     100.000000000000
      2032   13       68.828902545385     119.215156205864     100.000000000000
      2033   14       58.996202181758     108.996714247857     100.000000000000
      2034   14       61.946012285386     110.699787903885     100.000000000000
      2035   14       58.996202181758     112.402861570834     100.000000000000
      2036   14       61.946012285386     114.105935226860     100.000000000000
      2037   14       58.996202181758     115.809008882888     100.000000000000
      2038   14       61.946012285386     117.512082549837     100.000000000000
      2039   14       58.996202181758     119.215156205864     100.000000000000
      2040   14       61.946012285386     120.918229872813     100.000000000000
      2041   14       64.895822399935     108.996714247857     100.000000000000
      2042   14       67.845632503562     110.699787903885     100.000000000000
      2043   14       64.895822399935     112.402861570834     100.000000000000
      2044   14       67.845632503562     114.105935226860     100.000000000000
      2045   14       64.895822399935     115.809008882888     100.000000000000
      2046   14       67.845632503562     117.512082549837     100.000000000000
      2047   14       64.895822399935     119.215156205864     100.000000000000
      2048   14       67.845632503562     120.918229872813     100.000000000000
      2049   13       59.979472212660     124.324377184867     100.000000000000
      2050   13       62.929282327209     122.621303528840     100.000000000000
      2051   13       59.979472212660     127.730524507842     100.000000000000
      2052   13       62.929282327209     126.027450851816     100.000000000000
      2053   13       59.979472212660     131.136671830819     100.000000000000
      2054   13       62.929282327209     129.433598163870     100.000000000000
      2055   13       59.979472212660     134.542819153795     100.000000000000
      2056   13       62.929282327209     132.839745486846     100.000000000000
      2057   13       65.879092430837     124.324377184867     100.000000000000
      2058   13       68.828902545385     122.621303528840     100.000000000000
      2059   13       65.879092430837     127.730524507842     100.000000000000
      2060   13       68.828902545385     126.027450851816     100.000000000000
      2061   13       65.879092430837     131.136671830819     100.000000000000
      2062   13       68.828902545385     129.433598163870     100.000000000000
      2063   13       65.879092430837     134.542819153795     100.000000000000
      2064   13       68.828902545385     132.839745486846     100.000000000000
      2065   14       58.996202181758     122.621303528840     100.000000000000
      2066   14       61.946012285386     124.324377184867     100.000000000000
      2067   14       58.996202181758     126.027450851816     100.000000000000
      2068   14       61.946012285386     127.730524507842     100.000000000000
      2069   14       58.996202181758     129.433598163870     100.000000000000
      2070   14       61.946012285386     131.136671830819     100.000000000000
      2071   14       58.996202181758     132.839745486846     100.000000000000
      2072   14       61.946012285386     134.542819153795     100.000000000000
      2073   14       64.895822399935     122.621303528840     100.000000000000
      2074   14       67.845632503562     124.324377184867     100.000000000000
      2075   14       64.895822399935     126.027450851816     100.000000000000
      2076   14       67.845632503562     127.730524507842     100.000000000000
      2077   14       64.895822399935     129.433598163870     100.000000000000
      2078   14       67.845632503562     131.136671830819     100.000000000000
      2079   14       64.895822399935     132.839745486846     100.000000000000
      2080   14       67.845632503562     134.542819153795     100.000000000000
      2081   13       59.979472212660     137.948966465849     100.000000000000
      2082   13       62.929282327209     136.245892809822     100.000000000000
      2083   13       59.979472212660     141.355113788825     100.000000000000
      2084   13       62.929282327209     139.652040132798     100.000000000000
      2085   13       59.979472212660     144.761261111801     100.000000000000
      2086   13       62.929282327209     143.058187444852     100.000000000000
      2087   13       59.979472212660     148.167408434778     100.000000000000
      2088   13       62.929282327209     146.464334767829     100.000000000000
      2089   13       65.879092430837     137.948966465849     100.000000000000
      2090   13       68.828902545385     136.245892809822     100.000000000000
      2091   13       65.879092430837     141.355113788825     100.000000000000
      2092   13       68.828902545385     139.652040132798     100.000000000000
      2093   13       65.879092430837     144.761261111801     100.000000000000
      2094   13       68.828902545385     143.058187444852     100.000000000000
      2095   13       65.879092430837     148.167408434778     100.000000000000
      2096   13       68.828902545385     146.464334767829     100.000000000000
      2097   14       58.996202181758     136.245892809822     100.000000000000
      2098   14       61.946012285386     137.948966465849     100.000000000000
      2099   14       58.996202181758     139.652040132798     100.000000000000
      2100   14       61.946012285386     141.355113788825     100.000000000000
      2101   14       58.996202181758     143.058187444852     100.000000000000
      2102   14       61.946012285386     144.761261111801     100.000000000000
      2103   14       58.996202181758     146.464334767829     100.000000000000
      2104   14       61.946012285386     148.167408434778     100.000000000000
      2105   14       64.895822399935     136.245892809822     100.000000000000
      2106   14       67.845632503562     137.948966465849     100.000000000000
      2107   14       64.895822399935     139.652040132798     100.000000000000
      2108   14       67.845632503562     141.355113788825     100.000000000000
      2109   14       64.895822399935     143.058187444852     100.000000000000
      2110   14       67.845632503562     144.761261111801     100.000000000000
      2111   14       64.895822399935     146.464334767829     100.000000000000
      2112   14       67.845632503562     148.167408434778     100.000000000000
      2113   13       71.778712649012       1.703073656027     100.000000000000
      2114   13       74.728522763561       0.000000000000     100.000000000000
      2115   13       71.778712649012       5.109220979003     100.000000000000
      2116   13       74.728522763561       3.406147322976     100.000000000000
      2117   13       71.778712649012       8.515368301979     100.000000000000
      2118   13       74.728522763561       6.812294635030     100.000000000000
      2119   13       71.778712649012      11.921515624956     100.000000000000
      2120   13       74.728522763561      10.218441958007     100.000000000000
      2121   13       77.678332867188       1.703073656027     100.000000000000
      2122   13       80.628142981736       0.000000000000     100.000000000000
      2123   13       77.678332867188       5.109220979003     100.000000000000
      2124   13       80.628142981736       3.406147322976     100.000000000000
      2125   13       77.678332867188       8.515368301979     100.000000000000
      2126   13       80.628142981736       6.812294635030     100.000000000000
      2127   13       77.678332867188      11.921515624956     100.000000000000
      2128   13       80.628142981736      10.218441958007     100.000000000000
      2129   14       70.795442618110       0.000000000000     100.000000000000
      2130   14       73.745252721737       1.703073656027     100.000000000000
      2131   14       70.795442618110       3.406147322976     100.000000000000
      2132   14       73.745252721737       5.109220979003     100.000000000000
      2133   14       70.795442618110       6.812294635030     100.000000000000
      2134   14       73.745252721737       8.515368301979     100.000000000000
      2135   14       70.795442618110      10.218441958007     100.000000000000
      2136   14       73.745252721737      11.921515624956     100.000000000000
      2137   14       76.695062836286       0.000000000000     100.000000000000
      2138   14       79.644872939914       1.703073656027     100.000000000000
      2139   14       76.695062836286       3.406147322976     100.000000000000
      2140   14       79.644872939914       5.109220979003     100.000000000000
      2141   14       76.695062836286       6.812294635030     100.000000000000
      2142   14       79.644872939914       8.515368301979     100.000000000000
      2143   14       76.695062836286      10.218441958007     100.000000000000
      2144   14       79.644872939914      11.921515624956     100.000000000000
      2145   13       71.778712649012      15.327662937010     100.000000000000
      2146   13       74.728522763561      13.624589280982     100.000000000000
      2147   13       71.778712649012      18.733810259985     100.000000000000
      2148   13       74.728522763561      17.030736603959     100.000000000000
      2149   13       71.778712649012      22.139957582962     100.000000000000
      2150   13       74.728522763561      20.436883916012     100.000000000000
      2151   13       71.778712649012      25.546104905938     100.000000000000
      2152   13       74.728522763561      23.843031238989     100.000000000000
      2153   13       77.678332867188      15.327662937010     100.000000000000
      2154   13       80.628142981736      13.624589280982     100.000000000000
      2155   13       77.678332867188      18.733810259985     100.000000000000
      2156   13       80.628142981736      17.030736603959     100.000000000000
      2157   13       77.678332867188      22.139957582962     100.000000000000
      2158   13       80.628142981736      20.436883916012     100.000000000000
      2159   13       77.678332867188      25.546104905938     100.000000000000
      2160   13       80.628142981736      23.843031238989     100.000000000000
      2161   14       70.795442618110      13.624589280982     100.000000000000
      2162   14       73.745252721737      15.327662937010     100.000000000000
      2163   14       70.795442618110      17.030736603959     100.000000000000
      2164   14       73.745252721737      18.733810259985     100.000000000000
      2165   14       70.795442618110      20.436883916012     100.000000000000
      2166   14       73.745252721737      22.139957582962     100.000000000000
      2167   14       70.795442618110      23.843031238989     100.000000000000
      2168   14       73.745252721737      25.546104905938     100.000000000000
      2169   14       76.695062836286      13.624589280982     100.000000000000
      2170   14       79.644872939914      15.327662937010     100.000000000000
      2171   14       76.695062836286      17.030736603959     100.000000000000
      2172   14       79.644872939914      18.733810259985     100.000000000000
      2173   14       76.695062836286      20.436883916012     100.000000000000
      2174   14       79.644872939914      22.139957582962     100.000000000000
      2175   14       76.695062836286      23.843031238989     100.000000000000
      2176   14       79.644872939914      25.546104905938     100.000000000000
      2177   13       71.778712649012      28.952252217992     100.000000000000
      2178   13       74.728522763561      27.249178561964     100.000000000000
      2179   13       71.778712649012      32.358399540967     100.000000000000
      2180   13       74.728522763561      30.655325884941     100.000000000000
      2181   13       71.778712649012      35.764546863944     100.000000000000
      2182   13       74.728522763561      34.061473196995     100.000000000000
      2183   13       71.778712649012      39.170694186920     100.000000000000
      2184   13       74.728522763561      37.467620519971     100.000000000000
      2185   13       77.678332867188      28.952252217992     100.000000000000
      2186   13       80.628142981736      27.249178561964     100.000000000000
      2187   13       77.678332867188      32.358399540967     100.000000000000
      2188   13       80.628142981736      30.655325884941     100.000000000000
      2189   13       77.678332867188      35.764546863944     100.000000000000
      2190   13       80.628142981736      34.061473196995     100.000000000000
      2191   13       77.678332867188      39.170694186920     100.000000000000
      2192   13       80.628142981736      37.467620519971     100.000000000000
      2193   14       70.795442618110      27.249178561964     100.000000000000
      2194   14       73.745252721737      28.952252217992     100.000000000000
      2195   14       70.795442618110      30.655325884941     100.000000000000
      2196   14       73.745252721737      32.358399540967     100.000000000000
      2197   14       70.795442618110      34.061473196995     100.000000000000
      2198   14       73.745252721737      35.764546863944     100.000000000000
      2199   14       70.795442618110      37.467620519971     100.000000000000
      2200   14       73.745252721737      39.170694186920     100.000000000000
      2201   14       76.695062836286      27.249178561964     100.000000000000
      2202   14       79.644872939914      28.952252217992     100.000000000000
      2203   14       76.695062836286      30.655325884941     100.000000000000
      2204   14       79.644872939914      32.358399540967     100.000000000000
      2205   14       76.695062836286      34.061473196995     100.000000000000
      2206   14       79.644872939914      35.764546863944     100.000000000000
      2207   14       76.695062836286      37.467620519971     100.000000000000
      2208   14       79.644872939914      39.170694186920     100.000000000000
      2209   13       71.778712649012      42.576841498974     100.000000000000
      2210   13       74.728522763561      40.873767842947     100.000000000000
      2211   13       71.778712649012      45.982988821949     100.000000000000
      2212   13       74.728522763561      44.279915165923     100.000000000000
      2213   13       71.778712649012      49.389136144926     100.000000000000
      2214   13       74.728522763561      47.686062477977     100.000000000000
      2215   13       71.778712649012      52.795283467902     100.000000000000
      2216   13       74.728522763561      51.092209800953     100.000000000000
      2217   13       77.678332867188      42.576841498974     100.000000000000
      2218   13       80.628142981736      40.873767842947     100.000000000000
      2219   13       77.678332867188      45.982988821949     100.000000000000
      2220   13       80.628142981736      44.279915165923     100.000000000000
      2221   13       77.678332867188      49.389136144926     100.000000000000
      2222   13       80.628142981736      47.686062477977     100.000000000000
      2223   13       77.678332867188      52.795283467902     100.000000000000
      2224   13       80.628142981736      51.092209800953     100.000000000000
      2225   14       70.795442618110      40.873767842947     100.000000000000
      2226   14       73.745252721737      42.576841498974     100.000000000000
      2227   14       70.795442618110      44.279915165923     100.000000000000
      2228   14       73.745252721737      45.982988821949     100.000000000000
      2229   14       70.795442618110      47.686062477977     100.000000000000
      2230   14       73.745252721737      49.389136144926     100.000000000000
      2231   14       70.795442618110      51.092209800953     100.000000000000
      2232   14       73.745252721737      52.795283467902     100.000000000000
      2233   14       76.695062836286      40.873767842947     100.000000000000
      2234   14       79.644872939914      42.576841498974     100.000000000000
      2235   14       76.695062836286      44.279915165923     100.000000000000
      2236   14       79.644872939914      45.982988821949     100.000000000000
      2237   14       76.695062836286      47.686062477977     100.000000000000
      2238   14       79.644872939914      49.389136144926     100.000000000000
      2239   14       76.695062836286      51.092209800953     100.000000000000
      2240   14       79.644872939914      52.795283467902     100.000000000000
      2241   13       71.778712649012      56.201430779956     100.000000000000
      2242   13       74.728522763561      54.498357123929     100.000000000000
      2243   13       71.778712649012      59.607578102932     100.000000000000
      2244   13       74.728522763561      57.904504446905     100.000000000000
      2245   13       71.778712649012      63.013725425908     100.000000000000
      2246   13       74.728522763561      61.310651758959     100.000000000000
      2247   13       71.778712649012      66.419872748885     100.000000000000
      2248   13       74.728522763561      64.716799081935     100.000000000000
      2249   13       77.678332867188      56.201430779956     100.000000000000
      2250   13       80.628142981736      54.498357123929     100.000000000000
      2251   13       77.678332867188      59.607578102932     100.000000000000
      2252   13       80.628142981736      57.904504446905     100.000000000000
      2253   13       77.678332867188      63.013725425908     100.000000000000
      2254   13       80.628142981736      61.310651758959     100.000000000000
      2255   13       77.678332867188      66.419872748885     100.000000000000
      2256   13       80.628142981736      64.716799081935     100.000000000000
      2257   14       70.795442618110      54.498357123929     100.000000000000
      2258   14       73.745252721737      56.201430779956     100.000000000000
      2259   14       70.795442618110      57.904504446905     100.000000000000
      2260   14       73.745252721737      59.607578102932     100.000000000000
      2261   14       70.795442618110      61.310651758959     100.000000000000
      2262   14       73.745252721737      63.013725425908     100.000000000000
      2263   14       70.795442618110      64.716799081935     100.000000000000
      2264   14       73.745252721737      66.419872748885     100.000000000000
      2265   14       76.695062836286      54.498357123929     100.000000000000
      2266   14       79.644872939914      56.201430779956     100.000000000000
      2267   14       76.695062836286      57.904504446905     100.000000000000
      2268   14       79.644872939914      59.607578102932     100.000000000000
      2269   14       76.695062836286      61.310651758959     100.000000000000
      2270   14       79.644872939914      63.013725425908     100.000000000000
      2271   14       76.695062836286      64.716799081935     100.000000000000
      2272   14       79.644872939914      66.419872748885     100.000000000000
      2273   13       71.778712649012      69.826020060938     100.000000000000
      2274   13       74.728522763561      68.122946404911     100.000000000000
      2275   13       71.778712649012      73.232167383914     100.000000000000
      2276   13       74.728522763561      71.529093727887     100.000000000000
      2277   13       71.778712649012      76.638314706890     100.000000000000
      2278   13       74.728522763561      74.935241039941     100.000000000000
      2279   13       71.778712649012      80.044462029867     100.000000000000
      2280   13       74.728522763561      78.341388362918     100.000000000000
      2281   13       77.678332867188      69.826020060938     100.000000000000
      2282   13       80.628142981736      68.122946404911     100.000000000000
      2283   13       77.678332867188      73.232167383914     100.000000000000
      2284   13       80.628142981736      71.529093727887     100.000000000000
      2285   13       77.678332867188      76.638314706890     100.000000000000
      2286   13       80.628142981736      74.935241039941     100.000000000000
      2287   13       77.678332867188      80.044462029867     100.000000000000
      2288   13       80.628142981736      78.341388362918     100.000000000000
      2289   14       70.795442618110      68.122946404911     100.000000000000
      2290   14       73.745252721737      69.826020060938     100.000000000000
      2291   14       70.795442618110      71.529093727887     100.000000000000
      2292   14       73.745252721737      73.232167383914     100.000000000000
      2293   14       70.795442618110      74.935241039941     100.000000000000
      2294   14       73.745252721737      76.638314706890     100.000000000000
      2295   14       70.795442618110      78.341388362918     100.000000000000
      2296   14       73.745252721737      80.044462029867     100.000000000000
      2297   14       76.695062836286      68.122946404911     100.000000000000
      2298   14       79.644872939914      69.826020060938     100.000000000000
      2299   14       76.695062836286      71.529093727887     100.000000000000
      2300   14       79.644872939914      73.232167383914     100.000000000000
      2301   14       76.695062836286      74.935241039941     100.000000000000
      2302   14       79.644872939914      76.638314706890     100.000000000000
      2303   14       76.695062836286      78.341388362918     100.000000000000
      2304   14       79.644872939914      80.044462029867     100.000000000000
      2305   13       71.778712649012      83.450609341920     100.000000000000
      2306   13       74.728522763561      81.747535685893     100.000000000000
      2307   13       71.778712649012      86.856756664896     100.000000000000
      2308   13       74.728522763561      85.153683008870     100.000000000000
      2309   13       71.778712649012      90.262903987872     100.000000000000
      2310   13       74.728522763561      88.559830320923     100.000000000000
      2311   13       71.778712649012      93.669051310849     100.000000000000
      2312   13       74.728522763561      91.965977643900     100.000000000000
      2313   13       77.678332867188      83.450609341920     100.000000000000
      2314   13       80.628142981736      81.747535685893     100.000000000000
      2315   13       77.678332867188      86.856756664896     100.000000000000
      2316   13       80.628142981736      85.153683008870     100.000000000000
      2317   13       77.678332867188      90.262903987872     100.000000000000
      2318   13       80.628142981736      88.559830320923     100.000000000000
      2319   13       77.678332867188      93.669051310849     100.000000000000
      2320   13       80.628142981736      91.965977643900     100.000000000000
      2321   14       70.795442618110      81.747535685893     100.000000000000
      2322   14       73.745252721737      83.450609341920     100.000000000000
      2323   14       70.795442618110      85.153683008870     100.000000000000
      2324   14       73.745252721737      86.856756664896     100.000000000000
      2325   14       70.795442618110      88.559830320923     100.000000000000
      2326   14       73.745252721737      90.262903987872     100.000000000000
      2327   14       70.795442618110      91.965977643900     100.000000000000
      2328   14       73.745252721737      93.669051310849     100.000000000000
      2329   14       76.695062836286      81.747535685893     100.000000000000
      2330   14       79.644872939914      83.450609341920     100.000000000000
      2331   14       76.695062836286      85.153683008870     100.000000000000
      2332   14       79.644872939914      86.856756664896     100.000000000000
      2333   14       76.695062836286      88.559830320923     100.000000000000
      2334   14       79.644872939914      90.262903987872     100.000000000000
      2335   14       76.695062836286      91.965977643900     100.000000000000
      2336   14       79.644872939914      93.669051310849     100.000000000000
      2337   13       71.778712649012      97.075198622903     100.000000000000
      2338   13       74.728522763561      95.372124966875     100.000000000000
      2339   13       71.778712649012     100.481345945878     100.000000000000
      2340   13       74.728522763561      98.778272289852     100.000000000000
      2341   13       71.778712649012     103.887493268855     100.000000000000
      2342   13       74.728522763561     102.184419601906     100.000000000000
      2343   13       71.778712649012     107.293640591831     100.000000000000
      2344   13       74.728522763561     105.590566924882     100.000000000000
      2345   13       77.678332867188      97.075198622903     100.000000000000
      2346   13       80.628142981736      95.372124966875     100.000000000000
      2347   13       77.678332867188     100.481345945878     100.000000000000
      2348   13       80.628142981736      98.778272289852     100.000000000000
      2349   13       77.678332867188     103.887493268855     100.000000000000
      2350   13       80.628142981736     102.184419601906     100.000000000000
      2351   13       77.678332867188     107.293640591831     100.000000000000
      2352   13       80.628142981736     105.590566924882     100.000000000000
      2353   14       70.795442618110      95.372124966875     100.000000000000
      2354   14       73.745252721737      97.075198622903     100.000000000000
      2355   14       70.795442618110      98.778272289852     100.000000000000
      2356   14       73.745252721737     100.481345945878     100.000000000000
      2357   14       70.795442618110     102.184419601906     100.000000000000
      2358   14       73.745252721737     103.887493268855     100.000000000000
      2359   14       70.795442618110     105.590566924882     100.000000000000
      2360   14       73.745252721737     107.293640591831     100.000000000000
      2361   14       76.695062836286      95.372124966875     100.000000000000
      2362   14       79.644872939914      97.075198622903     100.000000000000
      2363   14       76.695062836286      98.778272289852     100.000000000000
      2364   14       79.644872939914     100.481345945878     100.000000000000
      2365   14       76.695062836286     102.184419601906     100.000000000000
      2366   14       79.644872939914     103.887493268855     100.000000000000
      2367   14       76.695062836286     105.590566924882     100.000000000000
      2368   14       79.644872939914     107.293640591831     100.000000000000
      2369   13       71.778712649012     110.699787903885     100.000000000000
      2370   13       74.728522763561     108.996714247857     100.000000000000
      2371   13       71.778712649012     114.105935226860     100.000000000000
      2372   13       74.728522763561     112.402861570834     100.000000000000
      2373   13       71.778712649012     117.512082549837     100.000000000000
      2374   13       74.728522763561     115.809008882888     100.000000000000
      2375   13       71.778712649012     120.918229872813     100.000000000000
      2376   13       74.728522763561     119.215156205864     100.000000000000
      2377   13       77.678332867188     110.699787903885     100.000000000000
      2378   13       80.628142981736     108.996714247857     100.000000000000
      2379   13       77.678332867188     114.105935226860     100.000000000000
      2380   13       80.628142981736     112.402861570834     100.000000000000
      2381   13       77.678332867188     117.512082549837     100.000000000000
      2382   13       80.628142981736     115.809008882888     100.000000000000
      2383   13       77.678332867188     120.918229872813     100.000000000000
      2384   13       80.628142981736     119.215156205864     100.000000000000
      2385   14       70.795442618110     108.996714247857     100.000000000000
      2386   14       73.745252721737     110.699787903885     100.000000000000
      2387   14       70.795442618110     112.402861570834     100.000000000000
      2388   14       73.745252721737     114.105935226860     100.000000000000
      2389   14       70.795442618110     115.809008882888     100.000000000000
      2390   14       73.745252721737     117.512082549837     100.000000000000
      2391   14       70.795442618110     119.215156205864     100.000000000000
      2392   14       73.745252721737     120.918229872813     100.000000000000
      2393   14       76.695062836286     108.996714247857     100.000000000000
      2394   14       79.644872939914     110.699787903885     100.000000000000
      2395   14       76.695062836286     112.402861570834     100.000000000000
      2396   14       79.644872939914     114.105935226860     100.000000000000
      2397   14       76.695062836286     115.809008882888     100.000000000000
      2398   14       79.644872939914     117.512082549837     100.000000000000
      2399   14       76.695062836286     119.215156205864     100.000000000000
      2400   14       79.644872939914     120.918229872813     100.000000000000
      2401   13       71.778712649012     124.324377184867     100.000000000000
      2402   13       74.728522763561     122.621303528840     100.000000000000
      2403   13       71.778712649012     127.730524507842     100.000000000000
      2404   13       74.728522763561     126.027450851816     100.000000000000
      2405   13       71.778712649012     131.136671830819     100.000000000000
      2406   13       74.728522763561     129.433598163870     100.000000000000
      2407   13       71.778712649012     134.542819153795     100.000000000000
      2408   13       74.728522763561     132.839745486846     100.000000000000
      2409   13       77.678332867188     124.324377184867     100.000000000000
      2410   13       80.628142981736     122.621303528840     100.000000000000
      2411   13       77.678332867188     127.730524507842     100.000000000000
      2412   13       80.628142981736     126.027450851816     100.000000000000
      2413   13       77.678332867188     131.136671830819     100.000000000000
      2414   13       80.628142981736     129.433598163870     100.000000000000
      2415   13       77.678332867188     134.542819153795     100.000000000000
      2416   13       80.628142981736     132.839745486846     100.000000000000
      2417   14       70.795442618110     122.621303528840     100.000000000000
      2418   14       73.745252721737     124.324377184867     100.000000000000
      2419   14       70.795442618110     126.027450851816     100.000000000000
      2420   14       73.745252721737     127.730524507842     100.000000000000
      2421   14       70.795442618110     129.433598163870     100.000000000000
      2422   14       73.745252721737     131.136671830819     100.000000000000
      2423   14       70.795442618110     132.839745486846     100.000000000000
      2424   14       73.745252721737     134.542819153795     100.000000000000
      2425   14       76.695062836286     122.621303528840     100.000000000000
      2426   14       79.644872939914     124.324377184867     100.000000000000
      2427   14       76.695062836286     126.027450851816     100.000000000000
      2428   14       79.644872939914     127.730524507842     100.000000000000
      2429   14       76.695062836286     129.433598163870     100.000000000000
      2430   14       79.644872939914     131.136671830819     100.000000000000
      2431   14       76.695062836286     132.839745486846     100.000000000000
      2432   14       79.644872939914     134.542819153795     100.000000000000
      2433   13       71.778712649012     137.948966465849     100.000000000000
      2434   13       74.728522763561     136.245892809822     100.000000000000
      2435   13       71.778712649012     141.355113788825     100.000000000000
      2436   13       74.728522763561     139.652040132798     100.000000000000
      2437   13       71.778712649012     144.761261111801     100.000000000000
      2438   13       74.728522763561     143.058187444852     100.000000000000
      2439   13       71.778712649012     148.167408434778     100.000000000000
      2440   13       74.728522763561     146.464334767829     100.000000000000
      2441   13       77.678332867188     137.948966465849     100.000000000000
      2442   13       80.628142981736     136.245892809822     100.000000000000
      2443   13       77.678332867188     141.355113788825     100.000000000000
      2444   13       80.628142981736     139.652040132798     100.000000000000
      2445   13       77.678332867188     144.761261111801     100.000000000000
      2446   13       80.628142981736     143.058187444852     100.000000000000
      2447   13       77.678332867188     148.167408434778     100.000000000000
      2448   13       80.628142981736     146.464334767829     100.000000000000
      2449   14       70.795442618110     136.245892809822     100.000000000000
      2450   14       73.745252721737     137.948966465849     100.000000000000
      2451   14       70.795442618110     139.652040132798     100.000000000000
      2452   14       73.745252721737     141.355113788825     100.000000000000
      2453   14       70.795442618110     143.058187444852     100.000000000000
      2454   14       73.745252721737     144.761261111801     100.000000000000
      2455   14       70.795442618110     146.464334767829     100.000000000000
      2456   14       73.745252721737     148.167408434778     100.000000000000
      2457   14       76.695062836286     136.245892809822     100.000000000000
      2458   14       79.644872939914     137.948966465849     100.000000000000
      2459   14       76.695062836286     139.652040132798     100.000000000000
      2460   14       79.644872939914     141.355113788825     100.000000000000
      2461   14       76.695062836286     143.058187444852     100.000000000000
      2462   14       79.644872939914     144.761261111801     100.000000000000
      2463   14       76.695062836286     146.464334767829     100.000000000000
      2464   14       79.644872939914     148.167408434778     100.000000000000
      2465   13       83.577953085364       1.703073656027     100.000000000000
      2466   13       86.527763199913       0.000000000000     100.000000000000
      2467   13       83.577953085364       5.109220979003     100.000000000000
      2468   13       86.527763199913       3.406147322976     100.000000000000
      2469   13       83.577953085364       8.515368301979     100.000000000000
      2470   13       86.527763199913       6.812294635030     100.000000000000
      2471   13       83.577953085364      11.921515624956     100.000000000000
      2472   13       86.527763199913      10.218441958007     100.000000000000
      2473   13       89.477573303540       1.703073656027     100.000000000000
      2474   13       92.427383418088       0.000000000000     100.000000000000
      2475   13       89.477573303540       5.109220979003     100.000000000000
      2476   13       92.427383418088       3.406147322976     100.000000000000
      2477   13       89.477573303540       8.515368301979     100.000000000000
      2478   13       92.427383418088       6.812294635030     100.000000000000
      2479   13       89.477573303540      11.921515624956     100.000000000000
      2480   13       92.427383418088      10.218441958007     100.000000000000
      2481   14       82.594683054462       0.000000000000     100.000000000000
      2482   14       85.544493158089       1.703073656027     100.000000000000
      2483   14       82.594683054462       3.406147322976     100.000000000000
      2484   14       85.544493158089       5.109220979003     100.000000000000
      2485   14       82.594683054462       6.812294635030     100.000000000000
      2486   14       85.544493158089       8.515368301979     100.000000000000
      2487   14       82.594683054462      10.218441958007     100.000000000000
      2488   14       85.544493158089      11.921515624956     100.000000000000
      2489   14       88.494303272638       0.000000000000     100.000000000000
      2490   14       91.444113376265       1.703073656027     100.000000000000
      2491   14       88.494303272638       3.406147322976     100.000000000000
      2492   14       91.444113376265       5.109220979003     100.000000000000
      2493   14       88.494303272638       6.812294635030     100.000000000000
      2494   14       91.444113376265       8.515368301979     100.000000000000
      2495   14       88.494303272638      10.218441958007     100.000000000000
      2496   14       91.444113376265      11.921515624956     100.000000000000
      2497   13       83.577953085364      15.327662937010     100.000000000000
      2498   13       86.527763199913      13.624589280982     100.000000000000
      2499   13       83.577953085364      18.733810259985     100.000000000000
      2500   13       86.527763199913      17.030736603959     100.000000000000
      2501   13       83.577953085364      22.139957582962     100.000000000000
      2502   13       86.527763199913      20.436883916012     100.000000000000
      2503   13       83.577953085364      25.546104905938     100.000000000000
      2504   13       86.527763199913      23.843031238989     100.000000000000
      2505   13       89.477573303540      15.327662937010     100.000000000000
      2506   13       92.427383418088      13.624589280982     100.000000000000
      2507   13       89.477573303540      18.733810259985     100.000000000000
      2508   13       92.427383418088      17.030736603959     100.000000000000
      2509   13       89.477573303540      22.139957582962     100.000000000000
      2510   13       92.427383418088      20.436883916012     100.000000000000
      2511   13       89.477573303540      25.546104905938     100.000000000000
      2512   13       92.427383418088      23.843031238989     100.000000000000
      2513   14       82.594683054462      13.624589280982     100.000000000000
      2514   14       85.544493158089      15.327662937010     100.000000000000
      2515   14       82.594683054462      17.030736603959     100.000000000000
      2516   14       85.544493158089      18.733810259985     100.000000000000
      2517   14       82.594683054462      20.436883916012     100.000000000000
      2518   14       85.544493158089      22.139957582962     100.000000000000
      2519   14       82.594683054462      23.843031238989     100.000000000000
      2520   14       85.544493158089      25.546104905938     100.000000000000
      2521   14       88.494303272638      13.624589280982     100.000000000000
      2522   14       91.444113376265      15.327662937010     100.000000000000
      2523   14       88.494303272638      17.030736603959     100.000000000000
      2524   14       91.444113376265      18.733810259985     100.000000000000
      2525   14       88.494303272638      20.436883916012     100.000000000000
      2526   14       91.444113376265      22.139957582962     100.000000000000
      2527   14       88.494303272638      23.843031238989     100.000000000000
      2528   14       91.444113376265      25.546104905938     100.000000000000
      2529   13       83.577953085364      28.952252217992     100.000000000000
      2530   13       86.527763199913      27.249178561964     100.000000000000
      2531   13       83.577953085364      32.358399540967     100.000000000000
      2532   13       86.527763199913      30.655325884941     100.000000000000
      2533   13       83.577953085364      35.764546863944     100.000000000000
      2534   13       86.527763199913      34.061473196995     100.000000000000
      2535   13       83.577953085364      39.170694186920     100.000000000000
      2536   13       86.527763199913      37.467620519971     100.000000000000
      2537   13       89.477573303540      28.952252217992     100.000000000000
      2538   13       92.427383418088      27.249178561964     100.000000000000
      2539   13       89.477573303540      32.358399540967     100.000000000000
      2540   13       92.427383418088      30.655325884941     100.000000000000
      2541   13       89.477573303540      35.764546863944     100.000000000000
      2542   13       92.427383418088      34.061473196995     100.000000000000
      2543   13       89.477573303540      39.170694186920     100.000000000000
      2544   13       92.427383418088      37.467620519971     100.000000000000
      2545   14       82.594683054462      27.249178561964     100.000000000000
      2546   14       85.544493158089      28.952252217992     100.000000000000
      2547   14       82.594683054462      30.655325884941     100.000000000000
      2548   14       85.544493158089      32.358399540967     100.000000000000
      2549   14       82.594683054462      34.061473196995     100.000000000000
      2550   14       85.544493158089      35.764546863944     100.000000000000
      2551   14       82.594683054462      37.467620519971     100.000000000000
      2552   14       85.544493158089      39.170694186920     100.000000000000
      2553   14       88.494303272638      27.249178561964     100.000000000000
      2554   14       91.444113376265      28.952252217992     100.000000000000
      2555   14       88.494303272638      30.655325884941     100.000000000000
      2556   14       91.444113376265      32.358399540967     100.000000000000
      2557   14       88.494303272638      34.061473196995     100.000000000000
      2558   14       91.444113376265      35.764546863944     100.000000000000
      2559   14       88.494303272638      37.467620519971     100.000000000000
      2560   14       91.444113376265      39.170694186920     100.000000000000
      2561   13       83.577953085364      42.576841498974     100.000000000000
      2562   13       86.527763199913      40.873767842947     100.000000000000
      2563   13       83.577953085364      45.982988821949     100.000000000000
      2564   13       86.527763199913      44.279915165923     100.000000000000
      2565   13       83.577953085364      49.389136144926     100.000000000000
      2566   13       86.527763199913      47.686062477977     100.000000000000
      2567   13       83.577953085364      52.795283467902     100.000000000000
      2568   13       86.527763199913      51.092209800953     100.000000000000
      2569   13       89.477573303540      42.576841498974     100.000000000000
      2570   13       92.427383418088      40.873767842947     100.000000000000
      2571   13       89.477573303540      45.982988821949     100.000000000000
      2572   13       92.427383418088      44.279915165923     100.000000000000
      2573   13       89.477573303540      49.389136144926     100.000000000000
      2574   13       92.427383418088      47.686062477977     100.000000000000
      2575   13       89.477573303540      52.795283467902     100.000000000000
      2576   13       92.427383418088      51.092209800953     100.000000000000
      2577   14       82.594683054462      40.873767842947     100.000000000000
      2578   14       85.544493158089      42.576841498974     100.000000000000
      2579   14       82.594683054462      44.279915165923     100.000000000000
      2580   14       85.544493158089      45.982988821949     100.000000000000
      2581   14       82.594683054462      47.686062477977     100.000000000000
      2582   14       85.544493158089      49.389136144926     100.000000000000
      2583   14       82.594683054462      51.092209800953     100.000000000000
      2584   14       85.544493158089      52.795283467902     100.000000000000
      2585   14       88.494303272638      40.873767842947     100.000000000000
      2586   14       91.444113376265      42.576841498974     100.000000000000
      2587   14       88.494303272638      44.279915165923     100.000000000000
      2588   14       91.444113376265      45.982988821949     100.000000000000
      2589   14       88.494303272638      47.686062477977     100.000000000000
      2590   14       91.444113376265      49.389136144926     100.000000000000
      2591   14       88.494303272638      51.092209800953     100.000000000000
      2592   14       91.444113376265      52.795283467902     100.000000000000
      2593   13       83.577953085364      56.201430779956     100.000000000000
      2594   13       86.527763199913      54.498357123929     100.000000000000
      2595   13       83.577953085364      59.607578102932     100.000000000000
      2596   13       86.527763199913      57.904504446905     100.000000000000
      2597   13       83.577953085364      63.013725425908     100.000000000000
      2598   13       86.527763199913      61.310651758959     100.000000000000
      2599   13       83.577953085364      66.419872748885     100.000000000000
      2600   13       86.527763199913      64.716799081935     100.000000000000
      2601   13       89.477573303540      56.201430779956     100.000000000000
      2602   13       92.427383418088      54.498357123929     100.000000000000
      2603   13       89.477573303540      59.607578102932     100.000000000000
      2604   13       92.427383418088      57.904504446905     100.000000000000
      2605   13       89.477573303540      63.013725425908     100.000000000000
      2606   13       92.427383418088      61.310651758959     100.000000000000
      2607   13       89.477573303540      66.419872748885     100.000000000000
      2608   13       92.427383418088      64.716799081935     100.000000000000
      2609   14       82.594683054462      54.498357123929     100.000000000000
      2610   14       85.544493158089      56.201430779956     100.000000000000
      2611   14       82.594683054462      57.904504446905     100.000000000000
      2612   14       85.544493158089      59.607578102932     100.000000000000
      2613   14       82.594683054462      61.310651758959     100.000000000000
      2614   14       85.544493158089      63.013725425908     100.000000000000
      2615   14       82.594683054462      64.716799081935     100.000000000000
      2616   14       85.544493158089      66.419872748885     100.000000000000
      2617   14       88.494303272638      54.498357123929     100.000000000000
      2618   14       91.444113376265      56.201430779956     100.000000000000
      2619   14       88.494303272638      57.904504446905     100.000000000000
      2620   14       91.444113376265      59.607578102932     100.000000000000
      2621   14       88.494303272638      61.310651758959     100.000000000000
      2622   14       91.444113376265      63.013725425908     100.000000000000
      2623   14       88.494303272638      64.716799081935     100.000000000000
      2624   14       91.444113376265      66.419872748885     100.000000000000
      2625   13       83.577953085364      69.826020060938     100.000000000000
      2626   13       86.527763199913      68.122946404911     100.000000000000
      2627   13       83.577953085364      73.232167383914     100.000000000000
      2628   13       86.527763199913      71.529093727887     100.000000000000
      2629   13       83.577953085364      76.638314706890     100.000000000000
      2630   13       86.527763199913      74.935241039941     100.000000000000
      2631   13       83.577953085364      80.044462029867     100.000000000000
      2632   13       86.527763199913      78.341388362918     100.000000000000
      2633   13       89.477573303540      69.826020060938     100.000000000000
      2634   13       92.427383418088      68.122946404911     100.000000000000
      2635   13       89.477573303540      73.232167383914     100.000000000000
      2636   13       92.427383418088      71.529093727887     100.000000000000
      2637   13       89.477573303540      76.638314706890     100.000000000000
      2638   13       92.427383418088      74.935241039941     100.000000000000
      2639   13       89.477573303540      80.044462029867     100.000000000000
      2640   13       92.427383418088      78.341388362918     100.000000000000
      2641   14       82.594683054462      68.122946404911     100.000000000000
      2642   14       85.544493158089      69.826020060938     100.000000000000
      2643   14       82.594683054462      71.529093727887     100.000000000000
      2644   14       85.544493158089      73.232167383914     100.000000000000
      2645   14       82.594683054462      74.935241039941     100.000000000000
      2646   14       85.544493158089      76.638314706890     100.000000000000
      2647   14       82.594683054462      78.341388362918     100.000000000000
      2648   14       85.544493158089      80.044462029867     100.000000000000
      2649   14       88.494303272638      68.122946404911     100.000000000000
      2650   14       91.444113376265      69.826020060938     100.000000000000
      2651   14       88.494303272638      71.529093727887     100.000000000000
      2652   14       91.444113376265      73.232167383914     100.000000000000
      2653   14       88.494303272638      74.935241039941     100.000000000000
      2654   14       91.444113376265      76.638314706890     100.000000000000
      2655   14       88.494303272638      78.341388362918     100.000000000000
      2656   14       91.444113376265      80.044462029867     100.000000000000
      2657   13       83.577953085364      83.450609341920     100.000000000000
      2658   13       86.527763199913      81.747535685893     100.000000000000
      2659   13       83.577953085364      86.856756664896     100.000000000000
      2660   13       86.527763199913      85.153683008870     100.000000000000
      2661   13       83.577953085364      90.262903987872     100.000000000000
      2662   13       86.527763199913      88.559830320923     100.000000000000
      2663   13       83.577953085364      93.669051310849     100.000000000000
      2664   13       86.527763199913      91.965977643900     100.000000000000
      2665   13       89.477573303540      83.450609341920     100.000000000000
      2666   13       92.427383418088      81.747535685893     100.000000000000
      2667   13       89.477573303540      86.856756664896     100.000000000000
      2668   13       92.427383418088      85.153683008870     100.000000000000
      2669   13       89.477573303540      90.262903987872     100.000000000000
      2670   13       92.427383418088      88.559830320923     100.000000000000
      2671   13       89.477573303540      93.669051310849     100.000000000000
      2672   13       92.427383418088      91.965977643900     100.000000000000
      2673   14       82.594683054462      81.747535685893     100.000000000000
      2674   14       85.544493158089      83.450609341920     100.000000000000
      2675   14       82.594683054462      85.153683008870     100.000000000000
      2676   14       85.544493158089      86.856756664896     100.000000000000
      2677   14       82.594683054462      88.559830320923     100.000000000000
      2678   14       85.544493158089      90.262903987872     100.000000000000
      2679   14       82.594683054462      91.965977643900     100.000000000000
      2680   14       85.544493158089      93.669051310849     100.000000000000
      2681   14       88.494303272638      81.747535685893     100.000000000000
      2682   14       91.444113376265      83.450609341920     100.000000000000
      2683   14       88.494303272638      85.153683008870     100.000000000000
      2684   14       91.444113376265      86.856756664896     100.000000000000
      2685   14       88.494303272638      88.559830320923     100.000000000000
      2686   14       91.444113376265      90.262903987872     100.000000000000
      2687   14       88.494303272638      91.965977643900     100.000000000000
      2688   14       91.444113376265      93.669051310849     100.000000000000
      2689   13       83.577953085364      97.075198622903     100.000000000000
      2690   13       86.527763199913      95.372124966875     100.000000000000
      2691   13       83.577953085364     100.481345945878     100.000000000000
      2692   13       86.527763199913      98.778272289852     100.000000000000
      2693   13       83.577953085364     103.887493268855     100.000000000000
      2694   13       86.527763199913     102.184419601906     100.000000000000
      2695   13       83.577953085364     107.293640591831     100.000000000000
      2696   13       86.527763199913     105.590566924882     100.000000000000
      2697   13       89.477573303540      97.075198622903     100.000000000000
      2698   13       92.427383418088      95.372124966875     100.000000000000
      2699   13       89.477573303540     100.481345945878     100.000000000000
      2700   13       92.427383418088      98.778272289852     100.000000000000
      2701   13       89.477573303540     103.887493268855     100.000000000000
      2702   13       92.427383418088     102.184419601906     100.000000000000
      2703   13       89.477573303540     107.293640591831     100.000000000000
      2704   13       92.427383418088     105.590566924882     100.000000000000
      2705   14       82.594683054462      95.372124966875     100.000000000000
      2706   14       85.544493158089      97.075198622903     100.000000000000
      2707   14       82.594683054462      98.778272289852     100.000000000000
      2708   14       85.544493158089     100.481345945878     100.000000000000
      2709   14       82.594683054462     102.184419601906     100.000000000000
      2710   14       85.544493158089     103.887493268855     100.000000000000
      2711   14       82.594683054462     105.590566924882     100.000000000000
      2712   14       85.544493158089     107.293640591831     100.000000000000
      2713   14       88.494303272638      95.372124966875     100.000000000000
      2714   14       91.444113376265      97.075198622903     100.000000000000
      2715   14       88.494303272638      98.778272289852     100.000000000000
      2716   14       91.444113376265     100.481345945878     100.000000000000
      2717   14       88.494303272638     102.184419601906     100.000000000000
      2718   14       91.444113376265     103.887493268855     100.000000000000
      2719   14       88.494303272638     105.590566924882     100.000000000000
      2720   14       91.444113376265     107.293640591831     100.000000000000
      2721   13       83.577953085364     110.699787903885     100.000000000000
      2722   13       86.527763199913     108.996714247857     100.000000000000
      2723   13       83.577953085364     114.105935226860     100.000000000000
      2724   13       86.527763199913     112.402861570834     100.000000000000
      2725   13       83.577953085364     117.512082549837     100.000000000000
      2726   13       86.527763199913     115.809008882888     100.000000000000
      2727   13       83.577953085364     120.918229872813     100.000000000000
      2728   13       86.527763199913     119.215156205864     100.000000000000
      2729   13       89.477573303540     110.699787903885     100.000000000000
      2730   13       92.427383418088     108.996714247857     100.000000000000
      2731   13       89.477573303540     114.105935226860     100.000000000000
      2732   13       92.427383418088     112.402861570834     100.000000000000
      2733   13       89.477573303540     117.512082549837     100.000000000000
      2734   13       92.427383418088     115.809008882888     100.000000000000
      2735   13       89.477573303540     120.918229872813     100.000000000000
      2736   13       92.427383418088     119.215156205864     100.000000000000
      2737   14       82.594683054462     108.996714247857     100.000000000000
      2738   14       85.544493158089     110.699787903885     100.000000000000
      2739   14       82.594683054462     112.402861570834     100.000000000000
      2740   14       85.544493158089     114.105935226860     100.000000000000
      2741   14       82.594683054462     115.809008882888     100.000000000000
      2742   14       85.544493158089     117.512082549837     100.000000000000
      2743   14       82.594683054462     119.215156205864     100.000000000000
      2744   14       85.544493158089     120.918229872813     100.000000000000
      2745   14       88.494303272638     108.996714247857     100.000000000000
      2746   14       91.444113376265     110.699787903885     100.000000000000
      2747   14       88.494303272638     112.402861570834     100.000000000000
      2748   14       91.444113376265     114.105935226860     100.000000000000
      2749   14       88.494303272638     115.809008882888     100.000000000000
      2750   14       91.444113376265     117.512082549837     100.000000000000
      2751   14       88.494303272638     119.215156205864     100.000000000000
      2752   14       91.444113376265     120.918229872813     100.000000000000
      2753   13       83.577953085364     124.324377184867     100.000000000000
      2754   13       86.527763199913     122.621303528840     100.000000000000
      2755   13       83.577953085364     127.730524507842     100.000000000000
      2756   13       86.527763199913     126.027450851816     100.000000000000
      2757   13       83.577953085364     131.136671830819     100.000000000000
      2758   13       86.527763199913     129.433598163870     100.000000000000
      2759   13       83.577953085364     134.542819153795     100.000000000000
      2760   13       86.527763199913     132.839745486846     100.000000000000
      2761   13       89.477573303540     124.324377184867     100.000000000000
      2762   13       92.427383418088     122.621303528840     100.000000000000
      2763   13       89.477573303540     127.730524507842     100.000000000000
      2764   13       92.427383418088     126.027450851816     100.000000000000
      2765   13       89.477573303540     131.136671830819     100.000000000000
      2766   13       92.427383418088     129.433598163870     100.000000000000
      2767   13       89.477573303540     134.542819153795     100.000000000000
      2768   13       92.427383418088     132.839745486846     100.000000000000
      2769   14       82.594683054462     122.621303528840     100.000000000000
      2770   14       85.544493158089     124.324377184867     100.000000000000
      2771   14       82.594683054462     126.027450851816     100.000000000000
      2772   14       85.544493158089     127.730524507842     100.000000000000
      2773   14       82.594683054462     129.433598163870     100.000000000000
      2774   14       85.544493158089     131.136671830819     100.000000000000
      2775   14       82.594683054462     132.839745486846     100.000000000000
      2776   14       85.544493158089     134.542819153795     100.000000000000
      2777   14       88.494303272638     122.621303528840     100.000000000000
      2778   14       91.444113376265     124.324377184867     100.000000000000
      2779   14       88.494303272638     126.027450851816     100.000000000000
      2780   14       91.444113376265     127.730524507842     100.000000000000
      2781   14       88.494303272638     129.433598163870     100.000000000000
      2782   14       91.444113376265     131.136671830819     100.000000000000
      2783   14       88.494303272638     132.839745486846     100.000000000000
      2784   14       91.444113376265     134.542819153795     100.000000000000
      2785   13       83.577953085364     137.948966465849     100.000000000000
      2786   13       86.527763199913     136.245892809822     100.000000000000
      2787   13       83.577953085364     141.355113788825     100.000000000000
      2788   13       86.527763199913     139.652040132798     100.000000000000
      2789   13       83.577953085364     144.761261111801     100.000000000000
      2790   13       86.527763199913     143.058187444852     100.000000000000
      2791   13       83.577953085364     148.167408434778     100.000000000000
      2792   13       86.527763199913     146.464334767829     100.000000000000
      2793   13       89.477573303540     137.948966465849     100.000000000000
      2794   13       92.427383418088     136.245892809822     100.000000000000
      2795   13       89.477573303540     141.355113788825     100.000000000000
      2796   13       92.427383418088     139.652040132798     100.000000000000
      2797   13       89.477573303540     144.761261111801     100.000000000000
      2798   13       92.427383418088     143.058187444852     100.000000000000
      2799   13       89.477573303540     148.167408434778     100.000000000000
      2800   13       92.427383418088     146.464334767829     100.000000000000
      2801   14       82.594683054462     136.245892809822     100.000000000000
      2802   14       85.544493158089     137.948966465849     100.000000000000
      2803   14       82.594683054462     139.652040132798     100.000000000000
      2804   14       85.544493158089     141.355113788825     100.000000000000
      2805   14       82.594683054462     143.058187444852     100.000000000000
      2806   14       85.544493158089     144.761261111801     100.000000000000
      2807   14       82.594683054462     146.464334767829     100.000000000000
      2808   14       85.544493158089     148.167408434778     100.000000000000
      2809   14       88.494303272638     136.245892809822     100.000000000000
      2810   14       91.444113376265     137.948966465849     100.000000000000
      2811   14       88.494303272638     139.652040132798     100.000000000000
      2812   14       91.444113376265     141.355113788825     100.000000000000
      2813   14       88.494303272638     143.058187444852     100.000000000000
      2814   14       91.444113376265     144.761261111801     100.000000000000
      2815   14       88.494303272638     146.464334767829     100.000000000000
      2816   14       91.444113376265     148.167408434778     100.000000000000
      2817   13       95.377193521715       1.703073656027     100.000000000000
      2818   13       98.327003636264       0.000000000000     100.000000000000
      2819   13       95.377193521715       5.109220979003     100.000000000000
      2820   13       98.327003636264       3.406147322976     100.000000000000
      2821   13       95.377193521715       8.515368301979     100.000000000000
      2822   13       98.327003636264       6.812294635030     100.000000000000
      2823   13       95.377193521715      11.921515624956     100.000000000000
      2824   13       98.327003636264      10.218441958007     100.000000000000
      2825   13      101.276813739892       1.703073656027     100.000000000000
      2826   13      104.226623854440       0.000000000000     100.000000000000
      2827   13      101.276813739892       5.109220979003     100.000000000000
      2828   13      104.226623854440       3.406147322976     100.000000000000
      2829   13      101.276813739892       8.515368301979     100.000000000000
      2830   13      104.226623854440       6.812294635030     100.000000000000
      2831   13      101.276813739892      11.921515624956     100.000000000000
      2832   13      104.226623854440      10.218441958007     100.000000000000
      2833   14       94.393923490813       0.000000000000     100.000000000000
      2834   14       97.343733594441       1.703073656027     100.000000000000
      2835   14       94.393923490813       3.406147322976     100.000000000000
      2836   14       97.343733594441       5.109220979003     100.000000000000
      2837   14       94.393923490813       6.812294635030     100.000000000000
      2838   14       97.343733594441       8.515368301979     100.000000000000
      2839   14       94.393923490813      10.218441958007     100.000000000000
      2840   14       97.343733594441      11.921515624956     100.000000000000
      2841   14      100.293543708990       0.000000000000     100.000000000000
      2842   14      103.243353812617       1.703073656027     100.000000000000
      2843   14      100.293543708990       3.406147322976     100.000000000000
      2844   14      103.243353812617       5.109220979003     100.000000000000
      2845   14      100.293543708990       6.812294635030     100.000000000000
      2846   14      103.243353812617       8.515368301979     100.000000000000
      2847   14      100.293543708990      10.218441958007     100.000000000000
      2848   14      103.243353812617      11.921515624956     100.000000000000
      2849   13       95.377193521715      15.327662937010     100.000000000000
      2850   13       98.327003636264      13.624589280982     100.000000000000
      2851   13       95.377193521715      18.733810259985     100.000000000000
      2852   13       98.327003636264      17.030736603959     100.000000000000
      2853   13       95.377193521715      22.139957582962     100.000000000000
      2854   13       98.327003636264      20.436883916012     100.000000000000
      2855   13       95.377193521715      25.546104905938     100.000000000000
      2856   13       98.327003636264      23.843031238989     100.000000000000
      2857   13      101.276813739892      15.327662937010     100.000000000000
      2858   13      104.226623854440      13.624589280982     100.000000000000
      2859   13      101.276813739892      18.733810259985     100.000000000000
      2860   13      104.226623854440      17.030736603959     100.000000000000
      2861   13      101.276813739892      22.139957582962     100.000000000000
      2862   13      104.226623854440      20.436883916012     100.000000000000
      2863   13      101.276813739892      25.546104905938     100.000000000000
      2864   13      104.226623854440      23.843031238989     100.000000000000
      2865   14       94.393923490813      13.624589280982     100.000000000000
      2866   14       97.343733594441      15.327662937010     100.000000000000
      2867   14       94.393923490813      17.030736603959     100.000000000000
      2868   14       97.343733594441      18.733810259985     100.000000000000
      2869   14       94.393923490813      20.436883916012     100.000000000000
      2870   14       97.343733594441      22.139957582962     100.000000000000
      2871   14       94.393923490813      23.843031238989     100.000000000000
      2872   14       97.343733594441      25.546104905938     100.000000000000
      2873   14      100.293543708990      13.624589280982     100.000000000000
      2874   14      103.243353812617      15.327662937010     100.000000000000
      2875   14      100.293543708990      17.030736603959     100.000000000000
      2876   14      103.243353812617      18.733810259985     100.000000000000
      2877   14      100.293543708990      20.436883916012     100.000000000000
      2878   14      103.243353812617      22.139957582962     100.000000000000
      2879   14      100.293543708990      23.843031238989     100.000000000000
      2880   14      103.243353812617      25.546104905938     100.000000000000
      2881   13       95.377193521715      28.952252217992     100.000000000000
      2882   13       98.327003636264      27.249178561964     100.000000000000
      2883   13       95.377193521715      32.358399540967     100.000000000000
      2884   13       98.327003636264      30.655325884941     100.000000000000
      2885   13       95.377193521715      35.764546863944     100.000000000000
      2886   13       98.327003636264      34.061473196995     100.000000000000
      2887   13       95.377193521715      39.170694186920     100.000000000000
      2888   13       98.327003636264      37.467620519971     100.000000000000
      2889   13      101.276813739892      28.952252217992     100.000000000000
      2890   13      104.226623854440      27.249178561964     100.000000000000
      2891   13      101.276813739892      32.358399540967     100.000000000000
      2892   13      104.226623854440      30.655325884941     100.000000000000
      2893   13      101.276813739892      35.764546863944     100.000000000000
      2894   13      104.226623854440      34.061473196995     100.000000000000
      2895   13      101.276813739892      39.170694186920     100.000000000000
      2896   13      104.226623854440      37.467620519971     100.000000000000
      2897   14       94.393923490813      27.249178561964     100.000000000000
      2898   14       97.343733594441      28.952252217992     100.000000000000
      2899   14       94.393923490813      30.655325884941     100.000000000000
      2900   14       97.343733594441      32.358399540967     100.000000000000
      2901   14       94.393923490813      34.061473196995     100.000000000000
      2902   14       97.343733594441      35.764546863944     100.000000000000
      2903   14       94.393923490813      37.467620519971     100.000000000000
      2904   14       97.343733594441      39.170694186920     100.000000000000
      2905   14      100.293543708990      27.249178561964     100.000000000000
      2906   14      103.243353812617      28.952252217992     100.000000000000
      2907   14      100.293543708990      30.655325884941     100.000000000000
      2908   14      103.243353812617      32.358399540967     100.000000000000
      2909   14      100.293543708990      34.061473196995     100.000000000000
      2910   14      103.243353812617      35.764546863944     100.000000000000
      2911   14      100.293543708990      37.467620519971     100.000000000000
      2912   14      103.243353812617      39.170694186920     100.000000000000
      2913   13       95.377193521715      42.576841498974     100.000000000000
      2914   13       98.327003636264      40.873767842947     100.000000000000
      2915   13       95.377193521715      45.982988821949     100.000000000000
      2916   13       98.327003636264      44.279915165923     100.000000000000
      2917   13       95.377193521715      49.389136144926     100.000000000000
      2918   13       98.327003636264      47.686062477977     100.000000000000
      2919   13       95.377193521715      52.795283467902     100.000000000000
      2920   13       98.327003636264      51.092209800953     100.000000000000
      2921   13      101.276813739892      42.576841498974     100.000000000000
      2922   13      104.226623854440      40.873767842947     100.000000000000
      2923   13      101.276813739892      45.982988821949     100.000000000000
      2924   13      104.226623854440      44.279915165923     100.000000000000
      2925   13      101.276813739892      49.389136144926     100.000000000000
      2926   13      104.226623854440      47.686062477977     100.000000000000
      2927   13      101.276813739892      52.795283467902     100.000000000000
      2928   13      104.226623854440      51.092209800953     100.000000000000
      2929   14       94.393923490813      40.873767842947     100.000000000000
      2930   14       97.343733594441      42.576841498974     100.000000000000
      2931   14       94.393923490813      44.279915165923     100.000000000000
      2932   14       97.343733594441      45.982988821949     100.000000000000
      2933   14       94.393923490813      47.686062477977     100.000000000000
      2934   14       97.343733594441      49.389136144926     100.000000000000
      2935   14       94.393923490813      51.092209800953     100.000000000000
      2936   14       97.343733594441      52.795283467902     100.000000000000
      2937   14      100.293543708990      40.873767842947     100.000000000000
      2938   14      103.243353812617      42.576841498974     100.000000000000
      2939   14      100.293543708990      44.279915165923     100.000000000000
      2940   14      103.243353812617      45.982988821949     100.000000000000
      2941   14      100.293543708990      47.686062477977     100.000000000000
      2942   14      103.243353812617      49.389136144926     100.000000000000
      2943   14      100.293543708990      51.092209800953     100.000000000000
      2944   14      103.243353812617      52.795283467902     100.000000000000
      2945   13       95.377193521715      56.201430779956     100.000000000000
      2946   13       98.327003636264      54.498357123929     100.000000000000
      2947   13       95.377193521715      59.607578102932     100.000000000000
      2948   13       98.327003636264      57.904504446905     100.000000000000
      2949   13       95.377193521715      63.013725425908     100.000000000000
      2950   13       98.327003636264      61.310651758959     100.000000000000
      2951   13       95.377193521715      66.419872748885     100.000000000000
      2952   13       98.327003636264      64.716799081935     100.000000000000
      2953   13      101.276813739892      56.201430779956     100.000000000000
      2954   13      104.226623854440      54.498357123929     100.000000000000
      2955   13      101.276813739892      59.607578102932     100.000000000000
      2956   13      104.226623854440      57.904504446905     100.000000000000
      2957   13      101.276813739892      63.013725425908     100.000000000000
      2958   13      104.226623854440      61.310651758959     100.000000000000
      2959   13      101.276813739892      66.419872748885     100.000000000000
      2960   13      104.226623854440      64.716799081935     100.000000000000
      2961   14       94.393923490813      54.498357123929     100.000000000000
      2962   14       97.343733594441      56.201430779956     100.000000000000
      2963   14       94.393923490813      57.904504446905     100.000000000000
      2964   14       97.343733594441      59.607578102932     100.000000000000
      2965   14       94.393923490813      61.310651758959     100.000000000000
      2966   14       97.343733594441      63.013725425908     100.000000000000
      2967   14       94.393923490813      64.716799081935     100.000000000000
      2968   14       97.343733594441      66.419872748885     100.000000000000
      2969   14      100.293543708990      54.498357123929     100.000000000000
      2970   14      103.243353812617      56.201430779956     100.000000000000
      2971   14      100.293543708990      57.904504446905     100.000000000000
      2972   14      103.243353812617      59.607578102932     100.000000000000
      2973   14      100.293543708990      61.310651758959     100.000000000000
      2974   14      103.243353812617      63.013725425908     100.000000000000
      2975   14      100.293543708990      64.716799081935     100.000000000000
      2976   14      103.243353812617      66.419872748885     100.000000000000
      2977   13       95.377193521715      69.826020060938     100.000000000000
      2978   13       98.327003636264      68.122946404911     100.000000000000
      2979   13       95.377193521715      73.232167383914     100.000000000000
      2980   13       98.327003636264      71.529093727887     100.000000000000
      2981   13       95.377193521715      76.638314706890     100.000000000000
      2982   13       98.327003636264      74.935241039941     100.000000000000
      2983   13       95.377193521715      80.044462029867     100.000000000000
      2984   13       98.327003636264      78.341388362918     100.000000000000
      2985   13      101.276813739892      69.826020060938     100.000000000000
      2986   13      104.226623854440      68.122946404911     100.000000000000
      2987   13      101.276813739892      73.232167383914     100.000000000000
      2988   13      104.226623854440      71.529093727887     100.000000000000
      2989   13      101.276813739892      76.638314706890     100.000000000000
      2990   13      104.226623854440      74.935241039941     100.000000000000
      2991   13      101.276813739892      80.044462029867     100.000000000000
      2992   13      104.226623854440      78.341388362918     100.000000000000
      2993   14       94.393923490813      68.122946404911     100.000000000000
      2994   14       97.343733594441      69.826020060938     100.000000000000
      2995   14       94.393923490813      71.529093727887     100.000000000000
      2996   14       97.343733594441      73.232167383914     100.000000000000
      2997   14       94.393923490813      74.935241039941     100.000000000000
      2998   14       97.343733594441      76.638314706890     100.000000000000
      2999   14       94.393923490813      78.341388362918     100.000000000000
      3000   14       97.343733594441      80.044462029867     100.000000000000
      3001   14      100.293543708990      68.122946404911     100.000000000000
      3002   14      103.243353812617      69.826020060938     100.000000000000
      3003   14      100.293543708990      71.529093727887     100.000000000000
      3004   14      103.243353812617      73.232167383914     100.000000000000
      3005   14      100.293543708990      74.935241039941     100.000000000000
      3006   14      103.243353812617      76.638314706890     100.000000000000
      3007   14      100.293543708990      78.341388362918     100.000000000000
      3008   14      103.243353812617      80.044462029867     100.000000000000
      3009   13       95.377193521715      83.450609341920     100.000000000000
      3010   13       98.327003636264      81.747535685893     100.000000000000
      3011   13       95.377193521715      86.856756664896     100.000000000000
      3012   13       98.327003636264      85.153683008870     100.000000000000
      3013   13       95.377193521715      90.262903987872     100.000000000000
      3014   13       98.327003636264      88.559830320923     100.000000000000
      3015   13       95.377193521715      93.669051310849     100.000000000000
      3016   13       98.327003636264      91.965977643900     100.000000000000
      3017   13      101.276813739892      83.450609341920     100.000000000000
      3018   13      104.226623854440      81.747535685893     100.000000000000
      3019   13      101.276813739892      86.856756664896     100.000000000000
      3020   13      104.226623854440      85.153683008870     100.000000000000
      3021   13      101.276813739892      90.262903987872     100.000000000000
      3022   13      104.226623854440      88.559830320923     100.000000000000
      3023   13      101.276813739892      93.669051310849     100.000000000000
      3024   13      104.226623854440      91.965977643900     100.000000000000
      3025   14       94.393923490813      81.747535685893     100.000000000000
      3026   14       97.343733594441      83.450609341920     100.000000000000
      3027   14       94.393923490813      85.153683008870     100.000000000000
      3028   14       97.343733594441      86.856756664896     100.000000000000
      3029   14       94.393923490813      88.559830320923     100.000000000000
      3030   14       97.343733594441      90.262903987872     100.000000000000
      3031   14       94.393923490813      91.965977643900     100.000000000000
      3032   14       97.343733594441      93.669051310849     100.000000000000
      3033   14      100.293543708990      81.747535685893     100.000000000000
      3034   14      103.243353812617      83.450609341920     100.000000000000
      3035   14      100.293543708990      85.153683008870     100.000000000000
      3036   14      103.243353812617      86.856756664896     100.000000000000
      3037   14      100.293543708990      88.559830320923     100.000000000000
      3038   14      103.243353812617      90.262903987872     100.000000000000
      3039   14      100.293543708990      91.965977643900     100.000000000000
      3040   14      103.243353812617      93.669051310849     100.000000000000
      3041   13       95.377193521715      97.075198622903     100.000000000000
      3042   13       98.327003636264      95.372124966875     100.000000000000
      3043   13       95.377193521715     100.481345945878     100.000000000000
      3044   13       98.327003636264      98.778272289852     100.000000000000
      3045   13       95.377193521715     103.887493268855     100.000000000000
      3046   13       98.327003636264     102.184419601906     100.000000000000
      3047   13       95.377193521715     107.293640591831     100.000000000000
      3048   13       98.327003636264     105.590566924882     100.000000000000
      3049   13      101.276813739892      97.075198622903     100.000000000000
      3050   13      104.226623854440      95.372124966875     100.000000000000
      3051   13      101.276813739892     100.481345945878     100.000000000000
      3052   13      104.226623854440      98.778272289852     100.000000000000
      3053   13      101.276813739892     103.887493268855     100.000000000000
      3054   13      104.226623854440     102.184419601906     100.000000000000
      3055   13      101.276813739892     107.293640591831     100.000000000000
      3056   13      104.226623854440     105.590566924882     100.000000000000
      3057   14       94.393923490813      95.372124966875     100.000000000000
      3058   14       97.343733594441      97.075198622903     100.000000000000
      3059   14       94.393923490813      98.778272289852     100.000000000000
      3060   14       97.343733594441     100.481345945878     100.000000000000
      3061   14       94.393923490813     102.184419601906     100.000000000000
      3062   14       97.343733594441     103.887493268855     100.000000000000
      3063   14       94.393923490813     105.590566924882     100.000000000000
      3064   14       97.343733594441     107.293640591831     100.000000000000
      3065   14      100.293543708990      95.372124966875     100.000000000000
      3066   14      103.243353812617      97.075198622903     100.000000000000
      3067   14      100.293543708990      98.778272289852     100.000000000000
      3068   14      103.243353812617     100.481345945878     100.000000000000
      3069   14      100.293543708990     102.184419601906     100.000000000000
      3070   14      103.243353812617     103.887493268855     100.000000000000
      3071   14      100.293543708990     105.590566924882     100.000000000000
      3072   14      103.243353812617     107.293640591831     100.000000000000
      3073   13       95.377193521715     110.699787903885     100.000000000000
      3074   13       98.327003636264     108.996714247857     100.000000000000
      3075   13       95.377193521715     114.105935226860     100.000000000000
      3076   13       98.327003636264     112.402861570834     100.000000000000
      3077   13       95.377193521715     117.512082549837     100.000000000000
      3078   13       98.327003636264     115.809008882888     100.000000000000
      3079   13       95.377193521715     120.918229872813     100.000000000000
      3080   13       98.327003636264     119.215156205864     100.000000000000
      3081   13      101.276813739892     110.699787903885     100.000000000000
      3082   13      104.226623854440     108.996714247857     100.000000000000
      3083   13      101.276813739892     114.105935226860     100.000000000000
      3084   13      104.226623854440     112.402861570834     100.000000000000
      3085   13      101.276813739892     117.512082549837     100.000000000000
      3086   13      104.226623854440     115.809008882888     100.000000000000
      3087   13      101.276813739892     120.918229872813     100.000000000000
      3088   13      104.226623854440     119.215156205864     100.000000000000
      3089   14       94.393923490813     108.996714247857     100.000000000000
      3090   14       97.343733594441     110.699787903885     100.000000000000
      3091   14       94.393923490813     112.402861570834     100.000000000000
      3092   14       97.343733594441     114.105935226860     100.000000000000
      3093   14       94.393923490813     115.809008882888     100.000000000000
      3094   14       97.343733594441     117.512082549837     100.000000000000
      3095   14       94.393923490813     119.215156205864     100.000000000000
      3096   14       97.343733594441     120.918229872813     100.000000000000
      3097   14      100.293543708990     108.996714247857     100.000000000000
      3098   14      103.243353812617     110.699787903885     100.000000000000
      3099   14      100.293543708990     112.402861570834     100.000000000000
      3100   14      103.243353812617     114.105935226860     100.000000000000
      3101   14      100.293543708990     115.809008882888     100.000000000000
      3102   14      103.243353812617     117.512082549837     100.000000000000
      3103   14      100.293543708990     119.215156205864     100.000000000000
      3104   14      103.243353812617     120.918229872813     100.000000000000
      3105   13       95.377193521715     124.324377184867     100.000000000000
      3106   13       98.327003636264     122.621303528840     100.000000000000
      3107   13       95.377193521715     127.730524507842     100.000000000000
      3108   13       98.327003636264     126.027450851816     100.000000000000
      3109   13       95.377193521715     131.136671830819     100.000000000000
      3110   13       98.327003636264     129.433598163870     100.000000000000
      3111   13       95.377193521715     134.542819153795     100.000000000000
      3112   13       98.327003636264     132.839745486846     100.000000000000
      3113   13      101.276813739892     124.324377184867     100.000000000000
      3114   13      104.226623854440     122.621303528840     100.000000000000
      3115   13      101.276813739892     127.730524507842     100.000000000000
      3116   13      104.226623854440     126.027450851816     100.000000000000
      3117   13      101.276813739892     131.136671830819     100.000000000000
      3118   13      104.226623854440     129.433598163870     100.000000000000
      3119   13      101.276813739892     134.542819153795     100.000000000000
      3120   13      104.226623854440     132.839745486846     100.000000000000
      3121   14       94.393923490813     122.621303528840     100.000000000000
      3122   14       97.343733594441     124.324377184867     100.000000000000
      3123   14       94.393923490813     126.027450851816     100.000000000000
      3124   14       97.343733594441     127.730524507842     100.000000000000
      3125   14       94.393923490813     129.433598163870     100.000000000000
      3126   14       97.343733594441     131.136671830819     100.000000000000
      3127   14       94.393923490813     132.839745486846     100.000000000000
      3128   14       97.343733594441     134.542819153795     100.000000000000
      3129   14      100.293543708990     122.621303528840     100.000000000000
      3130   14      103.243353812617     124.324377184867     100.000000000000
      3131   14      100.293543708990     126.027450851816     100.000000000000
      3132   14      103.243353812617     127.730524507842     100.000000000000
      3133   14      100.293543708990     129.433598163870     100.000000000000
      3134   14      103.243353812617     131.136671830819     100.000000000000
      3135   14      100.293543708990     132.839745486846     100.000000000000
      3136   14      103.243353812617     134.542819153795     100.000000000000
      3137   13       95.377193521715     137.948966465849     100.000000000000
      3138   13       98.327003636264     136.245892809822     100.000000000000
      3139   13       95.377193521715     141.355113788825     100.000000000000
      3140   13       98.327003636264     139.652040132798     100.000000000000
      3141   13       95.377193521715     144.761261111801     100.000000000000
      3142   13       98.327003636264     143.058187444852     100.000000000000
      3143   13       95.377193521715     148.167408434778     100.000000000000
      3144   13       98.327003636264     146.464334767829     100.000000000000
      3145   13      101.276813739892     137.948966465849     100.000000000000
      3146   13      104.226623854440     136.245892809822     100.000000000000
      3147   13      101.276813739892     141.355113788825     100.000000000000
      3148   13      104.226623854440     139.652040132798     100.000000000000
      3149   13      101.276813739892     144.761261111801     100.000000000000
      3150   13      104.226623854440     143.058187444852     100.000000000000
      3151   13      101.276813739892     148.167408434778     100.000000000000
      3152   13      104.226623854440     146.464334767829     100.000000000000
      3153   14       94.393923490813     136.245892809822     100.000000000000
      3154   14       97.343733594441     137.948966465849     100.000000000000
      3155   14       94.393923490813     139.652040132798     100.000000000000
      3156   14       97.343733594441     141.355113788825     100.000000000000
      3157   14       94.393923490813     143.058187444852     100.000000000000
      3158   14       97.343733594441     144.761261111801     100.000000000000
      3159   14       94.393923490813     146.464334767829     100.000000000000
      3160   14       97.343733594441     148.167408434778     100.000000000000
      3161   14      100.293543708990     136.245892809822     100.000000000000
      3162   14      103.243353812617     137.948966465849     100.000000000000
      3163   14      100.293543708990     139.652040132798     100.000000000000
      3164   14      103.243353812617     141.355113788825     100.000000000000
      3165   14      100.293543708990     143.058187444852     100.000000000000
      3166   14      103.243353812617     144.761261111801     100.000000000000
      3167   14      100.293543708990     146.464334767829     100.000000000000
      3168   14      103.243353812617     148.167408434778     100.000000000000
      3169   13      107.176433958067       1.703073656027     100.000000000000
      3170   13      110.126244072616       0.000000000000     100.000000000000
      3171   13      107.176433958067       5.109220979003     100.000000000000
      3172   13      110.126244072616       3.406147322976     100.000000000000
      3173   13      107.176433958067       8.515368301979     100.000000000000
      3174   13      110.126244072616       6.812294635030     100.000000000000
      3175   13      107.176433958067      11.921515624956     100.000000000000
      3176   13      110.126244072616      10.218441958007     100.000000000000
      3177   13      113.076054176243       1.703073656027     100.000000000000
      3178   13      116.025864290791       0.000000000000     100.000000000000
      3179   13      113.076054176243       5.109220979003     100.000000000000
      3180   13      116.025864290791       3.406147322976     100.000000000000
      3181   13      113.076054176243       8.515368301979     100.000000000000
      3182   13      116.025864290791       6.812294635030     100.000000000000
      3183   13      113.076054176243      11.921515624956     100.000000000000
      3184   13      116.025864290791      10.218441958007     100.000000000000
      3185   14      106.193163927165       0.000000000000     100.000000000000
      3186   14      109.142974030792       1.703073656027     100.000000000000
      3187   14      106.193163927165       3.406147322976     100.000000000000
      3188   14      109.142974030792       5.109220979003     100.000000000000
      3189   14      106.193163927165       6.812294635030     100.000000000000
      3190   14      109.142974030792       8.515368301979     100.000000000000
      3191   14      106.193163927165      10.218441958007     100.000000000000
      3192   14      109.142974030792      11.921515624956     100.000000000000
      3193   14      112.092784145341       0.000000000000     100.000000000000
      3194   14      115.042594248969       1.703073656027     100.000000000000
      3195   14      112.092784145341       3.406147322976     100.000000000000
      3196   14      115.042594248969       5.109220979003     100.000000000000
      3197   14      112.092784145341       6.812294635030     100.000000000000
      3198   14      115.042594248969       8.515368301979     100.000000000000
      3199   14      112.092784145341      10.218441958007     100.000000000000
      3200   14      115.042594248969      11.921515624956     100.000000000000
      3201   13      107.176433958067      15.327662937010     100.000000000000
      3202   13      110.126244072616      13.624589280982     100.000000000000
      3203   13      107.176433958067      18.733810259985     100.000000000000
      3204   13      110.126244072616      17.030736603959     100.000000000000
      3205   13      107.176433958067      22.139957582962     100.000000000000
      3206   13      110.126244072616      20.436883916012     100.000000000000
      3207   13      107.176433958067      25.546104905938     100.000000000000
      3208   13      110.126244072616      23.843031238989     100.000000000000
      3209   13      113.076054176243      15.327662937010     100.000000000000
      3210   13      116.025864290791      13.624589280982     100.000000000000
      3211   13      113.076054176243      18.733810259985     100.000000000000
      3212   13      116.025864290791      17.030736603959     100.000000000000
      3213   13      113.076054176243      22.139957582962     100.000000000000
      3214   13      116.025864290791      20.436883916012     100.000000000000
      3215   13      113.076054176243      25.546104905938     100.000000000000
      3216   13      116.025864290791      23.843031238989     100.000000000000
      3217   14      106.193163927165      13.624589280982     100.000000000000
      3218   14      109.142974030792      15.327662937010     100.000000000000
      3219   14      106.193163927165      17.030736603959     100.000000000000
      3220   14      109.142974030792      18.733810259985     100.000000000000
      3221   14      106.193163927165      20.436883916012     100.000000000000
      3222   14      109.142974030792      22.139957582962     100.000000000000
      3223   14      106.193163927165      23.843031238989     100.000000000000
      3224   14      109.142974030792      25.546104905938     100.000000000000
      3225   14      112.092784145341      13.624589280982     100.000000000000
      3226   14      115.042594248969      15.327662937010     100.000000000000
      3227   14      112.092784145341      17.030736603959     100.000000000000
      3228   14      115.042594248969      18.733810259985     100.000000000000
      3229   14      112.092784145341      20.436883916012     100.000000000000
      3230   14      115.042594248969      22.139957582962     100.000000000000
      3231   14      112.092784145341      23.843031238989     100.000000000000
      3232   14      115.042594248969      25.546104905938     100.000000000000
      3233   13      107.176433958067      28.952252217992     100.000000000000
      3234   13      110.126244072616      27.249178561964     100.000000000000
      3235   13      107.176433958067      32.358399540967     100.000000000000
      3236   13      110.126244072616      30.655325884941     100.000000000000
      3237   13      107.176433958067      35.764546863944     100.000000000000
      3238   13      110.126244072616      34.061473196995     100.000000000000
      3239   13      107.176433958067      39.170694186920     100.000000000000
      3240   13      110.126244072616      37.467620519971     100.000000000000
      3241   13      113.076054176243      28.952252217992     100.000000000000
      3242   13      116.025864290791      27.249178561964     100.000000000000
      3243   13      113.076054176243      32.358399540967     100.000000000000
      3244   13      116.025864290791      30.655325884941     100.000000000000
      3245   13      113.076054176243      35.764546863944     100.000000000000
      3246   13      116.025864290791      34.061473196995     100.000000000000
      3247   13      113.076054176243      39.170694186920     100.000000000000
      3248   13      116.025864290791      37.467620519971     100.000000000000
      3249   14      106.193163927165      27.249178561964     100.000000000000
      3250   14      109.142974030792      28.952252217992     100.000000000000
      3251   14      106.193163927165      30.655325884941     100.000000000000
      3252   14      109.142974030792      32.358399540967     100.000000000000
      3253   14      106.193163927165      34.061473196995     100.000000000000
      3254   14      109.142974030792      35.764546863944     100.000000000000
      3255   14      106.193163927165      37.467620519971     100.000000000000
      3256   14      109.142974030792      39.170694186920     100.000000000000
      3257   14      112.092784145341      27.249178561964     100.000000000000
      3258   14      115.042594248969      28.952252217992     100.000000000000
      3259   14      112.092784145341      30.655325884941     100.000000000000
      3260   14      115.042594248969      32.358399540967     100.000000000000
      3261   14      112.092784145341      34.061473196995     100.000000000000
      3262   14      115.042594248969      35.764546863944     100.000000000000
      3263   14      112.092784145341      37.467620519971     100.000000000000
      3264   14      115.042594248969      39.170694186920     100.000000000000
      3265   13      107.176433958067      42.576841498974     100.000000000000
      3266   13      110.126244072616      40.873767842947     100.000000000000
      3267   13      107.176433958067      45.982988821949     100.000000000000
      3268   13      110.126244072616      44.279915165923     100.000000000000
      3269   13      107.176433958067      49.389136144926     100.000000000000
      3270   13      110.126244072616      47.686062477977     100.000000000000
      3271   13      107.176433958067      52.795283467902     100.000000000000
      3272   13      110.126244072616      51.092209800953     100.000000000000
      3273   13      113.076054176243      42.576841498974     100.000000000000
      3274   13      116.025864290791      40.873767842947     100.000000000000
      3275   13      113.076054176243      45.982988821949     100.000000000000
      3276   13      116.025864290791      44.279915165923     100.000000000000
      3277   13      113.076054176243      49.389136144926     100.000000000000
      3278   13      116.025864290791      47.686062477977     100.000000000000
      3279   13      113.076054176243      52.795283467902     100.000000000000
      3280   13      116.025864290791      51.092209800953     100.000000000000
      3281   14      106.193163927165      40.873767842947     100.000000000000
      3282   14      109.142974030792      42.576841498974     100.000000000000
      3283   14      106.193163927165      44.279915165923     100.000000000000
      3284   14      109.142974030792      45.982988821949     100.000000000000
      3285   14      106.193163927165      47.686062477977     100.000000000000
      3286   14      109.142974030792      49.389136144926     100.000000000000
      3287   14      106.193163927165      51.092209800953     100.000000000000
      3288   14      109.142974030792      52.795283467902     100.000000000000
      3289   14      112.092784145341      40.873767842947     100.000000000000
      3290   14      115.042594248969      42.576841498974     100.000000000000
      3291   14      112.092784145341      44.279915165923     100.000000000000
      3292   14      115.042594248969      45.982988821949     100.000000000000
      3293   14      112.092784145341      47.686062477977     100.000000000000
      3294   14      115.042594248969      49.389136144926     100.000000000000
      3295   14      112.092784145341      51.092209800953     100.000000000000
      3296   14      115.042594248969      52.795283467902     100.000000000000
      3297   13      107.176433958067      56.201430779956     100.000000000000
      3298   13      110.126244072616      54.498357123929     100.000000000000
      3299   13      107.176433958067      59.607578102932     100.000000000000
      3300   13      110.126244072616      57.904504446905     100.000000000000
      3301   13      107.176433958067      63.013725425908     100.000000000000
      3302   13      110.126244072616      61.310651758959     100.000000000000
      3303   13      107.176433958067      66.419872748885     100.000000000000
      3304   13      110.126244072616      64.716799081935     100.000000000000
      3305   13      113.076054176243      56.201430779956     100.000000000000
      3306   13      116.025864290791      54.498357123929     100.000000000000
      3307   13      113.076054176243      59.607578102932     100.000000000000
      3308   13      116.025864290791      57.904504446905     100.000000000000
      3309   13      113.076054176243      63.013725425908     100.000000000000
      3310   13      116.025864290791      61.310651758959     100.000000000000
      3311   13      113.076054176243      66.419872748885     100.000000000000
      3312   13      116.025864290791      64.716799081935     100.000000000000
      3313   14      106.193163927165      54.498357123929     100.000000000000
      3314   14      109.142974030792      56.201430779956     100.000000000000
      3315   14      106.193163927165      57.904504446905     100.000000000000
      3316   14      109.142974030792      59.607578102932     100.000000000000
      3317   14      106.193163927165      61.310651758959     100.000000000000
      3318   14      109.142974030792      63.013725425908     100.000000000000
      3319   14      106.193163927165      64.716799081935     100.000000000000
      3320   14      109.142974030792      66.419872748885     100.000000000000
      3321   14      112.092784145341      54.498357123929     100.000000000000
      3322   14      115.042594248969      56.201430779956     100.000000000000
      3323   14      112.092784145341      57.904504446905     100.000000000000
      3324   14      115.042594248969      59.607578102932     100.000000000000
      3325   14      112.092784145341      61.310651758959     100.000000000000
      3326   14      115.042594248969      63.013725425908     100.000000000000
      3327   14      112.092784145341      64.716799081935     100.000000000000
      3328   14      115.042594248969      66.419872748885     100.000000000000
      3329   13      107.176433958067      69.826020060938     100.000000000000
      3330   13      110.126244072616      68.122946404911     100.000000000000
      3331   13      107.176433958067      73.232167383914     100.000000000000
      3332   13      110.126244072616      71.529093727887     100.000000000000
      3333   13      107.176433958067      76.638314706890     100.000000000000
      3334   13      110.126244072616      74.935241039941     100.000000000000
      3335   13      107.176433958067      80.044462029867     100.000000000000
      3336   13      110.126244072616      78.341388362918     100.000000000000
      3337   13      113.076054176243      69.826020060938     100.000000000000
      3338   13      116.025864290791      68.122946404911     100.000000000000
      3339   13      113.076054176243      73.232167383914     100.000000000000
      3340   13      116.025864290791      71.529093727887     100.000000000000
      3341   13      113.076054176243      76.638314706890     100.000000000000
      3342   13      116.025864290791      74.935241039941     100.000000000000
      3343   13      113.076054176243      80.044462029867     100.000000000000
      3344   13      116.025864290791      78.341388362918     100.000000000000
      3345   14      106.193163927165      68.122946404911     100.000000000000
      3346   14      109.142974030792      69.826020060938     100.000000000000
      3347   14      106.193163927165      71.529093727887     100.000000000000
      3348   14      109.142974030792      73.232167383914     100.000000000000
      3349   14      106.193163927165      74.935241039941     100.000000000000
      3350   14      109.142974030792      76.638314706890     100.000000000000
      3351   14      106.193163927165      78.341388362918     100.000000000000
      3352   14      109.142974030792      80.044462029867     100.000000000000
      3353   14      112.092784145341      68.122946404911     100.000000000000
      3354   14      115.042594248969      69.826020060938     100.000000000000
      3355   14      112.092784145341      71.529093727887     100.000000000000
      3356   14      115.042594248969      73.232167383914     100.000000000000
      3357   14      112.092784145341      74.935241039941     100.000000000000
      3358   14      115.042594248969      76.638314706890     100.000000000000
      3359   14      112.092784145341      78.341388362918     100.000000000000
      3360   14      115.042594248969      80.044462029867     100.000000000000
      3361   13      107.176433958067      83.450609341920     100.000000000000
      3362   13      110.126244072616      81.747535685893     100.000000000000
      3363   13      107.176433958067      86.856756664896     100.000000000000
      3364   13      110.126244072616      85.153683008870     100.000000000000
      3365   13      107.176433958067      90.262903987872     100.000000000000
      3366   13      110.126244072616      88.559830320923     100.000000000000
      3367   13      107.176433958067      93.669051310849     100.000000000000
      3368   13      110.126244072616      91.965977643900     100.000000000000
      3369   13      113.076054176243      83.450609341920     100.000000000000
      3370   13      116.025864290791      81.747535685893     100.000000000000
      3371   13      113.076054176243      86.856756664896     100.000000000000
      3372   13      116.025864290791      85.153683008870     100.000000000000
      3373   13      113.076054176243      90.262903987872     100.000000000000
      3374   13      116.025864290791      88.559830320923     100.000000000000
      3375   13      113.076054176243      93.669051310849     100.000000000000
      3376   13      116.025864290791      91.965977643900     100.000000000000
      3377   14      106.193163927165      81.747535685893     100.000000000000
      3378   14      109.142974030792      83.450609341920     100.000000000000
      3379   14      106.193163927165      85.153683008870     100.000000000000
      3380   14      109.142974030792      86.856756664896     100.000000000000
      3381   14      106.193163927165      88.559830320923     100.000000000000
      3382   14      109.142974030792      90.262903987872     100.000000000000
      3383   14      106.193163927165      91.965977643900     100.000000000000
      3384   14      109.142974030792      93.669051310849     100.000000000000
      3385   14      112.092784145341      81.747535685893     100.000000000000
      3386   14      115.042594248969      83.450609341920     100.000000000000
      3387   14      112.092784145341      85.153683008870     100.000000000000
      3388   14      115.042594248969      86.856756664896     100.000000000000
      3389   14      112.092784145341      88.559830320923     100.000000000000
      3390   14      115.042594248969      90.262903987872     100.000000000000
      3391   14      112.092784145341      91.965977643900     100.000000000000
      3392   14      115.042594248969      93.669051310849     100.000000000000
      3393   13      107.176433958067      97.075198622903     100.000000000000
      3394   13      110.126244072616      95.372124966875     100.000000000000
      3395   13      107.176433958067     100.481345945878     100.000000000000
      3396   13      110.126244072616      98.778272289852     100.000000000000
      3397   13      107.176433958067     103.887493268855     100.000000000000
      3398   13      110.126244072616     102.184419601906     100.000000000000
      3399   13      107.176433958067     107.293640591831     100.000000000000
      3400   13      110.126244072616     105.590566924882     100.000000000000
      3401   13      113.076054176243      97.075198622903     100.000000000000
      3402   13      116.025864290791      95.372124966875     100.000000000000
      3403   13      113.076054176243     100.481345945878     100.000000000000
      3404   13      116.025864290791      98.778272289852     100.000000000000
      3405   13      113.076054176243     103.887493268855     100.000000000000
      3406   13      116.025864290791     102.184419601906     100.000000000000
      3407   13      113.076054176243     107.293640591831     100.000000000000
      3408   13      116.025864290791     105.590566924882     100.000000000000
      3409   14      106.193163927165      95.372124966875     100.000000000000
      3410   14      109.142974030792      97.075198622903     100.000000000000
      3411   14      106.193163927165      98.778272289852     100.000000000000
      3412   14      109.142974030792     100.481345945878     100.000000000000
      3413   14      106.193163927165     102.184419601906     100.000000000000
      3414   14      109.142974030792     103.887493268855     100.000000000000
      3415   14      106.193163927165     105.590566924882     100.000000000000
      3416   14      109.142974030792     107.293640591831     100.000000000000
      3417   14      112.092784145341      95.372124966875     100.000000000000
      3418   14      115.042594248969      97.075198622903     100.000000000000
      3419   14      112.092784145341      98.778272289852     100.000000000000
      3420   14      115.042594248969     100.481345945878     100.000000000000
      3421   14      112.092784145341     102.184419601906     100.000000000000
      3422   14      115.042594248969     103.887493268855     100.000000000000
      3423   14      112.092784145341     105.590566924882     100.000000000000
      3424   14      115.042594248969     107.293640591831     100.000000000000
      3425   13      107.176433958067     110.699787903885     100.000000000000
      3426   13      110.126244072616     108.996714247857     100.000000000000
      3427   13      107.176433958067     114.105935226860     100.000000000000
      3428   13      110.126244072616     112.402861570834     100.000000000000
      3429   13      107.176433958067     117.512082549837     100.000000000000
      3430   13      110.126244072616     115.809008882888     100.000000000000
      3431   13      107.176433958067     120.918229872813     100.000000000000
      3432   13      110.126244072616     119.215156205864     100.000000000000
      3433   13      113.076054176243     110.699787903885     100.000000000000
      3434   13      116.025864290791     108.996714247857     100.000000000000
      3435   13      113.076054176243     114.105935226860     100.000000000000
      3436   13      116.025864290791     112.402861570834     100.000000000000
      3437   13      113.076054176243     117.512082549837     100.000000000000
      3438   13      116.025864290791     115.809008882888     100.000000000000
      3439   13      113.076054176243     120.918229872813     100.000000000000
      3440   13      116.025864290791     119.215156205864     100.000000000000
      3441   14      106.193163927165     108.996714247857     100.000000000000
      3442   14      109.142974030792     110.699787903885     100.000000000000
      3443   14      106.193163927165     112.402861570834     100.000000000000
      3444   14      109.142974030792     114.105935226860     100.000000000000
      3445   14      106.193163927165     115.809008882888     100.000000000000
      3446   14      109.142974030792     117.512082549837     100.000000000000
      3447   14      106.193163927165     119.215156205864     100.000000000000
      3448   14      109.142974030792     120.918229872813     100.000000000000
      3449   14      112.092784145341     108.996714247857     100.000000000000
      3450   14      115.042594248969     110.699787903885     100.000000000000
      3451   14      112.092784145341     112.402861570834     100.000000000000
      3452   14      115.042594248969     114.105935226860     100.000000000000
      3453   14      112.092784145341     115.809008882888     100.000000000000
      3454   14      115.042594248969     117.512082549837     100.000000000000
      3455   14      112.092784145341     119.215156205864     100.000000000000
      3456   14      115.042594248969     120.918229872813     100.000000000000
      3457   13      107.176433958067     124.324377184867     100.000000000000
      3458   13      110.126244072616     122.621303528840     100.000000000000
      3459   13      107.176433958067     127.730524507842     100.000000000000
      3460   13      110.126244072616     126.027450851816     100.000000000000
      3461   13      107.176433958067     131.136671830819     100.000000000000
      3462   13      110.126244072616     129.433598163870     100.000000000000
      3463   13      107.176433958067     134.542819153795     100.000000000000
      3464   13      110.126244072616     132.839745486846     100.000000000000
      3465   13      113.076054176243     124.324377184867     100.000000000000
      3466   13      116.025864290791     122.621303528840     100.000000000000
      3467   13      113.076054176243     127.730524507842     100.000000000000
      3468   13      116.025864290791     126.027450851816     100.000000000000
      3469   13      113.076054176243     131.136671830819     100.000000000000
      3470   13      116.025864290791     129.433598163870     100.000000000000
      3471   13      113.076054176243     134.542819153795     100.000000000000
      3472   13      116.025864290791     132.839745486846     100.000000000000
      3473   14      106.193163927165     122.621303528840     100.000000000000
      3474   14      109.142974030792     124.324377184867     100.000000000000
      3475   14      106.193163927165     126.027450851816     100.000000000000
      3476   14      109.142974030792     127.730524507842     100.000000000000
      3477   14      106.193163927165     129.433598163870     100.000000000000
      3478   14      109.142974030792     131.136671830819     100.000000000000
      3479   14      106.193163927165     132.839745486846     100.000000000000
      3480   14      109.142974030792     134.542819153795     100.000000000000
      3481   14      112.092784145341     122.621303528840     100.000000000000
      3482   14      115.042594248969     124.324377184867     100.000000000000
      3483   14      112.092784145341     126.027450851816     100.000000000000
      3484   14      115.042594248969     127.730524507842     100.000000000000
      3485   14      112.092784145341     129.433598163870     100.000000000000
      3486   14      115.042594248969     131.136671830819     100.000000000000
      3487   14      112.092784145341     132.839745486846     100.000000000000
      3488   14      115.042594248969     134.542819153795     100.000000000000
      3489   13      107.176433958067     137.948966465849     100.000000000000
      3490   13      110.126244072616     136.245892809822     100.000000000000
      3491   13      107.176433958067     141.355113788825     100.000000000000
      3492   13      110.126244072616     139.652040132798     100.000000000000
      3493   13      107.176433958067     144.761261111801     100.000000000000
      3494   13      110.126244072616     143.058187444852     100.000000000000
      3495   13      107.176433958067     148.167408434778     100.000000000000
      3496   13      110.126244072616     146.464334767829     100.000000000000
      3497   13      113.076054176243     137.948966465849     100.000000000000
      3498   13      116.025864290791     136.245892809822     100.000000000000
      3499   13      113.076054176243     141.355113788825     100.000000000000
      3500   13      116.025864290791     139.652040132798     100.000000000000
      3501   13      113.076054176243     144.761261111801     100.000000000000
      3502   13      116.025864290791     143.058187444852     100.000000000000
      3503   13      113.076054176243     148.167408434778     100.000000000000
      3504   13      116.025864290791     146.464334767829     100.000000000000
      3505   14      106.193163927165     136.245892809822     100.000000000000
      3506   14      109.142974030792     137.948966465849     100.000000000000
      3507   14      106.193163927165     139.652040132798     100.000000000000
      3508   14      109.142974030792     141.355113788825     100.000000000000
      3509   14      106.193163927165     143.058187444852     100.000000000000
      3510   14      109.142974030792     144.761261111801     100.000000000000
      3511   14      106.193163927165     146.464334767829     100.000000000000
      3512   14      109.142974030792     148.167408434778     100.000000000000
      3513   14      112.092784145341     136.245892809822     100.000000000000
      3514   14      115.042594248969     137.948966465849     100.000000000000
      3515   14      112.092784145341     139.652040132798     100.000000000000
      3516   14      115.042594248969     141.355113788825     100.000000000000
      3517   14      112.092784145341     143.058187444852     100.000000000000
      3518   14      115.042594248969     144.761261111801     100.000000000000
      3519   14      112.092784145341     146.464334767829     100.000000000000
      3520   14      115.042594248969     148.167408434778     100.000000000000
      3521   13      118.975674394419       1.703073656027     100.000000000000
      3522   13      121.925484508968       0.000000000000     100.000000000000
      3523   13      118.975674394419       5.109220979003     100.000000000000
      3524   13      121.925484508968       3.406147322976     100.000000000000
      3525   13      118.975674394419       8.515368301979     100.000000000000
      3526   13      121.925484508968       6.812294635030     100.000000000000
      3527   13      118.975674394419      11.921515624956     100.000000000000
      3528   13      121.925484508968      10.218441958007     100.000000000000
      3529   13      124.875294612595       1.703073656027     100.000000000000
      3530   13      127.825104727143       0.000000000000     100.000000000000
      3531   13      124.875294612595       5.109220979003     100.000000000000
      3532   13      127.825104727143       3.406147322976     100.000000000000
      3533   13      124.875294612595       8.515368301979     100.000000000000
      3534   13      127.825104727143       6.812294635030     100.000000000000
      3535   13      124.875294612595      11.921515624956     100.000000000000
      3536   13      127.825104727143      10.218441958007     100.000000000000
      3537   14      117.992404363517       0.000000000000     100.000000000000
      3538   14      120.942214467144       1.703073656027     100.000000000000
      3539   14      117.992404363517       3.406147322976     100.000000000000
      3540   14      120.942214467144       5.109220979003     100.000000000000
      3541   14      117.992404363517       6.812294635030     100.000000000000
      3542   14      120.942214467144       8.515368301979     100.000000000000
      3543   14      117.992404363517      10.218441958007     100.000000000000
      3544   14      120.942214467144      11.921515624956     100.000000000000
      3545   14      123.892024581693       0.000000000000     100.000000000000
      3546   14      126.841834685321       1.703073656027     100.000000000000
      3547   14      123.892024581693       3.406147322976     100.000000000000
      3548   14      126.841834685321       5.109220979003     100.000000000000
      3549   14      123.892024581693       6.812294635030     100.000000000000
      3550   14      126.841834685321       8.515368301979     100.000000000000
      3551   14      123.892024581693      10.218441958007     100.000000000000
      3552   14      126.841834685321      11.921515624956     100.000000000000
      3553   13      118.975674394419      15.327662937010     100.000000000000
      3554   13      121.925484508968      13.624589280982     100.000000000000
      3555   13      118.975674394419      18.733810259985     100.000000000000
      3556   13      121.925484508968      17.030736603959     100.000000000000
      3557   13      118.975674394419      22.139957582962     100.000000000000
      3558   13      121.925484508968      20.436883916012     100.000000000000
      3559   13      118.975674394419      25.546104905938     100.000000000000
      3560   13      121.925484508968      23.843031238989     100.000000000000
      3561   13      124.875294612595      15.327662937010     100.000000000000
      3562   13      127.825104727143      13.624589280982     100.000000000000
      3563   13      124.875294612595      18.733810259985     100.000000000000
      3564   13      127.825104727143      17.030736603959     100.000000000000
      3565   13      124.875294612595      22.139957582962     100.000000000000
      3566   13      127.825104727143      20.436883916012     100.000000000000
      3567   13      124.875294612595      25.546104905938     100.000000000000
      3568   13      127.825104727143      23.843031238989     100.000000000000
      3569   14      117.992404363517      13.624589280982     100.000000000000
      3570   14      120.942214467144      15.327662937010     100.000000000000
      3571   14      117.992404363517      17.030736603959     100.000000000000
      3572   14      120.942214467144      18.733810259985     100.000000000000
      3573   14      117.992404363517      20.436883916012     100.000000000000
      3574   14      120.942214467144      22.139957582962     100.000000000000
      3575   14      117.992404363517      23.843031238989     100.000000000000
      3576   14      120.942214467144      25.546104905938     100.000000000000
      3577   14      123.892024581693      13.624589280982     100.000000000000
      3578   14      126.841834685321      15.327662937010     100.000000000000
      3579   14      123.892024581693      17.030736603959     100.000000000000
      3580   14      126.841834685321      18.733810259985     100.000000000000
      3581   14      123.892024581693      20.436883916012     100.000000000000
      3582   14      126.841834685321      22.139957582962     100.000000000000
      3583   14      123.892024581693      23.843031238989     100.000000000000
      3584   14      126.841834685321      25.546104905938     100.000000000000
      3585   13      118.975674394419      28.952252217992     100.000000000000
      3586   13      121.925484508968      27.249178561964     100.000000000000
      3587   13      118.975674394419      32.358399540967     100.000000000000
      3588   13      121.925484508968      30.655325884941     100.000000000000
      3589   13      118.975674394419      35.764546863944     100.000000000000
      3590   13      121.925484508968      34.061473196995     100.000000000000
      3591   13      118.975674394419      39.170694186920     100.000000000000
      3592   13      121.925484508968      37.467620519971     100.000000000000
      3593   13      124.875294612595      28.952252217992     100.000000000000
      3594   13      127.825104727143      27.249178561964     100.000000000000
      3595   13      124.875294612595      32.358399540967     100.000000000000
      3596   13      127.825104727143      30.655325884941     100.000000000000
      3597   13      124.875294612595      35.764546863944     100.000000000000
      3598   13      127.825104727143      34.061473196995     100.000000000000
      3599   13      124.875294612595      39.170694186920     100.000000000000
      3600   13      127.825104727143      37.467620519971     100.000000000000
      3601   14      117.992404363517      27.249178561964     100.000000000000
      3602   14      120.942214467144      28.952252217992     100.000000000000
      3603   14      117.992404363517      30.655325884941     100.000000000000
      3604   14      120.942214467144      32.358399540967     100.000000000000
      3605   14      117.992404363517      34.061473196995     100.000000000000
      3606   14      120.942214467144      35.764546863944     100.000000000000
      3607   14      117.992404363517      37.467620519971     100.000000000000
      3608   14      120.942214467144      39.170694186920     100.000000000000
      3609   14      123.892024581693      27.249178561964     100.000000000000
      3610   14      126.841834685321      28.952252217992     100.000000000000
      3611   14      123.892024581693      30.655325884941     100.000000000000
      3612   14      126.841834685321      32.358399540967     100.000000000000
      3613   14      123.892024581693      34.061473196995     100.000000000000
      3614   14      126.841834685321      35.764546863944     100.000000000000
      3615   14      123.892024581693      37.467620519971     100.000000000000
      3616   14      126.841834685321      39.170694186920     100.000000000000
      3617   13      118.975674394419      42.576841498974     100.000000000000
      3618   13      121.925484508968      40.873767842947     100.000000000000
      3619   13      118.975674394419      45.982988821949     100.000000000000
      3620   13      121.925484508968      44.279915165923     100.000000000000
      3621   13      118.975674394419      49.389136144926     100.000000000000
      3622   13      121.925484508968      47.686062477977     100.000000000000
      3623   13      118.975674394419      52.795283467902     100.000000000000
      3624   13      121.925484508968      51.092209800953     100.000000000000
      3625   13      124.875294612595      42.576841498974     100.000000000000
      3626   13      127.825104727143      40.873767842947     100.000000000000
      3627   13      124.875294612595      45.982988821949     100.000000000000
      3628   13      127.825104727143      44.279915165923     100.000000000000
      3629   13      124.875294612595      49.389136144926     100.000000000000
      3630   13      127.825104727143      47.686062477977     100.000000000000
      3631   13      124.875294612595      52.795283467902     100.000000000000
      3632   13      127.825104727143      51.092209800953     100.000000000000
      3633   14      117.992404363517      40.873767842947     100.000000000000
      3634   14      120.942214467144      42.576841498974     100.000000000000
      3635   14      117.992404363517      44.279915165923     100.000000000000
      3636   14      120.942214467144      45.982988821949     100.000000000000
      3637   14      117.992404363517      47.686062477977     100.000000000000
      3638   14      120.942214467144      49.389136144926     100.000000000000
      3639   14      117.992404363517      51.092209800953     100.000000000000
      3640   14      120.942214467144      52.795283467902     100.000000000000
      3641   14      123.892024581693      40.873767842947     100.000000000000
      3642   14      126.841834685321      42.576841498974     100.000000000000
      3643   14      123.892024581693      44.279915165923     100.000000000000
      3644   14      126.841834685321      45.982988821949     100.000000000000
      3645   14      123.892024581693      47.686062477977     100.000000000000
      3646   14      126.841834685321      49.389136144926     100.000000000000
      3647   14      123.892024581693      51.092209800953     100.000000000000
      3648   14      126.841834685321      52.795283467902     100.000000000000
      3649   13      118.975674394419      56.201430779956     100.000000000000
      3650   13      121.925484508968      54.498357123929     100.000000000000
      3651   13      118.975674394419      59.607578102932     100.000000000000
      3652   13      121.925484508968      57.904504446905     100.000000000000
      3653   13      118.975674394419      63.013725425908     100.000000000000
      3654   13      121.925484508968      61.310651758959     100.000000000000
      3655   13      118.975674394419      66.419872748885     100.000000000000
      3656   13      121.925484508968      64.716799081935     100.000000000000
      3657   13      124.875294612595      56.201430779956     100.000000000000
      3658   13      127.825104727143      54.498357123929     100.000000000000
      3659   13      124.875294612595      59.607578102932     100.000000000000
      3660   13      127.825104727143      57.904504446905     100.000000000000
      3661   13      124.875294612595      63.013725425908     100.000000000000
      3662   13      127.825104727143      61.310651758959     100.000000000000
      3663   13      124.875294612595      66.419872748885     100.000000000000
      3664   13      127.825104727143      64.716799081935     100.000000000000
      3665   14      117.992404363517      54.498357123929     100.000000000000
      3666   14      120.942214467144      56.201430779956     100.000000000000
      3667   14      117.992404363517      57.904504446905     100.000000000000
      3668   14      120.942214467144      59.607578102932     100.000000000000
      3669   14      117.992404363517      61.310651758959     100.000000000000
      3670   14      120.942214467144      63.013725425908     100.000000000000
      3671   14      117.992404363517      64.716799081935     100.000000000000
      3672   14      120.942214467144      66.419872748885     100.000000000000
      3673   14      123.892024581693      54.498357123929     100.000000000000
      3674   14      126.841834685321      56.201430779956     100.000000000000
      3675   14      123.892024581693      57.904504446905     100.000000000000
      3676   14      126.841834685321      59.607578102932     100.000000000000
      3677   14      123.892024581693      61.310651758959     100.000000000000
      3678   14      126.841834685321      63.013725425908     100.000000000000
      3679   14      123.892024581693      64.716799081935     100.000000000000
      3680   14      126.841834685321      66.419872748885     100.000000000000
      3681   13      118.975674394419      69.826020060938     100.000000000000
      3682   13      121.925484508968      68.122946404911     100.000000000000
      3683   13      118.975674394419      73.232167383914     100.000000000000
      3684   13      121.925484508968      71.529093727887     100.000000000000
      3685   13      118.975674394419      76.638314706890     100.000000000000
      3686   13      121.925484508968      74.935241039941     100.000000000000
      3687   13      118.975674394419      80.044462029867     100.000000000000
      3688   13      121.925484508968      78.341388362918     100.000000000000
      3689   13      124.875294612595      69.826020060938     100.000000000000
      3690   13      127.825104727143      68.122946404911     100.000000000000
      3691   13      124.875294612595      73.232167383914     100.000000000000
      3692   13      127.825104727143      71.529093727887     100.000000000000
      3693   13      124.875294612595      76.638314706890     100.000000000000
      3694   13      127.825104727143      74.935241039941     100.000000000000
      3695   13      124.875294612595      80.044462029867     100.000000000000
      3696   13      127.825104727143      78.341388362918     100.000000000000
      3697   14      117.992404363517      68.122946404911     100.000000000000
      3698   14      120.942214467144      69.826020060938     100.000000000000
      3699   14      117.992404363517      71.529093727887     100.000000000000
      3700   14      120.942214467144      73.232167383914     100.000000000000
      3701   14      117.992404363517      74.935241039941     100.000000000000
      3702   14      120.942214467144      76.638314706890     100.000000000000
      3703   14      117.992404363517      78.341388362918     100.000000000000
      3704   14      120.942214467144      80.044462029867     100.000000000000
      3705   14      123.892024581693      68.122946404911     100.000000000000
      3706   14      126.841834685321      69.826020060938     100.000000000000
      3707   14      123.892024581693      71.529093727887     100.000000000000
      3708   14      126.841834685321      73.232167383914     100.000000000000
      3709   14      123.892024581693      74.935241039941     100.000000000000
      3710   14      126.841834685321      76.638314706890     100.000000000000
      3711   14      123.892024581693      78.341388362918     100.000000000000
      3712   14      126.841834685321      80.044462029867     100.000000000000
      3713   13      118.975674394419      83.450609341920     100.000000000000
      3714   13      121.925484508968      81.747535685893     100.000000000000
      3715   13      118.975674394419      86.856756664896     100.000000000000
      3716   13      121.925484508968      85.153683008870     100.000000000000
      3717   13      118.975674394419      90.262903987872     100.000000000000
      3718   13      121.925484508968      88.559830320923     100.000000000000
      3719   13      118.975674394419      93.669051310849     100.000000000000
      3720   13      121.925484508968      91.965977643900     100.000000000000
      3721   13      124.875294612595      83.450609341920     100.000000000000
      3722   13      127.825104727143      81.747535685893     100.000000000000
      3723   13      124.875294612595      86.856756664896     100.000000000000
      3724   13      127.825104727143      85.153683008870     100.000000000000
      3725   13      124.875294612595      90.262903987872     100.000000000000
      3726   13      127.825104727143      88.559830320923     100.000000000000
      3727   13      124.875294612595      93.669051310849     100.000000000000
      3728   13      127.825104727143      91.965977643900     100.000000000000
      3729   14      117.992404363517      81.747535685893     100.000000000000
      3730   14      120.942214467144      83.450609341920     100.000000000000
      3731   14      117.992404363517      85.153683008870     100.000000000000
      3732   14      120.942214467144      86.856756664896     100.000000000000
      3733   14      117.992404363517      88.559830320923     100.000000000000
      3734   14      120.942214467144      90.262903987872     100.000000000000
      3735   14      117.992404363517      91.965977643900     100.000000000000
      3736   14      120.942214467144      93.669051310849     100.000000000000
      3737   14      123.892024581693      81.747535685893     100.000000000000
      3738   14      126.841834685321      83.450609341920     100.000000000000
      3739   14      123.892024581693      85.153683008870     100.000000000000
      3740   14      126.841834685321      86.856756664896     100.000000000000
      3741   14      123.892024581693      88.559830320923     100.000000000000
      3742   14      126.841834685321      90.262903987872     100.000000000000
      3743   14      123.892024581693      91.965977643900     100.000000000000
      3744   14      126.841834685321      93.669051310849     100.000000000000
      3745   13      118.975674394419      97.075198622903     100.000000000000
      3746   13      121.925484508968      95.372124966875     100.000000000000
      3747   13      118.975674394419     100.481345945878     100.000000000000
      3748   13      121.925484508968      98.778272289852     100.000000000000
      3749   13      118.975674394419     103.887493268855     100.000000000000
      3750   13      121.925484508968     102.184419601906     100.000000000000
      3751   13      118.975674394419     107.293640591831     100.000000000000
      3752   13      121.925484508968     105.590566924882     100.000000000000
      3753   13      124.875294612595      97.075198622903     100.000000000000
      3754   13      127.825104727143      95.372124966875     100.000000000000
      3755   13      124.875294612595     100.481345945878     100.000000000000
      3756   13      127.825104727143      98.778272289852     100.000000000000
      3757   13      124.875294612595     103.887493268855     100.000000000000
      3758   13      127.825104727143     102.184419601906     100.000000000000
      3759   13      124.875294612595     107.293640591831     100.000000000000
      3760   13      127.825104727143     105.590566924882     100.000000000000
      3761   14      117.992404363517      95.372124966875     100.000000000000
      3762   14      120.942214467144      97.075198622903     100.000000000000
      3763   14      117.992404363517      98.778272289852     100.000000000000
      3764   14      120.942214467144     100.481345945878     100.000000000000
      3765   14      117.992404363517     102.184419601906     100.000000000000
      3766   14      120.942214467144     103.887493268855     100.000000000000
      3767   14      117.992404363517     105.590566924882     100.000000000000
      3768   14      120.942214467144     107.293640591831     100.000000000000
      3769   14      123.892024581693      95.372124966875     100.000000000000
      3770   14      126.841834685321      97.075198622903     100.000000000000
      3771   14      123.892024581693      98.778272289852     100.000000000000
      3772   14      126.841834685321     100.481345945878     100.000000000000
      3773   14      123.892024581693     102.184419601906     100.000000000000
      3774   14      126.841834685321     103.887493268855     100.000000000000
      3775   14      123.892024581693     105.590566924882     100.000000000000
      3776   14      126.841834685321     107.293640591831     100.000000000000
      3777   13      118.975674394419     110.699787903885     100.000000000000
      3778   13      121.925484508968     108.996714247857     100.000000000000
      3779   13      118.975674394419     114.105935226860     100.000000000000
      3780   13      121.925484508968     112.402861570834     100.000000000000
      3781   13      118.975674394419     117.512082549837     100.000000000000
      3782   13      121.925484508968     115.809008882888     100.000000000000
      3783   13      118.975674394419     120.918229872813     100.000000000000
      3784   13      121.925484508968     119.215156205864     100.000000000000
      3785   13      124.875294612595     110.699787903885     100.000000000000
      3786   13      127.825104727143     108.996714247857     100.000000000000
      3787   13      124.875294612595     114.105935226860     100.000000000000
      3788   13      127.825104727143     112.402861570834     100.000000000000
      3789   13      124.875294612595     117.512082549837     100.000000000000
      3790   13      127.825104727143     115.809008882888     100.000000000000
      3791   13      124.875294612595     120.918229872813     100.000000000000
      3792   13      127.825104727143     119.215156205864     100.000000000000
      3793   14      117.992404363517     108.996714247857     100.000000000000
      3794   14      120.942214467144     110.699787903885     100.000000000000
      3795   14      117.992404363517     112.402861570834     100.000000000000
      3796   14      120.942214467144     114.105935226860     100.000000000000
      3797   14      117.992404363517     115.809008882888     100.000000000000
      3798   14      120.942214467144     117.512082549837     100.000000000000
      3799   14      117.992404363517     119.215156205864     100.000000000000
      3800   14      120.942214467144     120.918229872813     100.000000000000
      3801   14      123.892024581693     108.996714247857     100.000000000000
      3802   14      126.841834685321     110.699787903885     100.000000000000
      3803   14      123.892024581693     112.402861570834     100.000000000000
      3804   14      126.841834685321     114.105935226860     100.000000000000
      3805   14      123.892024581693     115.809008882888     100.000000000000
      3806   14      126.841834685321     117.512082549837     100.000000000000
      3807   14      123.892024581693     119.215156205864     100.000000000000
      3808   14      126.841834685321     120.918229872813     100.000000000000
      3809   13      118.975674394419     124.324377184867     100.000000000000
      3810   13      121.925484508968     122.621303528840     100.000000000000
      3811   13      118.975674394419     127.730524507842     100.000000000000
      3812   13      121.925484508968     126.027450851816     100.000000000000
      3813   13      118.975674394419     131.136671830819     100.000000000000
      3814   13      121.925484508968     129.433598163870     100.000000000000
      3815   13      118.975674394419     134.542819153795     100.000000000000
      3816   13      121.925484508968     132.839745486846     100.000000000000
      3817   13      124.875294612595     124.324377184867     100.000000000000
      3818   13      127.825104727143     122.621303528840     100.000000000000
      3819   13      124.875294612595     127.730524507842     100.000000000000
      3820   13      127.825104727143     126.027450851816     100.000000000000
      3821   13      124.875294612595     131.136671830819     100.000000000000
      3822   13      127.825104727143     129.433598163870     100.000000000000
      3823   13      124.875294612595     134.542819153795     100.000000000000
      3824   13      127.825104727143     132.839745486846     100.000000000000
      3825   14      117.992404363517     122.621303528840     100.000000000000
      3826   14      120.942214467144     124.324377184867     100.000000000000
      3827   14      117.992404363517     126.027450851816     100.000000000000
      3828   14      120.942214467144     127.730524507842     100.000000000000
      3829   14      117.992404363517     129.433598163870     100.000000000000
      3830   14      120.942214467144     131.136671830819     100.000000000000
      3831   14      117.992404363517     132.839745486846     100.000000000000
      3832   14      120.942214467144     134.542819153795     100.000000000000
      3833   14      123.892024581693     122.621303528840     100.000000000000
      3834   14      126.841834685321     124.324377184867     100.000000000000
      3835   14      123.892024581693     126.027450851816     100.000000000000
      3836   14      126.841834685321     127.730524507842     100.000000000000
      3837   14      123.892024581693     129.433598163870     100.000000000000
      3838   14      126.841834685321     131.136671830819     100.000000000000
      3839   14      123.892024581693     132.839745486846     100.000000000000
      3840   14      126.841834685321     134.542819153795     100.000000000000
      3841   13      118.975674394419     137.948966465849     100.000000000000
      3842   13      121.925484508968     136.245892809822     100.000000000000
      3843   13      118.975674394419     141.355113788825     100.000000000000
      3844   13      121.925484508968     139.652040132798     100.000000000000
      3845   13      118.975674394419     144.761261111801     100.000000000000
      3846   13      121.925484508968     143.058187444852     100.000000000000
      3847   13      118.975674394419     148.167408434778     100.000000000000
      3848   13      121.925484508968     146.464334767829     100.000000000000
      3849   13      124.875294612595     137.948966465849     100.000000000000
      3850   13      127.825104727143     136.245892809822     100.000000000000
      3851   13      124.875294612595     141.355113788825     100.000000000000
      3852   13      127.825104727143     139.652040132798     100.000000000000
      3853   13      124.875294612595     144.761261111801     100.000000000000
      3854   13      127.825104727143     143.058187444852     100.000000000000
      3855   13      124.875294612595     148.167408434778     100.000000000000
      3856   13      127.825104727143     146.464334767829     100.000000000000
      3857   14      117.992404363517     136.245892809822     100.000000000000
      3858   14      120.942214467144     137.948966465849     100.000000000000
      3859   14      117.992404363517     139.652040132798     100.000000000000
      3860   14      120.942214467144     141.355113788825     100.000000000000
      3861   14      117.992404363517     143.058187444852     100.000000000000
      3862   14      120.942214467144     144.761261111801     100.000000000000
      3863   14      117.992404363517     146.464334767829     100.000000000000
      3864   14      120.942214467144     148.167408434778     100.000000000000
      3865   14      123.892024581693     136.245892809822     100.000000000000
      3866   14      126.841834685321     137.948966465849     100.000000000000
      3867   14      123.892024581693     139.652040132798     100.000000000000
      3868   14      126.841834685321     141.355113788825     100.000000000000
      3869   14      123.892024581693     143.058187444852     100.000000000000
      3870   14      126.841834685321     144.761261111801     100.000000000000
      3871   14      123.892024581693     146.464334767829     100.000000000000
      3872   14      126.841834685321     148.167408434778     100.000000000000
      3873    1        0.000000000000       0.000000000000     107.168770080000
      3874    2        0.901330861660       1.561150851358     105.609385040000
      3875    3        0.000000000000       0.000000000000     104.050000000000
      3876    4        2.703992594992       1.561150851358     107.168770080000
      3877    5        3.605323466663       0.000000000000     105.609385040000
      3878    6        2.703992594992       1.561150851358     104.050000000000
      3879    7        0.000000000000       3.122301712728     107.168770080000
      3880    8        0.901330861660       4.683452564086     105.609385040000
      3881    9        0.000000000000       3.122301712728     104.050000000000
      3882   10        2.703992594992       4.683452564086     107.168770080000
      3883   11        3.605323466663       3.122301712728     105.609385040000
      3884   12        2.703992594992       4.683452564086     104.050000000000
      3885    1        0.000000000000       6.244603415445     107.168770080000
      3886    2        0.901330861660       7.805754276814     105.609385040000
      3887    3        0.000000000000       6.244603415445     104.050000000000
      3888    4        2.703992594992       7.805754276814     107.168770080000
      3889    5        3.605323466663       6.244603415445     105.609385040000
      3890    6        2.703992594992       7.805754276814     104.050000000000
      3891    7        0.000000000000       9.366905128172     107.168770080000
      3892    8        0.901330861660      10.928055989542     105.609385040000
      3893    9        0.000000000000       9.366905128172     104.050000000000
      3894   10        2.703992594992      10.928055989542     107.168770080000
      3895   11        3.605323466663       9.366905128172     105.609385040000
      3896   12        2.703992594992      10.928055989542     104.050000000000
      3897    1        5.407985199995       0.000000000000     107.168770080000
      3898    2        6.309316061655       1.561150851358     105.609385040000
      3899    3        5.407985199995       0.000000000000     104.050000000000
      3900    4        8.111977794986       1.561150851358     107.168770080000
      3901    5        9.013308666658       0.000000000000     105.609385040000
      3902    6        8.111977794986       1.561150851358     104.050000000000
      3903    7        5.407985199995       3.122301712728     107.168770080000
      3904    8        6.309316061655       4.683452564086     105.609385040000
      3905    9        5.407985199995       3.122301712728     104.050000000000
      3906   10        8.111977794986       4.683452564086     107.168770080000
      3907   11        9.013308666658       3.122301712728     105.609385040000
      3908   12        8.111977794986       4.683452564086     104.050000000000
      3909    1        5.407985199995       6.244603415445     107.168770080000
      3910    2        6.309316061655       7.805754276814     105.609385040000
      3911    3        5.407985199995       6.244603415445     104.050000000000
      3912    4        8.111977794986       7.805754276814     107.168770080000
      3913    5        9.013308666658       6.244603415445     105.609385040000
      3914    6        8.111977794986       7.805754276814     104.050000000000
      3915    7        5.407985199995       9.366905128172     107.168770080000
      3916    8        6.309316061655      10.928055989542     105.609385040000
      3917    9        5.407985199995       9.366905128172     104.050000000000
      3918   10        8.111977794986      10.928055989542     107.168770080000
      3919   11        9.013308666658       9.366905128172     105.609385040000
      3920   12        8.111977794986      10.928055989542     104.050000000000
      3921    1        0.000000000000      12.489206840900     107.168770080000
      3922    2        0.901330861660      14.050357692259     105.609385040000
      3923    3        0.000000000000      12.489206840900     104.050000000000
      3924    4        2.703992594992      14.050357692259     107.168770080000
      3925    5        3.605323466663      12.489206840900     105.609385040000
      3926    6        2.703992594992      14.050357692259     104.050000000000
      3927    7        0.000000000000      15.611508553628     107.168770080000
      3928    8        0.901330861660      17.172659404987     105.609385040000
      3929    9        0.000000000000      15.611508553628     104.050000000000
      3930   10        2.703992594992      17.172659404987     107.168770080000
      3931   11        3.605323466663      15.611508553628     105.609385040000
      3932   12        2.703992594992      17.172659404987     104.050000000000
      3933    1        0.000000000000      18.733810256345     107.168770080000
      3934    2        0.901330861660      20.294961117714     105.609385040000
      3935    3        0.000000000000      18.733810256345     104.050000000000
      3936    4        2.703992594992      20.294961117714     107.168770080000
      3937    5        3.605323466663      18.733810256345     105.609385040000
      3938    6        2.703992594992      20.294961117714     104.050000000000
      3939    7        0.000000000000      21.856111969073     107.168770080000
      3940    8        0.901330861660      23.417262830442     105.609385040000
      3941    9        0.000000000000      21.856111969073     104.050000000000
      3942   10        2.703992594992      23.417262830442     107.168770080000
      3943   11        3.605323466663      21.856111969073     105.609385040000
      3944   12        2.703992594992      23.417262830442     104.050000000000
      3945    1        5.407985199995      12.489206840900     107.168770080000
      3946    2        6.309316061655      14.050357692259     105.609385040000
      3947    3        5.407985199995      12.489206840900     104.050000000000
      3948    4        8.111977794986      14.050357692259     107.168770080000
      3949    5        9.013308666658      12.489206840900     105.609385040000
      3950    6        8.111977794986      14.050357692259     104.050000000000
      3951    7        5.407985199995      15.611508553628     107.168770080000
      3952    8        6.309316061655      17.172659404987     105.609385040000
      3953    9        5.407985199995      15.611508553628     104.050000000000
      3954   10        8.111977794986      17.172659404987     107.168770080000
      3955   11        9.013308666658      15.611508553628     105.609385040000
      3956   12        8.111977794986      17.172659404987     104.050000000000
      3957    1        5.407985199995      18.733810256345     107.168770080000
      3958    2        6.309316061655      20.294961117714     105.609385040000
      3959    3        5.407985199995      18.733810256345     104.050000000000
      3960    4        8.111977794986      20.294961117714     107.168770080000
      3961    5        9.013308666658      18.733810256345     105.609385040000
      3962    6        8.111977794986      20.294961117714     104.050000000000
      3963    7        5.407985199995      21.856111969073     107.168770080000
      3964    8        6.309316061655      23.417262830442     105.609385040000
      3965    9        5.407985199995      21.856111969073     104.050000000000
      3966   10        8.111977794986      23.417262830442     107.168770080000
      3967   11        9.013308666658      21.856111969073     105.609385040000
      3968   12        8.111977794986      23.417262830442     104.050000000000
      3969    1        0.000000000000      24.978413681801     107.168770080000
      3970    2        0.901330861660      26.539564533159     105.609385040000
      3971    3        0.000000000000      24.978413681801     104.050000000000
      3972    4        2.703992594992      26.539564533159     107.168770080000
      3973    5        3.605323466663      24.978413681801     105.609385040000
      3974    6        2.703992594992      26.539564533159     104.050000000000
      3975    7        0.000000000000      28.100715394529     107.168770080000
      3976    8        0.901330861660      29.661866245887     105.609385040000
      3977    9        0.000000000000      28.100715394529     104.050000000000
      3978   10        2.703992594992      29.661866245887     107.168770080000
      3979   11        3.605323466663      28.100715394529     105.609385040000
      3980   12        2.703992594992      29.661866245887     104.050000000000
      3981    1        0.000000000000      31.223017097245     107.168770080000
      3982    2        0.901330861660      32.784167958615     105.609385040000
      3983    3        0.000000000000      31.223017097245     104.050000000000
      3984    4        2.703992594992      32.784167958615     107.168770080000
      3985    5        3.605323466663      31.223017097245     105.609385040000
      3986    6        2.703992594992      32.784167958615     104.050000000000
      3987    7        0.000000000000      34.345318809973     107.168770080000
      3988    8        0.901330861660      35.906469671343     105.609385040000
      3989    9        0.000000000000      34.345318809973     104.050000000000
      3990   10        2.703992594992      35.906469671343     107.168770080000
      3991   11        3.605323466663      34.345318809973     105.609385040000
      3992   12        2.703992594992      35.906469671343     104.050000000000
      3993    1        5.407985199995      24.978413681801     107.168770080000
      3994    2        6.309316061655      26.539564533159     105.609385040000
      3995    3        5.407985199995      24.978413681801     104.050000000000
      3996    4        8.111977794986      26.539564533159     107.168770080000
      3997    5        9.013308666658      24.978413681801     105.609385040000
      3998    6        8.111977794986      26.539564533159     104.050000000000
      3999    7        5.407985199995      28.100715394529     107.168770080000
      4000    8        6.309316061655      29.661866245887     105.609385040000
      4001    9        5.407985199995      28.100715394529     104.050000000000
      4002   10        8.111977794986      29.661866245887     107.168770080000
      4003   11        9.013308666658      28.100715394529     105.609385040000
      4004   12        8.111977794986      29.661866245887     104.050000000000
      4005    1        5.407985199995      31.223017097245     107.168770080000
      4006    2        6.309316061655      32.784167958615     105.609385040000
      4007    3        5.407985199995      31.223017097245     104.050000000000
      4008    4        8.111977794986      32.784167958615     107.168770080000
      4009    5        9.013308666658      31.223017097245     105.609385040000
      4010    6        8.111977794986      32.784167958615     104.050000000000
      4011    7        5.407985199995      34.345318809973     107.168770080000
      4012    8        6.309316061655      35.906469671343     105.609385040000
      4013    9        5.407985199995      34.345318809973     104.050000000000
      4014   10        8.111977794986      35.906469671343     107.168770080000
      4015   11        9.013308666658      34.345318809973     105.609385040000
      4016   12        8.111977794986      35.906469671343     104.050000000000
      4017    1        0.000000000000      37.467620522701     107.168770080000
      4018    2        0.901330861660      39.028771374059     105.609385040000
      4019    3        0.000000000000      37.467620522701     104.050000000000
      4020    4        2.703992594992      39.028771374059     107.168770080000
      4021    5        3.605323466663      37.467620522701     105.609385040000
      4022    6        2.703992594992      39.028771374059     104.050000000000
      4023    7        0.000000000000      40.589922235429     107.168770080000
      4024    8        0.901330861660      42.151073086787     105.609385040000
      4025    9        0.000000000000      40.589922235429     104.050000000000
      4026   10        2.703992594992      42.151073086787     107.168770080000
      4027   11        3.605323466663      40.589922235429     105.609385040000
      4028   12        2.703992594992      42.151073086787     104.050000000000
      4029    1        0.000000000000      43.712223938146     107.168770080000
      4030    2        0.901330861660      45.273374799515     105.609385040000
      4031    3        0.000000000000      43.712223938146     104.050000000000
      4032    4        2.703992594992      45.273374799515     107.168770080000
      4033    5        3.605323466663      43.712223938146     105.609385040000
      4034    6        2.703992594992      45.273374799515     104.050000000000
      4035    7        0.000000000000      46.834525650873     107.168770080000
      4036    8        0.901330861660      48.395676512243     105.609385040000
      4037    9        0.000000000000      46.834525650873     104.050000000000
      4038   10        2.703992594992      48.395676512243     107.168770080000
      4039   11        3.605323466663      46.834525650873     105.609385040000
      4040   12        2.703992594992      48.395676512243     104.050000000000
      4041    1        5.407985199995      37.467620522701     107.168770080000
      4042    2        6.309316061655      39.028771374059     105.609385040000
      4043    3        5.407985199995      37.467620522701     104.050000000000
      4044    4        8.111977794986      39.028771374059     107.168770080000
      4045    5        9.013308666658      37.467620522701     105.609385040000
      4046    6        8.111977794986      39.028771374059     104.050000000000
      4047    7        5.407985199995      40.589922235429     107.168770080000
      4048    8        6.309316061655      42.151073086787     105.609385040000
      4049    9        5.407985199995      40.589922235429     104.050000000000
      4050   10        8.111977794986      42.151073086787     107.168770080000
      4051   11        9.013308666658      40.589922235429     105.609385040000
      4052   12        8.111977794986      42.151073086787     104.050000000000
      4053    1        5.407985199995      43.712223938146     107.168770080000
      4054    2        6.309316061655      45.273374799515     105.609385040000
      4055    3        5.407985199995      43.712223938146     104.050000000000
      4056    4        8.111977794986      45.273374799515     107.168770080000
      4057    5        9.013308666658      43.712223938146     105.609385040000
      4058    6        8.111977794986      45.273374799515     104.050000000000
      4059    7        5.407985199995      46.834525650873     107.168770080000
      4060    8        6.309316061655      48.395676512243     105.609385040000
      4061    9        5.407985199995      46.834525650873     104.050000000000
      4062   10        8.111977794986      48.395676512243     107.168770080000
      4063   11        9.013308666658      46.834525650873     105.609385040000
      4064   12        8.111977794986      48.395676512243     104.050000000000
      4065    1        0.000000000000      49.956827363601     107.168770080000
      4066    2        0.901330861660      51.517978214960     105.609385040000
      4067    3        0.000000000000      49.956827363601     104.050000000000
      4068    4        2.703992594992      51.517978214960     107.168770080000
      4069    5        3.605323466663      49.956827363601     105.609385040000
      4070    6        2.703992594992      51.517978214960     104.050000000000
      4071    7        0.000000000000      53.079129076329     107.168770080000
      4072    8        0.901330861660      54.640279927688     105.609385040000
      4073    9        0.000000000000      53.079129076329     104.050000000000
      4074   10        2.703992594992      54.640279927688     107.168770080000
      4075   11        3.605323466663      53.079129076329     105.609385040000
      4076   12        2.703992594992      54.640279927688     104.050000000000
      4077    1        0.000000000000      56.201430779046     107.168770080000
      4078    2        0.901330861660      57.762581640415     105.609385040000
      4079    3        0.000000000000      56.201430779046     104.050000000000
      4080    4        2.703992594992      57.762581640415     107.168770080000
      4081    5        3.605323466663      56.201430779046     105.609385040000
      4082    6        2.703992594992      57.762581640415     104.050000000000
      4083    7        0.000000000000      59.323732491774     107.168770080000
      4084    8        0.901330861660      60.884883353143     105.609385040000
      4085    9        0.000000000000      59.323732491774     104.050000000000
      4086   10        2.703992594992      60.884883353143     107.168770080000
      4087   11        3.605323466663      59.323732491774     105.609385040000
      4088   12        2.703992594992      60.884883353143     104.050000000000
      4089    1        5.407985199995      49.956827363601     107.168770080000
      4090    2        6.309316061655      51.517978214960     105.609385040000
      4091    3        5.407985199995      49.956827363601     104.050000000000
      4092    4        8.111977794986      51.517978214960     107.168770080000
      4093    5        9.013308666658      49.956827363601     105.609385040000
      4094    6        8.111977794986      51.517978214960     104.050000000000
      4095    7        5.407985199995      53.079129076329     107.168770080000
      4096    8        6.309316061655      54.640279927688     105.609385040000
      4097    9        5.407985199995      53.079129076329     104.050000000000
      4098   10        8.111977794986      54.640279927688     107.168770080000
      4099   11        9.013308666658      53.079129076329     105.609385040000
      4100   12        8.111977794986      54.640279927688     104.050000000000
      4101    1        5.407985199995      56.201430779046     107.168770080000
      4102    2        6.309316061655      57.762581640415     105.609385040000
      4103    3        5.407985199995      56.201430779046     104.050000000000
      4104    4        8.111977794986      57.762581640415     107.168770080000
      4105    5        9.013308666658      56.201430779046     105.609385040000
      4106    6        8.111977794986      57.762581640415     104.050000000000
      4107    7        5.407985199995      59.323732491774     107.168770080000
      4108    8        6.309316061655      60.884883353143     105.609385040000
      4109    9        5.407985199995      59.323732491774     104.050000000000
      4110   10        8.111977794986      60.884883353143     107.168770080000
      4111   11        9.013308666658      59.323732491774     105.609385040000
      4112   12        8.111977794986      60.884883353143     104.050000000000
      4113    1        0.000000000000      62.446034204502     107.168770080000
      4114    2        0.901330861660      64.007185055860     105.609385040000
      4115    3        0.000000000000      62.446034204502     104.050000000000
      4116    4        2.703992594992      64.007185055860     107.168770080000
      4117    5        3.605323466663      62.446034204502     105.609385040000
      4118    6        2.703992594992      64.007185055860     104.050000000000
      4119    7        0.000000000000      65.568335917230     107.168770080000
      4120    8        0.901330861660      67.129486768588     105.609385040000
      4121    9        0.000000000000      65.568335917230     104.050000000000
      4122   10        2.703992594992      67.129486768588     107.168770080000
      4123   11        3.605323466663      65.568335917230     105.609385040000
      4124   12        2.703992594992      67.129486768588     104.050000000000
      4125    1        0.000000000000      68.690637619946     107.168770080000
      4126    2        0.901330861660      70.251788481316     105.609385040000
      4127    3        0.000000000000      68.690637619946     104.050000000000
      4128    4        2.703992594992      70.251788481316     107.168770080000
      4129    5        3.605323466663      68.690637619946     105.609385040000
      4130    6        2.703992594992      70.251788481316     104.050000000000
      4131    7        0.000000000000      71.812939332674     107.168770080000
      4132    8        0.901330861660      73.374090194044     105.609385040000
      4133    9        0.000000000000      71.812939332674     104.050000000000
      4134   10        2.703992594992      73.374090194044     107.168770080000
      4135   11        3.605323466663      71.812939332674     105.609385040000
      4136   12        2.703992594992      73.374090194044     104.050000000000
      4137    1        5.407985199995      62.446034204502     107.168770080000
      4138    2        6.309316061655      64.007185055860     105.609385040000
      4139    3        5.407985199995      62.446034204502     104.050000000000
      4140    4        8.111977794986      64.007185055860     107.168770080000
      4141    5        9.013308666658      62.446034204502     105.609385040000
      4142    6        8.111977794986      64.007185055860     104.050000000000
      4143    7        5.407985199995      65.568335917230     107.168770080000
      4144    8        6.309316061655      67.129486768588     105.609385040000
      4145    9        5.407985199995      65.568335917230     104.050000000000
      4146   10        8.111977794986      67.129486768588     107.168770080000
      4147   11        9.013308666658      65.568335917230     105.609385040000
      4148   12        8.111977794986      67.129486768588     104.050000000000
      4149    1        5.407985199995      68.690637619946     107.168770080000
      4150    2        6.309316061655      70.251788481316     105.609385040000
      4151    3        5.407985199995      68.690637619946     104.050000000000
      4152    4        8.111977794986      70.251788481316     107.168770080000
      4153    5        9.013308666658      68.690637619946     105.609385040000
      4154    6        8.111977794986      70.251788481316     104.050000000000
      4155    7        5.407985199995      71.812939332674     107.168770080000
      4156    8        6.309316061655      73.374090194044     105.609385040000
      4157    9        5.407985199995      71.812939332674     104.050000000000
      4158   10        8.111977794986      73.374090194044     107.168770080000
      4159   11        9.013308666658      71.812939332674     105.609385040000
      4160   12        8.111977794986      73.374090194044     104.050000000000
      4161    1        0.000000000000      74.935241045402     107.168770080000
      4162    2        0.901330861660      76.496391896760     105.609385040000
      4163    3        0.000000000000      74.935241045402     104.050000000000
      4164    4        2.703992594992      76.496391896760     107.168770080000
      4165    5        3.605323466663      74.935241045402     105.609385040000
      4166    6        2.703992594992      76.496391896760     104.050000000000
      4167    7        0.000000000000      78.057542758130     107.168770080000
      4168    8        0.901330861660      79.618693609488     105.609385040000
      4169    9        0.000000000000      78.057542758130     104.050000000000
      4170   10        2.703992594992      79.618693609488     107.168770080000
      4171   11        3.605323466663      78.057542758130     105.609385040000
      4172   12        2.703992594992      79.618693609488     104.050000000000
      4173    1        0.000000000000      81.179844460847     107.168770080000
      4174    2        0.901330861660      82.740995322216     105.609385040000
      4175    3        0.000000000000      81.179844460847     104.050000000000
      4176    4        2.703992594992      82.740995322216     107.168770080000
      4177    5        3.605323466663      81.179844460847     105.609385040000
      4178    6        2.703992594992      82.740995322216     104.050000000000
      4179    7        0.000000000000      84.302146173574     107.168770080000
      4180    8        0.901330861660      85.863297034944     105.609385040000
      4181    9        0.000000000000      84.302146173574     104.050000000000
      4182   10        2.703992594992      85.863297034944     107.168770080000
      4183   11        3.605323466663      84.302146173574     105.609385040000
      4184   12        2.703992594992      85.863297034944     104.050000000000
      4185    1        5.407985199995      74.935241045402     107.168770080000
      4186    2        6.309316061655      76.496391896760     105.609385040000
      4187    3        5.407985199995      74.935241045402     104.050000000000
      4188    4        8.111977794986      76.496391896760     107.168770080000
      4189    5        9.013308666658      74.935241045402     105.609385040000
      4190    6        8.111977794986      76.496391896760     104.050000000000
      4191    7        5.407985199995      78.057542758130     107.168770080000
      4192    8        6.309316061655      79.618693609488     105.609385040000
      4193    9        5.407985199995      78.057542758130     104.050000000000
      4194   10        8.111977794986      79.618693609488     107.168770080000
      4195   11        9.013308666658      78.057542758130     105.609385040000
      4196   12        8.111977794986      79.618693609488     104.050000000000
      4197    1        5.407985199995      81.179844460847     107.168770080000
      4198    2        6.309316061655      82.740995322216     105.609385040000
      4199    3        5.407985199995      81.179844460847     104.050000000000
      4200    4        8.111977794986      82.740995322216     107.168770080000
      4201    5        9.013308666658      81.179844460847     105.609385040000
      4202    6        8.111977794986      82.740995322216     104.050000000000
      4203    7        5.407985199995      84.302146173574     107.168770080000
      4204    8        6.309316061655      85.863297034944     105.609385040000
      4205    9        5.407985199995      84.302146173574     104.050000000000
      4206   10        8.111977794986      85.863297034944     107.168770080000
      4207   11        9.013308666658      84.302146173574     105.609385040000
      4208   12        8.111977794986      85.863297034944     104.050000000000
      4209    1        0.000000000000      87.424447886302     107.168770080000
      4210    2        0.901330861660      88.985598737661     105.609385040000
      4211    3        0.000000000000      87.424447886302     104.050000000000
      4212    4        2.703992594992      88.985598737661     107.168770080000
      4213    5        3.605323466663      87.424447886302     105.609385040000
      4214    6        2.703992594992      88.985598737661     104.050000000000
      4215    7        0.000000000000      90.546749599030     107.168770080000
      4216    8        0.901330861660      92.107900450389     105.609385040000
      4217    9        0.000000000000      90.546749599030     104.050000000000
      4218   10        2.703992594992      92.107900450389     107.168770080000
      4219   11        3.605323466663      90.546749599030     105.609385040000
      4220   12        2.703992594992      92.107900450389     104.050000000000
      4221    1        0.000000000000      93.669051301747     107.168770080000
      4222    2        0.901330861660      95.230202163116     105.609385040000
      4223    3        0.000000000000      93.669051301747     104.050000000000
      4224    4        2.703992594992      95.230202163116     107.168770080000
      4225    5        3.605323466663      93.669051301747     105.609385040000
      4226    6        2.703992594992      95.230202163116     104.050000000000
      4227    7        0.000000000000      96.791353014475     107.168770080000
      4228    8        0.901330861660      98.352503875844     105.609385040000
      4229    9        0.000000000000      96.791353014475     104.050000000000
      4230   10        2.703992594992      98.352503875844     107.168770080000
      4231   11        3.605323466663      96.791353014475     105.609385040000
      4232   12        2.703992594992      98.352503875844     104.050000000000
      4233    1        5.407985199995      87.424447886302     107.168770080000
      4234    2        6.309316061655      88.985598737661     105.609385040000
      4235    3        5.407985199995      87.424447886302     104.050000000000
      4236    4        8.111977794986      88.985598737661     107.168770080000
      4237    5        9.013308666658      87.424447886302     105.609385040000
      4238    6        8.111977794986      88.985598737661     104.050000000000
      4239    7        5.407985199995      90.546749599030     107.168770080000
      4240    8        6.309316061655      92.107900450389     105.609385040000
      4241    9        5.407985199995      90.546749599030     104.050000000000
      4242   10        8.111977794986      92.107900450389     107.168770080000
      4243   11        9.013308666658      90.546749599030     105.609385040000
      4244   12        8.111977794986      92.107900450389     104.050000000000
      4245    1        5.407985199995      93.669051301747     107.168770080000
      4246    2        6.309316061655      95.230202163116     105.609385040000
      4247    3        5.407985199995      93.669051301747     104.050000000000
      4248    4        8.111977794986      95.230202163116     107.168770080000
      4249    5        9.013308666658      93.669051301747     105.609385040000
      4250    6        8.111977794986      95.230202163116     104.050000000000
      4251    7        5.407985199995      96.791353014475     107.168770080000
      4252    8        6.309316061655      98.352503875844     105.609385040000
      4253    9        5.407985199995      96.791353014475     104.050000000000
      4254   10        8.111977794986      98.352503875844     107.168770080000
      4255   11        9.013308666658      96.791353014475     105.609385040000
      4256   12        8.111977794986      98.352503875844     104.050000000000
      4257    1        0.000000000000      99.913654727203     107.168770080000
      4258    2        0.901330861660     101.474805578561     105.609385040000
      4259    3        0.000000000000      99.913654727203     104.050000000000
      4260    4        2.703992594992     101.474805578561     107.168770080000
      4261    5        3.605323466663      99.913654727203     105.609385040000
      4262    6        2.703992594992     101.474805578561     104.050000000000
      4263    7        0.000000000000     103.035956439931     107.168770080000
      4264    8        0.901330861660     104.597107291289     105.609385040000
      4265    9        0.000000000000     103.035956439931     104.050000000000
      4266   10        2.703992594992     104.597107291289     107.168770080000
      4267   11        3.605323466663     103.035956439931     105.609385040000
      4268   12        2.703992594992     104.597107291289     104.050000000000
      4269    1        0.000000000000     106.158258142647     107.168770080000
      4270    2        0.901330861660     107.719409004017     105.609385040000
      4271    3        0.000000000000     106.158258142647     104.050000000000
      4272    4        2.703992594992     107.719409004017     107.168770080000
      4273    5        3.605323466663     106.158258142647     105.609385040000
      4274    6        2.703992594992     107.719409004017     104.050000000000
      4275    7        0.000000000000     109.280559855375     107.168770080000
      4276    8        0.901330861660     110.841710716745     105.609385040000
      4277    9        0.000000000000     109.280559855375     104.050000000000
      4278   10        2.703992594992     110.841710716745     107.168770080000
      4279   11        3.605323466663     109.280559855375     105.609385040000
      4280   12        2.703992594992     110.841710716745     104.050000000000
      4281    1        5.407985199995      99.913654727203     107.168770080000
      4282    2        6.309316061655     101.474805578561     105.609385040000
      4283    3        5.407985199995      99.913654727203     104.050000000000
      4284    4        8.111977794986     101.474805578561     107.168770080000
      4285    5        9.013308666658      99.913654727203     105.609385040000
      4286    6        8.111977794986     101.474805578561     104.050000000000
      4287    7        5.407985199995     103.035956439931     107.168770080000
      4288    8        6.309316061655     104.597107291289     105.609385040000
      4289    9        5.407985199995     103.035956439931     104.050000000000
      4290   10        8.111977794986     104.597107291289     107.168770080000
      4291   11        9.013308666658     103.035956439931     105.609385040000
      4292   12        8.111977794986     104.597107291289     104.050000000000
      4293    1        5.407985199995     106.158258142647     107.168770080000
      4294    2        6.309316061655     107.719409004017     105.609385040000
      4295    3        5.407985199995     106.158258142647     104.050000000000
      4296    4        8.111977794986     107.719409004017     107.168770080000
      4297    5        9.013308666658     106.158258142647     105.609385040000
      4298    6        8.111977794986     107.719409004017     104.050000000000
      4299    7        5.407985199995     109.280559855375     107.168770080000
      4300    8        6.309316061655     110.841710716745     105.609385040000
      4301    9        5.407985199995     109.280559855375     104.050000000000
      4302   10        8.111977794986     110.841710716745     107.168770080000
      4303   11        9.013308666658     109.280559855375     105.609385040000
      4304   12        8.111977794986     110.841710716745     104.050000000000
      4305    1        0.000000000000     112.402861568103     107.168770080000
      4306    2        0.901330861660     113.964012419461     105.609385040000
      4307    3        0.000000000000     112.402861568103     104.050000000000
      4308    4        2.703992594992     113.964012419461     107.168770080000
      4309    5        3.605323466663     112.402861568103     105.609385040000
      4310    6        2.703992594992     113.964012419461     104.050000000000
      4311    7        0.000000000000     115.525163280831     107.168770080000
      4312    8        0.901330861660     117.086314132189     105.609385040000
      4313    9        0.000000000000     115.525163280831     104.050000000000
      4314   10        2.703992594992     117.086314132189     107.168770080000
      4315   11        3.605323466663     115.525163280831     105.609385040000
      4316   12        2.703992594992     117.086314132189     104.050000000000
      4317    1        0.000000000000     118.647464983548     107.168770080000
      4318    2        0.901330861660     120.208615844917     105.609385040000
      4319    3        0.000000000000     118.647464983548     104.050000000000
      4320    4        2.703992594992     120.208615844917     107.168770080000
      4321    5        3.605323466663     118.647464983548     105.609385040000
      4322    6        2.703992594992     120.208615844917     104.050000000000
      4323    7        0.000000000000     121.769766696275     107.168770080000
      4324    8        0.901330861660     123.330917557645     105.609385040000
      4325    9        0.000000000000     121.769766696275     104.050000000000
      4326   10        2.703992594992     123.330917557645     107.168770080000
      4327   11        3.605323466663     121.769766696275     105.609385040000
      4328   12        2.703992594992     123.330917557645     104.050000000000
      4329    1        5.407985199995     112.402861568103     107.168770080000
      4330    2        6.309316061655     113.964012419461     105.609385040000
      4331    3        5.407985199995     112.402861568103     104.050000000000
      4332    4        8.111977794986     113.964012419461     107.168770080000
      4333    5        9.013308666658     112.402861568103     105.609385040000
      4334    6        8.111977794986     113.964012419461     104.050000000000
      4335    7        5.407985199995     115.525163280831     107.168770080000
      4336    8        6.309316061655     117.086314132189     105.609385040000
      4337    9        5.407985199995     115.525163280831     104.050000000000
      4338   10        8.111977794986     117.086314132189     107.168770080000
      4339   11        9.013308666658     115.525163280831     105.609385040000
      4340   12        8.111977794986     117.086314132189     104.050000000000
      4341    1        5.407985199995     118.647464983548     107.168770080000
      4342    2        6.309316061655     120.208615844917     105.609385040000
      4343    3        5.407985199995     118.647464983548     104.050000000000
      4344    4        8.111977794986     120.208615844917     107.168770080000
      4345    5        9.013308666658     118.647464983548     105.609385040000
      4346    6        8.111977794986     120.208615844917     104.050000000000
      4347    7        5.407985199995     121.769766696275     107.168770080000
      4348    8        6.309316061655     123.330917557645     105.609385040000
      4349    9        5.407985199995     121.769766696275     104.050000000000
      4350   10        8.111977794986     123.330917557645     107.168770080000
      4351   11        9.013308666658     121.769766696275     105.609385040000
      4352   12        8.111977794986     123.330917557645     104.050000000000
      4353    1        0.000000000000     124.892068409003     107.168770080000
      4354    2        0.901330861660     126.453219260362     105.609385040000
      4355    3        0.000000000000     124.892068409003     104.050000000000
      4356    4        2.703992594992     126.453219260362     107.168770080000
      4357    5        3.605323466663     124.892068409003     105.609385040000
      4358    6        2.703992594992     126.453219260362     104.050000000000
      4359    7        0.000000000000     128.014370121731     107.168770080000
      4360    8        0.901330861660     129.575520973090     105.609385040000
      4361    9        0.000000000000     128.014370121731     104.050000000000
      4362   10        2.703992594992     129.575520973090     107.168770080000
      4363   11        3.605323466663     128.014370121731     105.609385040000
      4364   12        2.703992594992     129.575520973090     104.050000000000
      4365    1        0.000000000000     131.136671824448     107.168770080000
      4366    2        0.901330861660     132.697822685817     105.609385040000
      4367    3        0.000000000000     131.136671824448     104.050000000000
      4368    4        2.703992594992     132.697822685817     107.168770080000
      4369    5        3.605323466663     131.136671824448     105.609385040000
      4370    6        2.703992594992     132.697822685817     104.050000000000
      4371    7        0.000000000000     134.258973537176     107.168770080000
      4372    8        0.901330861660     135.820124398545     105.609385040000
      4373    9        0.000000000000     134.258973537176     104.050000000000
      4374   10        2.703992594992     135.820124398545     107.168770080000
      4375   11        3.605323466663     134.258973537176     105.609385040000
      4376   12        2.703992594992     135.820124398545     104.050000000000
      4377    1        5.407985199995     124.892068409003     107.168770080000
      4378    2        6.309316061655     126.453219260362     105.609385040000
      4379    3        5.407985199995     124.892068409003     104.050000000000
      4380    4        8.111977794986     126.453219260362     107.168770080000
      4381    5        9.013308666658     124.892068409003     105.609385040000
      4382    6        8.111977794986     126.453219260362     104.050000000000
      4383    7        5.407985199995     128.014370121731     107.168770080000
      4384    8        6.309316061655     129.575520973090     105.609385040000
      4385    9        5.407985199995     128.014370121731     104.050000000000
      4386   10        8.111977794986     129.575520973090     107.168770080000
      4387   11        9.013308666658     128.014370121731     105.609385040000
      4388   12        8.111977794986     129.575520973090     104.050000000000
      4389    1        5.407985199995     131.136671824448     107.168770080000
      4390    2        6.309316061655     132.697822685817     105.609385040000
      4391    3        5.407985199995     131.136671824448     104.050000000000
      4392    4        8.111977794986     132.697822685817     107.168770080000
      4393    5        9.013308666658     131.136671824448     105.609385040000
      4394    6        8.111977794986     132.697822685817     104.050000000000
      4395    7        5.407985199995     134.258973537176     107.168770080000
      4396    8        6.309316061655     135.820124398545     105.609385040000
      4397    9        5.407985199995     134.258973537176     104.050000000000
      4398   10        8.111977794986     135.820124398545     107.168770080000
      4399   11        9.013308666658     134.258973537176     105.609385040000
      4400   12        8.111977794986     135.820124398545     104.050000000000
      4401    1        0.000000000000     137.381275249904     107.168770080000
      4402    2        0.901330861660     138.942426101262     105.609385040000
      4403    3        0.000000000000     137.381275249904     104.050000000000
      4404    4        2.703992594992     138.942426101262     107.168770080000
      4405    5        3.605323466663     137.381275249904     105.609385040000
      4406    6        2.703992594992     138.942426101262     104.050000000000
      4407    7        0.000000000000     140.503576962632     107.168770080000
      4408    8        0.901330861660     142.064727813990     105.609385040000
      4409    9        0.000000000000     140.503576962632     104.050000000000
      4410   10        2.703992594992     142.064727813990     107.168770080000
      4411   11        3.605323466663     140.503576962632     105.609385040000
      4412   12        2.703992594992     142.064727813990     104.050000000000
      4413    1        0.000000000000     143.625878665348     107.168770080000
      4414    2        0.901330861660     145.187029526718     105.609385040000
      4415    3        0.000000000000     143.625878665348     104.050000000000
      4416    4        2.703992594992     145.187029526718     107.168770080000
      4417    5        3.605323466663     143.625878665348     105.609385040000
      4418    6        2.703992594992     145.187029526718     104.050000000000
      4419    7        0.000000000000     146.748180378076     107.168770080000
      4420    8        0.901330861660     148.309331239446     105.609385040000
      4421    9        0.000000000000     146.748180378076     104.050000000000
      4422   10        2.703992594992     148.309331239446     107.168770080000
      4423   11        3.605323466663     146.748180378076     105.609385040000
      4424   12        2.703992594992     148.309331239446     104.050000000000
      4425    1        5.407985199995     137.381275249904     107.168770080000
      4426    2        6.309316061655     138.942426101262     105.609385040000
      4427    3        5.407985199995     137.381275249904     104.050000000000
      4428    4        8.111977794986     138.942426101262     107.168770080000
      4429    5        9.013308666658     137.381275249904     105.609385040000
      4430    6        8.111977794986     138.942426101262     104.050000000000
      4431    7        5.407985199995     140.503576962632     107.168770080000
      4432    8        6.309316061655     142.064727813990     105.609385040000
      4433    9        5.407985199995     140.503576962632     104.050000000000
      4434   10        8.111977794986     142.064727813990     107.168770080000
      4435   11        9.013308666658     140.503576962632     105.609385040000
      4436   12        8.111977794986     142.064727813990     104.050000000000
      4437    1        5.407985199995     143.625878665348     107.168770080000
      4438    2        6.309316061655     145.187029526718     105.609385040000
      4439    3        5.407985199995     143.625878665348     104.050000000000
      4440    4        8.111977794986     145.187029526718     107.168770080000
      4441    5        9.013308666658     143.625878665348     105.609385040000
      4442    6        8.111977794986     145.187029526718     104.050000000000
      4443    7        5.407985199995     146.748180378076     107.168770080000
      4444    8        6.309316061655     148.309331239446     105.609385040000
      4445    9        5.407985199995     146.748180378076     104.050000000000
      4446   10        8.111977794986     148.309331239446     107.168770080000
      4447   11        9.013308666658     146.748180378076     105.609385040000
      4448   12        8.111977794986     148.309331239446     104.050000000000
      4449    1       10.815970399989       0.000000000000     107.168770080000
      4450    2       11.717301261649       1.561150851358     105.609385040000
      4451    3       10.815970399989       0.000000000000     104.050000000000
      4452    4       13.519962994981       1.561150851358     107.168770080000
      4453    5       14.421293866652       0.000000000000     105.609385040000
      4454    6       13.519962994981       1.561150851358     104.050000000000
      4455    7       10.815970399989       3.122301712728     107.168770080000
      4456    8       11.717301261649       4.683452564086     105.609385040000
      4457    9       10.815970399989       3.122301712728     104.050000000000
      4458   10       13.519962994981       4.683452564086     107.168770080000
      4459   11       14.421293866652       3.122301712728     105.609385040000
      4460   12       13.519962994981       4.683452564086     104.050000000000
      4461    1       10.815970399989       6.244603415445     107.168770080000
      4462    2       11.717301261649       7.805754276814     105.609385040000
      4463    3       10.815970399989       6.244603415445     104.050000000000
      4464    4       13.519962994981       7.805754276814     107.168770080000
      4465    5       14.421293866652       6.244603415445     105.609385040000
      4466    6       13.519962994981       7.805754276814     104.050000000000
      4467    7       10.815970399989       9.366905128172     107.168770080000
      4468    8       11.717301261649      10.928055989542     105.609385040000
      4469    9       10.815970399989       9.366905128172     104.050000000000
      4470   10       13.519962994981      10.928055989542     107.168770080000
      4471   11       14.421293866652       9.366905128172     105.609385040000
      4472   12       13.519962994981      10.928055989542     104.050000000000
      4473    1       16.223955599984       0.000000000000     107.168770080000
      4474    2       17.125286461644       1.561150851358     105.609385040000
      4475    3       16.223955599984       0.000000000000     104.050000000000
      4476    4       18.927948194975       1.561150851358     107.168770080000
      4477    5       19.829279066647       0.000000000000     105.609385040000
      4478    6       18.927948194975       1.561150851358     104.050000000000
      4479    7       16.223955599984       3.122301712728     107.168770080000
      4480    8       17.125286461644       4.683452564086     105.609385040000
      4481    9       16.223955599984       3.122301712728     104.050000000000
      4482   10       18.927948194975       4.683452564086     107.168770080000
      4483   11       19.829279066647       3.122301712728     105.609385040000
      4484   12       18.927948194975       4.683452564086     104.050000000000
      4485    1       16.223955599984       6.244603415445     107.168770080000
      4486    2       17.125286461644       7.805754276814     105.609385040000
      4487    3       16.223955599984       6.244603415445     104.050000000000
      4488    4       18.927948194975       7.805754276814     107.168770080000
      4489    5       19.829279066647       6.244603415445     105.609385040000
      4490    6       18.927948194975       7.805754276814     104.050000000000
      4491    7       16.223955599984       9.366905128172     107.168770080000
      4492    8       17.125286461644      10.928055989542     105.609385040000
      4493    9       16.223955599984       9.366905128172     104.050000000000
      4494   10       18.927948194975      10.928055989542     107.168770080000
      4495   11       19.829279066647       9.366905128172     105.609385040000
      4496   12       18.927948194975      10.928055989542     104.050000000000
      4497    1       10.815970399989      12.489206840900     107.168770080000
      4498    2       11.717301261649      14.050357692259     105.609385040000
      4499    3       10.815970399989      12.489206840900     104.050000000000
      4500    4       13.519962994981      14.050357692259     107.168770080000
      4501    5       14.421293866652      12.489206840900     105.609385040000
      4502    6       13.519962994981      14.050357692259     104.050000000000
      4503    7       10.815970399989      15.611508553628     107.168770080000
      4504    8       11.717301261649      17.172659404987     105.609385040000
      4505    9       10.815970399989      15.611508553628     104.050000000000
      4506   10       13.519962994981      17.172659404987     107.168770080000
      4507   11       14.421293866652      15.611508553628     105.609385040000
      4508   12       13.519962994981      17.172659404987     104.050000000000
      4509    1       10.815970399989      18.733810256345     107.168770080000
      4510    2       11.717301261649      20.294961117714     105.609385040000
      4511    3       10.815970399989      18.733810256345     104.050000000000
      4512    4       13.519962994981      20.294961117714     107.168770080000
      4513    5       14.421293866652      18.733810256345     105.609385040000
      4514    6       13.519962994981      20.294961117714     104.050000000000
      4515    7       10.815970399989      21.856111969073     107.168770080000
      4516    8       11.717301261649      23.417262830442     105.609385040000
      4517    9       10.815970399989      21.856111969073     104.050000000000
      4518   10       13.519962994981      23.417262830442     107.168770080000
      4519   11       14.421293866652      21.856111969073     105.609385040000
      4520   12       13.519962994981      23.417262830442     104.050000000000
      4521    1       16.223955599984      12.489206840900     107.168770080000
      4522    2       17.125286461644      14.050357692259     105.609385040000
      4523    3       16.223955599984      12.489206840900     104.050000000000
      4524    4       18.927948194975      14.050357692259     107.168770080000
      4525    5       19.829279066647      12.489206840900     105.609385040000
      4526    6       18.927948194975      14.050357692259     104.050000000000
      4527    7       16.223955599984      15.611508553628     107.168770080000
      4528    8       17.125286461644      17.172659404987     105.609385040000
      4529    9       16.223955599984      15.611508553628     104.050000000000
      4530   10       18.927948194975      17.172659404987     107.168770080000
      4531   11       19.829279066647      15.611508553628     105.609385040000
      4532   12       18.927948194975      17.172659404987     104.050000000000
      4533    1       16.223955599984      18.733810256345     107.168770080000
      4534    2       17.125286461644      20.294961117714     105.609385040000
      4535    3       16.223955599984      18.733810256345     104.050000000000
      4536    4       18.927948194975      20.294961117714     107.168770080000
      4537    5       19.829279066647      18.733810256345     105.609385040000
      4538    6       18.927948194975      20.294961117714     104.050000000000
      4539    7       16.223955599984      21.856111969073     107.168770080000
      4540    8       17.125286461644      23.417262830442     105.609385040000
      4541    9       16.223955599984      21.856111969073     104.050000000000
      4542   10       18.927948194975      23.417262830442     107.168770080000
      4543   11       19.829279066647      21.856111969073     105.609385040000
      4544   12       18.927948194975      23.417262830442     104.050000000000
      4545    1       10.815970399989      24.978413681801     107.168770080000
      4546    2       11.717301261649      26.539564533159     105.609385040000
      4547    3       10.815970399989      24.978413681801     104.050000000000
      4548    4       13.519962994981      26.539564533159     107.168770080000
      4549    5       14.421293866652      24.978413681801     105.609385040000
      4550    6       13.519962994981      26.539564533159     104.050000000000
      4551    7       10.815970399989      28.100715394529     107.168770080000
      4552    8       11.717301261649      29.661866245887     105.609385040000
      4553    9       10.815970399989      28.100715394529     104.050000000000
      4554   10       13.519962994981      29.661866245887     107.168770080000
      4555   11       14.421293866652      28.100715394529     105.609385040000
      4556   12       13.519962994981      29.661866245887     104.050000000000
      4557    1       10.815970399989      31.223017097245     107.168770080000
      4558    2       11.717301261649      32.784167958615     105.609385040000
      4559    3       10.815970399989      31.223017097245     104.050000000000
      4560    4       13.519962994981      32.784167958615     107.168770080000
      4561    5       14.421293866652      31.223017097245     105.609385040000
      4562    6       13.519962994981      32.784167958615     104.050000000000
      4563    7       10.815970399989      34.345318809973     107.168770080000
      4564    8       11.717301261649      35.906469671343     105.609385040000
      4565    9       10.815970399989      34.345318809973     104.050000000000
      4566   10       13.519962994981      35.906469671343     107.168770080000
      4567   11       14.421293866652      34.345318809973     105.609385040000
      4568   12       13.519962994981      35.906469671343     104.050000000000
      4569    1       16.223955599984      24.978413681801     107.168770080000
      4570    2       17.125286461644      26.539564533159     105.609385040000
      4571    3       16.223955599984      24.978413681801     104.050000000000
      4572    4       18.927948194975      26.539564533159     107.168770080000
      4573    5       19.829279066647      24.978413681801     105.609385040000
      4574    6       18.927948194975      26.539564533159     104.050000000000
      4575    7       16.223955599984      28.100715394529     107.168770080000
      4576    8       17.125286461644      29.661866245887     105.609385040000
      4577    9       16.223955599984      28.100715394529     104.050000000000
      4578   10       18.927948194975      29.661866245887     107.168770080000
      4579   11       19.829279066647      28.100715394529     105.609385040000
      4580   12       18.927948194975      29.661866245887     104.050000000000
      4581    1       16.223955599984      31.223017097245     107.168770080000
      4582    2       17.125286461644      32.784167958615     105.609385040000
      4583    3       16.223955599984      31.223017097245     104.050000000000
      4584    4       18.927948194975      32.784167958615     107.168770080000
      4585    5       19.829279066647      31.223017097245     105.609385040000
      4586    6       18.927948194975      32.784167958615     104.050000000000
      4587    7       16.223955599984      34.345318809973     107.168770080000
      4588    8       17.125286461644      35.906469671343     105.609385040000
      4589    9       16.223955599984      34.345318809973     104.050000000000
      4590   10       18.927948194975      35.906469671343     107.168770080000
      4591   11       19.829279066647      34.345318809973     105.609385040000
      4592   12       18.927948194975      35.906469671343     104.050000000000
      4593    1       10.815970399989      37.467620522701     107.168770080000
      4594    2       11.717301261649      39.028771374059     105.609385040000
      4595    3       10.815970399989      37.467620522701     104.050000000000
      4596    4       13.519962994981      39.028771374059     107.168770080000
      4597    5       14.421293866652      37.467620522701     105.609385040000
      4598    6       13.519962994981      39.028771374059     104.050000000000
      4599    7       10.815970399989      40.589922235429     107.168770080000
      4600    8       11.717301261649      42.151073086787     105.609385040000
      4601    9       10.815970399989      40.589922235429     104.050000000000
      4602   10       13.519962994981      42.151073086787     107.168770080000
      4603   11       14.421293866652      40.589922235429     105.609385040000
      4604   12       13.519962994981      42.151073086787     104.050000000000
      4605    1       10.815970399989      43.712223938146     107.168770080000
      4606    2       11.717301261649      45.273374799515     105.609385040000
      4607    3       10.815970399989      43.712223938146     104.050000000000
      4608    4       13.519962994981      45.273374799515     107.168770080000
      4609    5       14.421293866652      43.712223938146     105.609385040000
      4610    6       13.519962994981      45.273374799515     104.050000000000
      4611    7       10.815970399989      46.834525650873     107.168770080000
      4612    8       11.717301261649      48.395676512243     105.609385040000
      4613    9       10.815970399989      46.834525650873     104.050000000000
      4614   10       13.519962994981      48.395676512243     107.168770080000
      4615   11       14.421293866652      46.834525650873     105.609385040000
      4616   12       13.519962994981      48.395676512243     104.050000000000
      4617    1       16.223955599984      37.467620522701     107.168770080000
      4618    2       17.125286461644      39.028771374059     105.609385040000
      4619    3       16.223955599984      37.467620522701     104.050000000000
      4620    4       18.927948194975      39.028771374059     107.168770080000
      4621    5       19.829279066647      37.467620522701     105.609385040000
      4622    6       18.927948194975      39.028771374059     104.050000000000
      4623    7       16.223955599984      40.589922235429     107.168770080000
      4624    8       17.125286461644      42.151073086787     105.609385040000
      4625    9       16.223955599984      40.589922235429     104.050000000000
      4626   10       18.927948194975      42.151073086787     107.168770080000
      4627   11       19.829279066647      40.589922235429     105.609385040000
      4628   12       18.927948194975      42.151073086787     104.050000000000
      4629    1       16.223955599984      43.712223938146     107.168770080000
      4630    2       17.125286461644      45.273374799515     105.609385040000
      4631    3       16.223955599984      43.712223938146     104.050000000000
      4632    4       18.927948194975      45.273374799515     107.168770080000
      4633    5       19.829279066647      43.712223938146     105.609385040000
      4634    6       18.927948194975      45.273374799515     104.050000000000
      4635    7       16.223955599984      46.834525650873     107.168770080000
      4636    8       17.125286461644      48.395676512243     105.609385040000
      4637    9       16.223955599984      46.834525650873     104.050000000000
      4638   10       18.927948194975      48.395676512243     107.168770080000
      4639   11       19.829279066647      46.834525650873     105.609385040000
      4640   12       18.927948194975      48.395676512243     104.050000000000
      4641    1       10.815970399989      49.956827363601     107.168770080000
      4642    2       11.717301261649      51.517978214960     105.609385040000
      4643    3       10.815970399989      49.956827363601     104.050000000000
      4644    4       13.519962994981      51.517978214960     107.168770080000
      4645    5       14.421293866652      49.956827363601     105.609385040000
      4646    6       13.519962994981      51.517978214960     104.050000000000
      4647    7       10.815970399989      53.079129076329     107.168770080000
      4648    8       11.717301261649      54.640279927688     105.609385040000
      4649    9       10.815970399989      53.079129076329     104.050000000000
      4650   10       13.519962994981      54.640279927688     107.168770080000
      4651   11       14.421293866652      53.079129076329     105.609385040000
      4652   12       13.519962994981      54.640279927688     104.050000000000
      4653    1       10.815970399989      56.201430779046     107.168770080000
      4654    2       11.717301261649      57.762581640415     105.609385040000
      4655    3       10.815970399989      56.201430779046     104.050000000000
      4656    4       13.519962994981      57.762581640415     107.168770080000
      4657    5       14.421293866652      56.201430779046     105.609385040000
      4658    6       13.519962994981      57.762581640415     104.050000000000
      4659    7       10.815970399989      59.323732491774     107.168770080000
      4660    8       11.717301261649      60.884883353143     105.609385040000
      4661    9       10.815970399989      59.323732491774     104.050000000000
      4662   10       13.519962994981      60.884883353143     107.168770080000
      4663   11       14.421293866652      59.323732491774     105.609385040000
      4664   12       13.519962994981      60.884883353143     104.050000000000
      4665    1       16.223955599984      49.956827363601     107.168770080000
      4666    2       17.125286461644      51.517978214960     105.609385040000
      4667    3       16.223955599984      49.956827363601     104.050000000000
      4668    4       18.927948194975      51.517978214960     107.168770080000
      4669    5       19.829279066647      49.956827363601     105.609385040000
      4670    6       18.927948194975      51.517978214960     104.050000000000
      4671    7       16.223955599984      53.079129076329     107.168770080000
      4672    8       17.125286461644      54.640279927688     105.609385040000
      4673    9       16.223955599984      53.079129076329     104.050000000000
      4674   10       18.927948194975      54.640279927688     107.168770080000
      4675   11       19.829279066647      53.079129076329     105.609385040000
      4676   12       18.927948194975      54.640279927688     104.050000000000
      4677    1       16.223955599984      56.201430779046     107.168770080000
      4678    2       17.125286461644      57.762581640415     105.609385040000
      4679    3       16.223955599984      56.201430779046     104.050000000000
      4680    4       18.927948194975      57.762581640415     107.168770080000
      4681    5       19.829279066647      56.201430779046     105.609385040000
      4682    6       18.927948194975      57.762581640415     104.050000000000
      4683    7       16.223955599984      59.323732491774     107.168770080000
      4684    8       17.125286461644      60.884883353143     105.609385040000
      4685    9       16.223955599984      59.323732491774     104.050000000000
      4686   10       18.927948194975      60.884883353143     107.168770080000
      4687   11       19.829279066647      59.323732491774     105.609385040000
      4688   12       18.927948194975      60.884883353143     104.050000000000
      4689    1       10.815970399989      62.446034204502     107.168770080000
      4690    2       11.717301261649      64.007185055860     105.609385040000
      4691    3       10.815970399989      62.446034204502     104.050000000000
      4692    4       13.519962994981      64.007185055860     107.168770080000
      4693    5       14.421293866652      62.446034204502     105.609385040000
      4694    6       13.519962994981      64.007185055860     104.050000000000
      4695    7       10.815970399989      65.568335917230     107.168770080000
      4696    8       11.717301261649      67.129486768588     105.609385040000
      4697    9       10.815970399989      65.568335917230     104.050000000000
      4698   10       13.519962994981      67.129486768588     107.168770080000
      4699   11       14.421293866652      65.568335917230     105.609385040000
      4700   12       13.519962994981      67.129486768588     104.050000000000
      4701    1       10.815970399989      68.690637619946     107.168770080000
      4702    2       11.717301261649      70.251788481316     105.609385040000
      4703    3       10.815970399989      68.690637619946     104.050000000000
      4704    4       13.519962994981      70.251788481316     107.168770080000
      4705    5       14.421293866652      68.690637619946     105.609385040000
      4706    6       13.519962994981      70.251788481316     104.050000000000
      4707    7       10.815970399989      71.812939332674     107.168770080000
      4708    8       11.717301261649      73.374090194044     105.609385040000
      4709    9       10.815970399989      71.812939332674     104.050000000000
      4710   10       13.519962994981      73.374090194044     107.168770080000
      4711   11       14.421293866652      71.812939332674     105.609385040000
      4712   12       13.519962994981      73.374090194044     104.050000000000
      4713    1       16.223955599984      62.446034204502     107.168770080000
      4714    2       17.125286461644      64.007185055860     105.609385040000
      4715    3       16.223955599984      62.446034204502     104.050000000000
      4716    4       18.927948194975      64.007185055860     107.168770080000
      4717    5       19.829279066647      62.446034204502     105.609385040000
      4718    6       18.927948194975      64.007185055860     104.050000000000
      4719    7       16.223955599984      65.568335917230     107.168770080000
      4720    8       17.125286461644      67.129486768588     105.609385040000
      4721    9       16.223955599984      65.568335917230     104.050000000000
      4722   10       18.927948194975      67.129486768588     107.168770080000
      4723   11       19.829279066647      65.568335917230     105.609385040000
      4724   12       18.927948194975      67.129486768588     104.050000000000
      4725    1       16.223955599984      68.690637619946     107.168770080000
      4726    2       17.125286461644      70.251788481316     105.609385040000
      4727    3       16.223955599984      68.690637619946     104.050000000000
      4728    4       18.927948194975      70.251788481316     107.168770080000
      4729    5       19.829279066647      68.690637619946     105.609385040000
      4730    6       18.927948194975      70.251788481316     104.050000000000
      4731    7       16.223955599984      71.812939332674     107.168770080000
      4732    8       17.125286461644      73.374090194044     105.609385040000
      4733    9       16.223955599984      71.812939332674     104.050000000000
      4734   10       18.927948194975      73.374090194044     107.168770080000
      4735   11       19.829279066647      71.812939332674     105.609385040000
      4736   12       18.927948194975      73.374090194044     104.050000000000
      4737    1       10.815970399989      74.935241045402     107.168770080000
      4738    2       11.717301261649      76.496391896760     105.609385040000
      4739    3       10.815970399989      74.935241045402     104.050000000000
      4740    4       13.519962994981      76.496391896760     107.168770080000
      4741    5       14.421293866652      74.935241045402     105.609385040000
      4742    6       13.519962994981      76.496391896760     104.050000000000
      4743    7       10.815970399989      78.057542758130     107.168770080000
      4744    8       11.717301261649      79.618693609488     105.609385040000
      4745    9       10.815970399989      78.057542758130     104.050000000000
      4746   10       13.519962994981      79.618693609488     107.168770080000
      4747   11       14.421293866652      78.057542758130     105.609385040000
      4748   12       13.519962994981      79.618693609488     104.050000000000
      4749    1       10.815970399989      81.179844460847     107.168770080000
      4750    2       11.717301261649      82.740995322216     105.609385040000
      4751    3       10.815970399989      81.179844460847     104.050000000000
      4752    4       13.519962994981      82.740995322216     107.168770080000
      4753    5       14.421293866652      81.179844460847     105.609385040000
      4754    6       13.519962994981      82.740995322216     104.050000000000
      4755    7       10.815970399989      84.302146173574     107.168770080000
      4756    8       11.717301261649      85.863297034944     105.609385040000
      4757    9       10.815970399989      84.302146173574     104.050000000000
      4758   10       13.519962994981      85.863297034944     107.168770080000
      4759   11       14.421293866652      84.302146173574     105.609385040000
      4760   12       13.519962994981      85.863297034944     104.050000000000
      4761    1       16.223955599984      74.935241045402     107.168770080000
      4762    2       17.125286461644      76.496391896760     105.609385040000
      4763    3       16.223955599984      74.935241045402     104.050000000000
      4764    4       18.927948194975      76.496391896760     107.168770080000
      4765    5       19.829279066647      74.935241045402     105.609385040000
      4766    6       18.927948194975      76.496391896760     104.050000000000
      4767    7       16.223955599984      78.057542758130     107.168770080000
      4768    8       17.125286461644      79.618693609488     105.609385040000
      4769    9       16.223955599984      78.057542758130     104.050000000000
      4770   10       18.927948194975      79.618693609488     107.168770080000
      4771   11       19.829279066647      78.057542758130     105.609385040000
      4772   12       18.927948194975      79.618693609488     104.050000000000
      4773    1       16.223955599984      81.179844460847     107.168770080000
      4774    2       17.125286461644      82.740995322216     105.609385040000
      4775    3       16.223955599984      81.179844460847     104.050000000000
      4776    4       18.927948194975      82.740995322216     107.168770080000
      4777    5       19.829279066647      81.179844460847     105.609385040000
      4778    6       18.927948194975      82.740995322216     104.050000000000
      4779    7       16.223955599984      84.302146173574     107.168770080000
      4780    8       17.125286461644      85.863297034944     105.609385040000
      4781    9       16.223955599984      84.302146173574     104.050000000000
      4782   10       18.927948194975      85.863297034944     107.168770080000
      4783   11       19.829279066647      84.302146173574     105.609385040000
      4784   12       18.927948194975      85.863297034944     104.050000000000
      4785    1       10.815970399989      87.424447886302     107.168770080000
      4786    2       11.717301261649      88.985598737661     105.609385040000
      4787    3       10.815970399989      87.424447886302     104.050000000000
      4788    4       13.519962994981      88.985598737661     107.168770080000
      4789    5       14.421293866652      87.424447886302     105.609385040000
      4790    6       13.519962994981      88.985598737661     104.050000000000
      4791    7       10.815970399989      90.546749599030     107.168770080000
      4792    8       11.717301261649      92.107900450389     105.609385040000
      4793    9       10.815970399989      90.546749599030     104.050000000000
      4794   10       13.519962994981      92.107900450389     107.168770080000
      4795   11       14.421293866652      90.546749599030     105.609385040000
      4796   12       13.519962994981      92.107900450389     104.050000000000
      4797    1       10.815970399989      93.669051301747     107.168770080000
      4798    2       11.717301261649      95.230202163116     105.609385040000
      4799    3       10.815970399989      93.669051301747     104.050000000000
      4800    4       13.519962994981      95.230202163116     107.168770080000
      4801    5       14.421293866652      93.669051301747     105.609385040000
      4802    6       13.519962994981      95.230202163116     104.050000000000
      4803    7       10.815970399989      96.791353014475     107.168770080000
      4804    8       11.717301261649      98.352503875844     105.609385040000
      4805    9       10.815970399989      96.791353014475     104.050000000000
      4806   10       13.519962994981      98.352503875844     107.168770080000
      4807   11       14.421293866652      96.791353014475     105.609385040000
      4808   12       13.519962994981      98.352503875844     104.050000000000
      4809    1       16.223955599984      87.424447886302     107.168770080000
      4810    2       17.125286461644      88.985598737661     105.609385040000
      4811    3       16.223955599984      87.424447886302     104.050000000000
      4812    4       18.927948194975      88.985598737661     107.168770080000
      4813    5       19.829279066647      87.424447886302     105.609385040000
      4814    6       18.927948194975      88.985598737661     104.050000000000
      4815    7       16.223955599984      90.546749599030     107.168770080000
      4816    8       17.125286461644      92.107900450389     105.609385040000
      4817    9       16.223955599984      90.546749599030     104.050000000000
      4818   10       18.927948194975      92.107900450389     107.168770080000
      4819   11       19.829279066647      90.546749599030     105.609385040000
      4820   12       18.927948194975      92.107900450389     104.050000000000
      4821    1       16.223955599984      93.669051301747     107.168770080000
      4822    2       17.125286461644      95.230202163116     105.609385040000
      4823    3       16.223955599984      93.669051301747     104.050000000000
      4824    4       18.927948194975      95.230202163116     107.168770080000
      4825    5       19.829279066647      93.669051301747     105.609385040000
      4826    6       18.927948194975      95.230202163116     104.050000000000
      4827    7       16.223955599984      96.791353014475     107.168770080000
      4828    8       17.125286461644      98.352503875844     105.609385040000
      4829    9       16.223955599984      96.791353014475     104.050000000000
      4830   10       18.927948194975      98.352503875844     107.168770080000
      4831   11       19.829279066647      96.791353014475     105.609385040000
      4832   12       18.927948194975      98.352503875844     104.050000000000
      4833    1       10.815970399989      99.913654727203     107.168770080000
      4834    2       11.717301261649     101.474805578561     105.609385040000
      4835    3       10.815970399989      99.913654727203     104.050000000000
      4836    4       13.519962994981     101.474805578561     107.168770080000
      4837    5       14.421293866652      99.913654727203     105.609385040000
      4838    6       13.519962994981     101.474805578561     104.050000000000
      4839    7       10.815970399989     103.035956439931     107.168770080000
      4840    8       11.717301261649     104.597107291289     105.609385040000
      4841    9       10.815970399989     103.035956439931     104.050000000000
      4842   10       13.519962994981     104.597107291289     107.168770080000
      4843   11       14.421293866652     103.035956439931     105.609385040000
      4844   12       13.519962994981     104.597107291289     104.050000000000
      4845    1       10.815970399989     106.158258142647     107.168770080000
      4846    2       11.717301261649     107.719409004017     105.609385040000
      4847    3       10.815970399989     106.158258142647     104.050000000000
      4848    4       13.519962994981     107.719409004017     107.168770080000
      4849    5       14.421293866652     106.158258142647     105.609385040000
      4850    6       13.519962994981     107.719409004017     104.050000000000
      4851    7       10.815970399989     109.280559855375     107.168770080000
      4852    8       11.717301261649     110.841710716745     105.609385040000
      4853    9       10.815970399989     109.280559855375     104.050000000000
      4854   10       13.519962994981     110.841710716745     107.168770080000
      4855   11       14.421293866652     109.280559855375     105.609385040000
      4856   12       13.519962994981     110.841710716745     104.050000000000
      4857    1       16.223955599984      99.913654727203     107.168770080000
      4858    2       17.125286461644     101.474805578561     105.609385040000
      4859    3       16.223955599984      99.913654727203     104.050000000000
      4860    4       18.927948194975     101.474805578561     107.168770080000
      4861    5       19.829279066647      99.913654727203     105.609385040000
      4862    6       18.927948194975     101.474805578561     104.050000000000
      4863    7       16.223955599984     103.035956439931     107.168770080000
      4864    8       17.125286461644     104.597107291289     105.609385040000
      4865    9       16.223955599984     103.035956439931     104.050000000000
      4866   10       18.927948194975     104.597107291289     107.168770080000
      4867   11       19.829279066647     103.035956439931     105.609385040000
      4868   12       18.927948194975     104.597107291289     104.050000000000
      4869    1       16.223955599984     106.158258142647     107.168770080000
      4870    2       17.125286461644     107.719409004017     105.609385040000
      4871    3       16.223955599984     106.158258142647     104.050000000000
      4872    4       18.927948194975     107.719409004017     107.168770080000
      4873    5       19.829279066647     106.158258142647     105.609385040000
      4874    6       18.927948194975     107.719409004017     104.050000000000
      4875    7       16.223955599984     109.280559855375     107.168770080000
      4876    8       17.125286461644     110.841710716745     105.609385040000
      4877    9       16.223955599984     109.280559855375     104.050000000000
      4878   10       18.927948194975     110.841710716745     107.168770080000
      4879   11       19.829279066647     109.280559855375     105.609385040000
      4880   12       18.927948194975     110.841710716745     104.050000000000
      4881    1       10.815970399989     112.402861568103     107.168770080000
      4882    2       11.717301261649     113.964012419461     105.609385040000
      4883    3       10.815970399989     112.402861568103     104.050000000000
      4884    4       13.519962994981     113.964012419461     107.168770080000
      4885    5       14.421293866652     112.402861568103     105.609385040000
      4886    6       13.519962994981     113.964012419461     104.050000000000
      4887    7       10.815970399989     115.525163280831     107.168770080000
      4888    8       11.717301261649     117.086314132189     105.609385040000
      4889    9       10.815970399989     115.525163280831     104.050000000000
      4890   10       13.519962994981     117.086314132189     107.168770080000
      4891   11       14.421293866652     115.525163280831     105.609385040000
      4892   12       13.519962994981     117.086314132189     104.050000000000
      4893    1       10.815970399989     118.647464983548     107.168770080000
      4894    2       11.717301261649     120.208615844917     105.609385040000
      4895    3       10.815970399989     118.647464983548     104.050000000000
      4896    4       13.519962994981     120.208615844917     107.168770080000
      4897    5       14.421293866652     118.647464983548     105.609385040000
      4898    6       13.519962994981     120.208615844917     104.050000000000
      4899    7       10.815970399989     121.769766696275     107.168770080000
      4900    8       11.717301261649     123.330917557645     105.609385040000
      4901    9       10.815970399989     121.769766696275     104.050000000000
      4902   10       13.519962994981     123.330917557645     107.168770080000
      4903   11       14.421293866652     121.769766696275     105.609385040000
      4904   12       13.519962994981     123.330917557645     104.050000000000
      4905    1       16.223955599984     112.402861568103     107.168770080000
      4906    2       17.125286461644     113.964012419461     105.609385040000
      4907    3       16.223955599984     112.402861568103     104.050000000000
      4908    4       18.927948194975     113.964012419461     107.168770080000
      4909    5       19.829279066647     112.402861568103     105.609385040000
      4910    6       18.927948194975     113.964012419461     104.050000000000
      4911    7       16.223955599984     115.525163280831     107.168770080000
      4912    8       17.125286461644     117.086314132189     105.609385040000
      4913    9       16.223955599984     115.525163280831     104.050000000000
      4914   10       18.927948194975     117.086314132189     107.168770080000
      4915   11       19.829279066647     115.525163280831     105.609385040000
      4916   12       18.927948194975     117.086314132189     104.050000000000
      4917    1       16.223955599984     118.647464983548     107.168770080000
      4918    2       17.125286461644     120.208615844917     105.609385040000
      4919    3       16.223955599984     118.647464983548     104.050000000000
      4920    4       18.927948194975     120.208615844917     107.168770080000
      4921    5       19.829279066647     118.647464983548     105.609385040000
      4922    6       18.927948194975     120.208615844917     104.050000000000
      4923    7       16.223955599984     121.769766696275     107.168770080000
      4924    8       17.125286461644     123.330917557645     105.609385040000
      4925    9       16.223955599984     121.769766696275     104.050000000000
      4926   10       18.927948194975     123.330917557645     107.168770080000
      4927   11       19.829279066647     121.769766696275     105.609385040000
      4928   12       18.927948194975     123.330917557645     104.050000000000
      4929    1       10.815970399989     124.892068409003     107.168770080000
      4930    2       11.717301261649     126.453219260362     105.609385040000
      4931    3       10.815970399989     124.892068409003     104.050000000000
      4932    4       13.519962994981     126.453219260362     107.168770080000
      4933    5       14.421293866652     124.892068409003     105.609385040000
      4934    6       13.519962994981     126.453219260362     104.050000000000
      4935    7       10.815970399989     128.014370121731     107.168770080000
      4936    8       11.717301261649     129.575520973090     105.609385040000
      4937    9       10.815970399989     128.014370121731     104.050000000000
      4938   10       13.519962994981     129.575520973090     107.168770080000
      4939   11       14.421293866652     128.014370121731     105.609385040000
      4940   12       13.519962994981     129.575520973090     104.050000000000
      4941    1       10.815970399989     131.136671824448     107.168770080000
      4942    2       11.717301261649     132.697822685817     105.609385040000
      4943    3       10.815970399989     131.136671824448     104.050000000000
      4944    4       13.519962994981     132.697822685817     107.168770080000
      4945    5       14.421293866652     131.136671824448     105.609385040000
      4946    6       13.519962994981     132.697822685817     104.050000000000
      4947    7       10.815970399989     134.258973537176     107.168770080000
      4948    8       11.717301261649     135.820124398545     105.609385040000
      4949    9       10.815970399989     134.258973537176     104.050000000000
      4950   10       13.519962994981     135.820124398545     107.168770080000
      4951   11       14.421293866652     134.258973537176     105.609385040000
      4952   12       13.519962994981     135.820124398545     104.050000000000
      4953    1       16.223955599984     124.892068409003     107.168770080000
      4954    2       17.125286461644     126.453219260362     105.609385040000
      4955    3       16.223955599984     124.892068409003     104.050000000000
      4956    4       18.927948194975     126.453219260362     107.168770080000
      4957    5       19.829279066647     124.892068409003     105.609385040000
      4958    6       18.927948194975     126.453219260362     104.050000000000
      4959    7       16.223955599984     128.014370121731     107.168770080000
      4960    8       17.125286461644     129.575520973090     105.609385040000
      4961    9       16.223955599984     128.014370121731     104.050000000000
      4962   10       18.927948194975     129.575520973090     107.168770080000
      4963   11       19.829279066647     128.014370121731     105.609385040000
      4964   12       18.927948194975     129.575520973090     104.050000000000
      4965    1       16.223955599984     131.136671824448     107.168770080000
      4966    2       17.125286461644     132.697822685817     105.609385040000
      4967    3       16.223955599984     131.136671824448     104.050000000000
      4968    4       18.927948194975     132.697822685817     107.168770080000
      4969    5       19.829279066647     131.136671824448     105.609385040000
      4970    6       18.927948194975     132.697822685817     104.050000000000
      4971    7       16.223955599984     134.258973537176     107.168770080000
      4972    8       17.125286461644     135.820124398545     105.609385040000
      4973    9       16.223955599984     134.258973537176     104.050000000000
      4974   10       18.927948194975     135.820124398545     107.168770080000
      4975   11       19.829279066647     134.258973537176     105.609385040000
      4976   12       18.927948194975     135.820124398545     104.050000000000
      4977    1       10.815970399989     137.381275249904     107.168770080000
      4978    2       11.717301261649     138.942426101262     105.609385040000
      4979    3       10.815970399989     137.381275249904     104.050000000000
      4980    4       13.519962994981     138.942426101262     107.168770080000
      4981    5       14.421293866652     137.381275249904     105.609385040000
      4982    6       13.519962994981     138.942426101262     104.050000000000
      4983    7       10.815970399989     140.503576962632     107.168770080000
      4984    8       11.717301261649     142.064727813990     105.609385040000
      4985    9       10.815970399989     140.503576962632     104.050000000000
      4986   10       13.519962994981     142.064727813990     107.168770080000
      4987   11       14.421293866652     140.503576962632     105.609385040000
      4988   12       13.519962994981     142.064727813990     104.050000000000
      4989    1       10.815970399989     143.625878665348     107.168770080000
      4990    2       11.717301261649     145.187029526718     105.609385040000
      4991    3       10.815970399989     143.625878665348     104.050000000000
      4992    4       13.519962994981     145.187029526718     107.168770080000
      4993    5       14.421293866652     143.625878665348     105.609385040000
      4994    6       13.519962994981     145.187029526718     104.050000000000
      4995    7       10.815970399989     146.748180378076     107.168770080000
      4996    8       11.717301261649     148.309331239446     105.609385040000
      4997    9       10.815970399989     146.748180378076     104.050000000000
      4998   10       13.519962994981     148.309331239446     107.168770080000
      4999   11       14.421293866652     146.748180378076     105.609385040000
      5000   12       13.519962994981     148.309331239446     104.050000000000
      5001    1       16.223955599984     137.381275249904     107.168770080000
      5002    2       17.125286461644     138.942426101262     105.609385040000
      5003    3       16.223955599984     137.381275249904     104.050000000000
      5004    4       18.927948194975     138.942426101262     107.168770080000
      5005    5       19.829279066647     137.381275249904     105.609385040000
      5006    6       18.927948194975     138.942426101262     104.050000000000
      5007    7       16.223955599984     140.503576962632     107.168770080000
      5008    8       17.125286461644     142.064727813990     105.609385040000
      5009    9       16.223955599984     140.503576962632     104.050000000000
      5010   10       18.927948194975     142.064727813990     107.168770080000
      5011   11       19.829279066647     140.503576962632     105.609385040000
      5012   12       18.927948194975     142.064727813990     104.050000000000
      5013    1       16.223955599984     143.625878665348     107.168770080000
      5014    2       17.125286461644     145.187029526718     105.609385040000
      5015    3       16.223955599984     143.625878665348     104.050000000000
      5016    4       18.927948194975     145.187029526718     107.168770080000
      5017    5       19.829279066647     143.625878665348     105.609385040000
      5018    6       18.927948194975     145.187029526718     104.050000000000
      5019    7       16.223955599984     146.748180378076     107.168770080000
      5020    8       17.125286461644     148.309331239446     105.609385040000
      5021    9       16.223955599984     146.748180378076     104.050000000000
      5022   10       18.927948194975     148.309331239446     107.168770080000
      5023   11       19.829279066647     146.748180378076     105.609385040000
      5024   12       18.927948194975     148.309331239446     104.050000000000
      5025    1       21.631940799978       0.000000000000     107.168770080000
      5026    2       22.533271661638       1.561150851358     105.609385040000
      5027    3       21.631940799978       0.000000000000     104.050000000000
      5028    4       24.335933394970       1.561150851358     107.168770080000
      5029    5       25.237264266641       0.000000000000     105.609385040000
      5030    6       24.335933394970       1.561150851358     104.050000000000
      5031    7       21.631940799978       3.122301712728     107.168770080000
      5032    8       22.533271661638       4.683452564086     105.609385040000
      5033    9       21.631940799978       3.122301712728     104.050000000000
      5034   10       24.335933394970       4.683452564086     107.168770080000
      5035   11       25.237264266641       3.122301712728     105.609385040000
      5036   12       24.335933394970       4.683452564086     104.050000000000
      5037    1       21.631940799978       6.244603415445     107.168770080000
      5038    2       22.533271661638       7.805754276814     105.609385040000
      5039    3       21.631940799978       6.244603415445     104.050000000000
      5040    4       24.335933394970       7.805754276814     107.168770080000
      5041    5       25.237264266641       6.244603415445     105.609385040000
      5042    6       24.335933394970       7.805754276814     104.050000000000
      5043    7       21.631940799978       9.366905128172     107.168770080000
      5044    8       22.533271661638      10.928055989542     105.609385040000
      5045    9       21.631940799978       9.366905128172     104.050000000000
      5046   10       24.335933394970      10.928055989542     107.168770080000
      5047   11       25.237264266641       9.366905128172     105.609385040000
      5048   12       24.335933394970      10.928055989542     104.050000000000
      5049    1       27.039925999973       0.000000000000     107.168770080000
      5050    2       27.941256861633       1.561150851358     105.609385040000
      5051    3       27.039925999973       0.000000000000     104.050000000000
      5052    4       29.743918594964       1.561150851358     107.168770080000
      5053    5       30.645249466636       0.000000000000     105.609385040000
      5054    6       29.743918594964       1.561150851358     104.050000000000
      5055    7       27.039925999973       3.122301712728     107.168770080000
      5056    8       27.941256861633       4.683452564086     105.609385040000
      5057    9       27.039925999973       3.122301712728     104.050000000000
      5058   10       29.743918594964       4.683452564086     107.168770080000
      5059   11       30.645249466636       3.122301712728     105.609385040000
      5060   12       29.743918594964       4.683452564086     104.050000000000
      5061    1       27.039925999973       6.244603415445     107.168770080000
      5062    2       27.941256861633       7.805754276814     105.609385040000
      5063    3       27.039925999973       6.244603415445     104.050000000000
      5064    4       29.743918594964       7.805754276814     107.168770080000
      5065    5       30.645249466636       6.244603415445     105.609385040000
      5066    6       29.743918594964       7.805754276814     104.050000000000
      5067    7       27.039925999973       9.366905128172     107.168770080000
      5068    8       27.941256861633      10.928055989542     105.609385040000
      5069    9       27.039925999973       9.366905128172     104.050000000000
      5070   10       29.743918594964      10.928055989542     107.168770080000
      5071   11       30.645249466636       9.366905128172     105.609385040000
      5072   12       29.743918594964      10.928055989542     104.050000000000
      5073    1       21.631940799978      12.489206840900     107.168770080000
      5074    2       22.533271661638      14.050357692259     105.609385040000
      5075    3       21.631940799978      12.489206840900     104.050000000000
      5076    4       24.335933394970      14.050357692259     107.168770080000
      5077    5       25.237264266641      12.489206840900     105.609385040000
      5078    6       24.335933394970      14.050357692259     104.050000000000
      5079    7       21.631940799978      15.611508553628     107.168770080000
      5080    8       22.533271661638      17.172659404987     105.609385040000
      5081    9       21.631940799978      15.611508553628     104.050000000000
      5082   10       24.335933394970      17.172659404987     107.168770080000
      5083   11       25.237264266641      15.611508553628     105.609385040000
      5084   12       24.335933394970      17.172659404987     104.050000000000
      5085    1       21.631940799978      18.733810256345     107.168770080000
      5086    2       22.533271661638      20.294961117714     105.609385040000
      5087    3       21.631940799978      18.733810256345     104.050000000000
      5088    4       24.335933394970      20.294961117714     107.168770080000
      5089    5       25.237264266641      18.733810256345     105.609385040000
      5090    6       24.335933394970      20.294961117714     104.050000000000
      5091    7       21.631940799978      21.856111969073     107.168770080000
      5092    8       22.533271661638      23.417262830442     105.609385040000
      5093    9       21.631940799978      21.856111969073     104.050000000000
      5094   10       24.335933394970      23.417262830442     107.168770080000
      5095   11       25.237264266641      21.856111969073     105.609385040000
      5096   12       24.335933394970      23.417262830442     104.050000000000
      5097    1       27.039925999973      12.489206840900     107.168770080000
      5098    2       27.941256861633      14.050357692259     105.609385040000
      5099    3       27.039925999973      12.489206840900     104.050000000000
      5100    4       29.743918594964      14.050357692259     107.168770080000
      5101    5       30.645249466636      12.489206840900     105.609385040000
      5102    6       29.743918594964      14.050357692259     104.050000000000
      5103    7       27.039925999973      15.611508553628     107.168770080000
      5104    8       27.941256861633      17.172659404987     105.609385040000
      5105    9       27.039925999973      15.611508553628     104.050000000000
      5106   10       29.743918594964      17.172659404987     107.168770080000
      5107   11       30.645249466636      15.611508553628     105.609385040000
      5108   12       29.743918594964      17.172659404987     104.050000000000
      5109    1       27.039925999973      18.733810256345     107.168770080000
      5110    2       27.941256861633      20.294961117714     105.609385040000
      5111    3       27.039925999973      18.733810256345     104.050000000000
      5112    4       29.743918594964      20.294961117714     107.168770080000
      5113    5       30.645249466636      18.733810256345     105.609385040000
      5114    6       29.743918594964      20.294961117714     104.050000000000
      5115    7       27.039925999973      21.856111969073     107.168770080000
      5116    8       27.941256861633      23.417262830442     105.609385040000
      5117    9       27.039925999973      21.856111969073     104.050000000000
      5118   10       29.743918594964      23.417262830442     107.168770080000
      5119   11       30.645249466636      21.856111969073     105.609385040000
      5120   12       29.743918594964      23.417262830442     104.050000000000
      5121    1       21.631940799978      24.978413681801     107.168770080000
      5122    2       22.533271661638      26.539564533159     105.609385040000
      5123    3       21.631940799978      24.978413681801     104.050000000000
      5124    4       24.335933394970      26.539564533159     107.168770080000
      5125    5       25.237264266641      24.978413681801     105.609385040000
      5126    6       24.335933394970      26.539564533159     104.050000000000
      5127    7       21.631940799978      28.100715394529     107.168770080000
      5128    8       22.533271661638      29.661866245887     105.609385040000
      5129    9       21.631940799978      28.100715394529     104.050000000000
      5130   10       24.335933394970      29.661866245887     107.168770080000
      5131   11       25.237264266641      28.100715394529     105.609385040000
      5132   12       24.335933394970      29.661866245887     104.050000000000
      5133    1       21.631940799978      31.223017097245     107.168770080000
      5134    2       22.533271661638      32.784167958615     105.609385040000
      5135    3       21.631940799978      31.223017097245     104.050000000000
      5136    4       24.335933394970      32.784167958615     107.168770080000
      5137    5       25.237264266641      31.223017097245     105.609385040000
      5138    6       24.335933394970      32.784167958615     104.050000000000
      5139    7       21.631940799978      34.345318809973     107.168770080000
      5140    8       22.533271661638      35.906469671343     105.609385040000
      5141    9       21.631940799978      34.345318809973     104.050000000000
      5142   10       24.335933394970      35.906469671343     107.168770080000
      5143   11       25.237264266641      34.345318809973     105.609385040000
      5144   12       24.335933394970      35.906469671343     104.050000000000
      5145    1       27.039925999973      24.978413681801     107.168770080000
      5146    2       27.941256861633      26.539564533159     105.609385040000
      5147    3       27.039925999973      24.978413681801     104.050000000000
      5148    4       29.743918594964      26.539564533159     107.168770080000
      5149    5       30.645249466636      24.978413681801     105.609385040000
      5150    6       29.743918594964      26.539564533159     104.050000000000
      5151    7       27.039925999973      28.100715394529     107.168770080000
      5152    8       27.941256861633      29.661866245887     105.609385040000
      5153    9       27.039925999973      28.100715394529     104.050000000000
      5154   10       29.743918594964      29.661866245887     107.168770080000
      5155   11       30.645249466636      28.100715394529     105.609385040000
      5156   12       29.743918594964      29.661866245887     104.050000000000
      5157    1       27.039925999973      31.223017097245     107.168770080000
      5158    2       27.941256861633      32.784167958615     105.609385040000
      5159    3       27.039925999973      31.223017097245     104.050000000000
      5160    4       29.743918594964      32.784167958615     107.168770080000
      5161    5       30.645249466636      31.223017097245     105.609385040000
      5162    6       29.743918594964      32.784167958615     104.050000000000
      5163    7       27.039925999973      34.345318809973     107.168770080000
      5164    8       27.941256861633      35.906469671343     105.609385040000
      5165    9       27.039925999973      34.345318809973     104.050000000000
      5166   10       29.743918594964      35.906469671343     107.168770080000
      5167   11       30.645249466636      34.345318809973     105.609385040000
      5168   12       29.743918594964      35.906469671343     104.050000000000
      5169    1       21.631940799978      37.467620522701     107.168770080000
      5170    2       22.533271661638      39.028771374059     105.609385040000
      5171    3       21.631940799978      37.467620522701     104.050000000000
      5172    4       24.335933394970      39.028771374059     107.168770080000
      5173    5       25.237264266641      37.467620522701     105.609385040000
      5174    6       24.335933394970      39.028771374059     104.050000000000
      5175    7       21.631940799978      40.589922235429     107.168770080000
      5176    8       22.533271661638      42.151073086787     105.609385040000
      5177    9       21.631940799978      40.589922235429     104.050000000000
      5178   10       24.335933394970      42.151073086787     107.168770080000
      5179   11       25.237264266641      40.589922235429     105.609385040000
      5180   12       24.335933394970      42.151073086787     104.050000000000
      5181    1       21.631940799978      43.712223938146     107.168770080000
      5182    2       22.533271661638      45.273374799515     105.609385040000
      5183    3       21.631940799978      43.712223938146     104.050000000000
      5184    4       24.335933394970      45.273374799515     107.168770080000
      5185    5       25.237264266641      43.712223938146     105.609385040000
      5186    6       24.335933394970      45.273374799515     104.050000000000
      5187    7       21.631940799978      46.834525650873     107.168770080000
      5188    8       22.533271661638      48.395676512243     105.609385040000
      5189    9       21.631940799978      46.834525650873     104.050000000000
      5190   10       24.335933394970      48.395676512243     107.168770080000
      5191   11       25.237264266641      46.834525650873     105.609385040000
      5192   12       24.335933394970      48.395676512243     104.050000000000
      5193    1       27.039925999973      37.467620522701     107.168770080000
      5194    2       27.941256861633      39.028771374059     105.609385040000
      5195    3       27.039925999973      37.467620522701     104.050000000000
      5196    4       29.743918594964      39.028771374059     107.168770080000
      5197    5       30.645249466636      37.467620522701     105.609385040000
      5198    6       29.743918594964      39.028771374059     104.050000000000
      5199    7       27.039925999973      40.589922235429     107.168770080000
      5200    8       27.941256861633      42.151073086787     105.609385040000
      5201    9       27.039925999973      40.589922235429     104.050000000000
      5202   10       29.743918594964      42.151073086787     107.168770080000
      5203   11       30.645249466636      40.589922235429     105.609385040000
      5204   12       29.743918594964      42.151073086787     104.050000000000
      5205    1       27.039925999973      43.712223938146     107.168770080000
      5206    2       27.941256861633      45.273374799515     105.609385040000
      5207    3       27.039925999973      43.712223938146     104.050000000000
      5208    4       29.743918594964      45.273374799515     107.168770080000
      5209    5       30.645249466636      43.712223938146     105.609385040000
      5210    6       29.743918594964      45.273374799515     104.050000000000
      5211    7       27.039925999973      46.834525650873     107.168770080000
      5212    8       27.941256861633      48.395676512243     105.609385040000
      5213    9       27.039925999973      46.834525650873     104.050000000000
      5214   10       29.743918594964      48.395676512243     107.168770080000
      5215   11       30.645249466636      46.834525650873     105.609385040000
      5216   12       29.743918594964      48.395676512243     104.050000000000
      5217    1       21.631940799978      49.956827363601     107.168770080000
      5218    2       22.533271661638      51.517978214960     105.609385040000
      5219    3       21.631940799978      49.956827363601     104.050000000000
      5220    4       24.335933394970      51.517978214960     107.168770080000
      5221    5       25.237264266641      49.956827363601     105.609385040000
      5222    6       24.335933394970      51.517978214960     104.050000000000
      5223    7       21.631940799978      53.079129076329     107.168770080000
      5224    8       22.533271661638      54.640279927688     105.609385040000
      5225    9       21.631940799978      53.079129076329     104.050000000000
      5226   10       24.335933394970      54.640279927688     107.168770080000
      5227   11       25.237264266641      53.079129076329     105.609385040000
      5228   12       24.335933394970      54.640279927688     104.050000000000
      5229    1       21.631940799978      56.201430779046     107.168770080000
      5230    2       22.533271661638      57.762581640415     105.609385040000
      5231    3       21.631940799978      56.201430779046     104.050000000000
      5232    4       24.335933394970      57.762581640415     107.168770080000
      5233    5       25.237264266641      56.201430779046     105.609385040000
      5234    6       24.335933394970      57.762581640415     104.050000000000
      5235    7       21.631940799978      59.323732491774     107.168770080000
      5236    8       22.533271661638      60.884883353143     105.609385040000
      5237    9       21.631940799978      59.323732491774     104.050000000000
      5238   10       24.335933394970      60.884883353143     107.168770080000
      5239   11       25.237264266641      59.323732491774     105.609385040000
      5240   12       24.335933394970      60.884883353143     104.050000000000
      5241    1       27.039925999973      49.956827363601     107.168770080000
      5242    2       27.941256861633      51.517978214960     105.609385040000
      5243    3       27.039925999973      49.956827363601     104.050000000000
      5244    4       29.743918594964      51.517978214960     107.168770080000
      5245    5       30.645249466636      49.956827363601     105.609385040000
      5246    6       29.743918594964      51.517978214960     104.050000000000
      5247    7       27.039925999973      53.079129076329     107.168770080000
      5248    8       27.941256861633      54.640279927688     105.609385040000
      5249    9       27.039925999973      53.079129076329     104.050000000000
      5250   10       29.743918594964      54.640279927688     107.168770080000
      5251   11       30.645249466636      53.079129076329     105.609385040000
      5252   12       29.743918594964      54.640279927688     104.050000000000
      5253    1       27.039925999973      56.201430779046     107.168770080000
      5254    2       27.941256861633      57.762581640415     105.609385040000
      5255    3       27.039925999973      56.201430779046     104.050000000000
      5256    4       29.743918594964      57.762581640415     107.168770080000
      5257    5       30.645249466636      56.201430779046     105.609385040000
      5258    6       29.743918594964      57.762581640415     104.050000000000
      5259    7       27.039925999973      59.323732491774     107.168770080000
      5260    8       27.941256861633      60.884883353143     105.609385040000
      5261    9       27.039925999973      59.323732491774     104.050000000000
      5262   10       29.743918594964      60.884883353143     107.168770080000
      5263   11       30.645249466636      59.323732491774     105.609385040000
      5264   12       29.743918594964      60.884883353143     104.050000000000
      5265    1       21.631940799978      62.446034204502     107.168770080000
      5266    2       22.533271661638      64.007185055860     105.609385040000
      5267    3       21.631940799978      62.446034204502     104.050000000000
      5268    4       24.335933394970      64.007185055860     107.168770080000
      5269    5       25.237264266641      62.446034204502     105.609385040000
      5270    6       24.335933394970      64.007185055860     104.050000000000
      5271    7       21.631940799978      65.568335917230     107.168770080000
      5272    8       22.533271661638      67.129486768588     105.609385040000
      5273    9       21.631940799978      65.568335917230     104.050000000000
      5274   10       24.335933394970      67.129486768588     107.168770080000
      5275   11       25.237264266641      65.568335917230     105.609385040000
      5276   12       24.335933394970      67.129486768588     104.050000000000
      5277    1       21.631940799978      68.690637619946     107.168770080000
      5278    2       22.533271661638      70.251788481316     105.609385040000
      5279    3       21.631940799978      68.690637619946     104.050000000000
      5280    4       24.335933394970      70.251788481316     107.168770080000
      5281    5       25.237264266641      68.690637619946     105.609385040000
      5282    6       24.335933394970      70.251788481316     104.050000000000
      5283    7       21.631940799978      71.812939332674     107.168770080000
      5284    8       22.533271661638      73.374090194044     105.609385040000
      5285    9       21.631940799978      71.812939332674     104.050000000000
      5286   10       24.335933394970      73.374090194044     107.168770080000
      5287   11       25.237264266641      71.812939332674     105.609385040000
      5288   12       24.335933394970      73.374090194044     104.050000000000
      5289    1       27.039925999973      62.446034204502     107.168770080000
      5290    2       27.941256861633      64.007185055860     105.609385040000
      5291    3       27.039925999973      62.446034204502     104.050000000000
      5292    4       29.743918594964      64.007185055860     107.168770080000
      5293    5       30.645249466636      62.446034204502     105.609385040000
      5294    6       29.743918594964      64.007185055860     104.050000000000
      5295    7       27.039925999973      65.568335917230     107.168770080000
      5296    8       27.941256861633      67.129486768588     105.609385040000
      5297    9       27.039925999973      65.568335917230     104.050000000000
      5298   10       29.743918594964      67.129486768588     107.168770080000
      5299   11       30.645249466636      65.568335917230     105.609385040000
      5300   12       29.743918594964      67.129486768588     104.050000000000
      5301    1       27.039925999973      68.690637619946     107.168770080000
      5302    2       27.941256861633      70.251788481316     105.609385040000
      5303    3       27.039925999973      68.690637619946     104.050000000000
      5304    4       29.743918594964      70.251788481316     107.168770080000
      5305    5       30.645249466636      68.690637619946     105.609385040000
      5306    6       29.743918594964      70.251788481316     104.050000000000
      5307    7       27.039925999973      71.812939332674     107.168770080000
      5308    8       27.941256861633      73.374090194044     105.609385040000
      5309    9       27.039925999973      71.812939332674     104.050000000000
      5310   10       29.743918594964      73.374090194044     107.168770080000
      5311   11       30.645249466636      71.812939332674     105.609385040000
      5312   12       29.743918594964      73.374090194044     104.050000000000
      5313    1       21.631940799978      74.935241045402     107.168770080000
      5314    2       22.533271661638      76.496391896760     105.609385040000
      5315    3       21.631940799978      74.935241045402     104.050000000000
      5316    4       24.335933394970      76.496391896760     107.168770080000
      5317    5       25.237264266641      74.935241045402     105.609385040000
      5318    6       24.335933394970      76.496391896760     104.050000000000
      5319    7       21.631940799978      78.057542758130     107.168770080000
      5320    8       22.533271661638      79.618693609488     105.609385040000
      5321    9       21.631940799978      78.057542758130     104.050000000000
      5322   10       24.335933394970      79.618693609488     107.168770080000
      5323   11       25.237264266641      78.057542758130     105.609385040000
      5324   12       24.335933394970      79.618693609488     104.050000000000
      5325    1       21.631940799978      81.179844460847     107.168770080000
      5326    2       22.533271661638      82.740995322216     105.609385040000
      5327    3       21.631940799978      81.179844460847     104.050000000000
      5328    4       24.335933394970      82.740995322216     107.168770080000
      5329    5       25.237264266641      81.179844460847     105.609385040000
      5330    6       24.335933394970      82.740995322216     104.050000000000
      5331    7       21.631940799978      84.302146173574     107.168770080000
      5332    8       22.533271661638      85.863297034944     105.609385040000
      5333    9       21.631940799978      84.302146173574     104.050000000000
      5334   10       24.335933394970      85.863297034944     107.168770080000
      5335   11       25.237264266641      84.302146173574     105.609385040000
      5336   12       24.335933394970      85.863297034944     104.050000000000
      5337    1       27.039925999973      74.935241045402     107.168770080000
      5338    2       27.941256861633      76.496391896760     105.609385040000
      5339    3       27.039925999973      74.935241045402     104.050000000000
      5340    4       29.743918594964      76.496391896760     107.168770080000
      5341    5       30.645249466636      74.935241045402     105.609385040000
      5342    6       29.743918594964      76.496391896760     104.050000000000
      5343    7       27.039925999973      78.057542758130     107.168770080000
      5344    8       27.941256861633      79.618693609488     105.609385040000
      5345    9       27.039925999973      78.057542758130     104.050000000000
      5346   10       29.743918594964      79.618693609488     107.168770080000
      5347   11       30.645249466636      78.057542758130     105.609385040000
      5348   12       29.743918594964      79.618693609488     104.050000000000
      5349    1       27.039925999973      81.179844460847     107.168770080000
      5350    2       27.941256861633      82.740995322216     105.609385040000
      5351    3       27.039925999973      81.179844460847     104.050000000000
      5352    4       29.743918594964      82.740995322216     107.168770080000
      5353    5       30.645249466636      81.179844460847     105.609385040000
      5354    6       29.743918594964      82.740995322216     104.050000000000
      5355    7       27.039925999973      84.302146173574     107.168770080000
      5356    8       27.941256861633      85.863297034944     105.609385040000
      5357    9       27.039925999973      84.302146173574     104.050000000000
      5358   10       29.743918594964      85.863297034944     107.168770080000
      5359   11       30.645249466636      84.302146173574     105.609385040000
      5360   12       29.743918594964      85.863297034944     104.050000000000
      5361    1       21.631940799978      87.424447886302     107.168770080000
      5362    2       22.533271661638      88.985598737661     105.609385040000
      5363    3       21.631940799978      87.424447886302     104.050000000000
      5364    4       24.335933394970      88.985598737661     107.168770080000
      5365    5       25.237264266641      87.424447886302     105.609385040000
      5366    6       24.335933394970      88.985598737661     104.050000000000
      5367    7       21.631940799978      90.546749599030     107.168770080000
      5368    8       22.533271661638      92.107900450389     105.609385040000
      5369    9       21.631940799978      90.546749599030     104.050000000000
      5370   10       24.335933394970      92.107900450389     107.168770080000
      5371   11       25.237264266641      90.546749599030     105.609385040000
      5372   12       24.335933394970      92.107900450389     104.050000000000
      5373    1       21.631940799978      93.669051301747     107.168770080000
      5374    2       22.533271661638      95.230202163116     105.609385040000
      5375    3       21.631940799978      93.669051301747     104.050000000000
      5376    4       24.335933394970      95.230202163116     107.168770080000
      5377    5       25.237264266641      93.669051301747     105.609385040000
      5378    6       24.335933394970      95.230202163116     104.050000000000
      5379    7       21.631940799978      96.791353014475     107.168770080000
      5380    8       22.533271661638      98.352503875844     105.609385040000
      5381    9       21.631940799978      96.791353014475     104.050000000000
      5382   10       24.335933394970      98.352503875844     107.168770080000
      5383   11       25.237264266641      96.791353014475     105.609385040000
      5384   12       24.335933394970      98.352503875844     104.050000000000
      5385    1       27.039925999973      87.424447886302     107.168770080000
      5386    2       27.941256861633      88.985598737661     105.609385040000
      5387    3       27.039925999973      87.424447886302     104.050000000000
      5388    4       29.743918594964      88.985598737661     107.168770080000
      5389    5       30.645249466636      87.424447886302     105.609385040000
      5390    6       29.743918594964      88.985598737661     104.050000000000
      5391    7       27.039925999973      90.546749599030     107.168770080000
      5392    8       27.941256861633      92.107900450389     105.609385040000
      5393    9       27.039925999973      90.546749599030     104.050000000000
      5394   10       29.743918594964      92.107900450389     107.168770080000
      5395   11       30.645249466636      90.546749599030     105.609385040000
      5396   12       29.743918594964      92.107900450389     104.050000000000
      5397    1       27.039925999973      93.669051301747     107.168770080000
      5398    2       27.941256861633      95.230202163116     105.609385040000
      5399    3       27.039925999973      93.669051301747     104.050000000000
      5400    4       29.743918594964      95.230202163116     107.168770080000
      5401    5       30.645249466636      93.669051301747     105.609385040000
      5402    6       29.743918594964      95.230202163116     104.050000000000
      5403    7       27.039925999973      96.791353014475     107.168770080000
      5404    8       27.941256861633      98.352503875844     105.609385040000
      5405    9       27.039925999973      96.791353014475     104.050000000000
      5406   10       29.743918594964      98.352503875844     107.168770080000
      5407   11       30.645249466636      96.791353014475     105.609385040000
      5408   12       29.743918594964      98.352503875844     104.050000000000
      5409    1       21.631940799978      99.913654727203     107.168770080000
      5410    2       22.533271661638     101.474805578561     105.609385040000
      5411    3       21.631940799978      99.913654727203     104.050000000000
      5412    4       24.335933394970     101.474805578561     107.168770080000
      5413    5       25.237264266641      99.913654727203     105.609385040000
      5414    6       24.335933394970     101.474805578561     104.050000000000
      5415    7       21.631940799978     103.035956439931     107.168770080000
      5416    8       22.533271661638     104.597107291289     105.609385040000
      5417    9       21.631940799978     103.035956439931     104.050000000000
      5418   10       24.335933394970     104.597107291289     107.168770080000
      5419   11       25.237264266641     103.035956439931     105.609385040000
      5420   12       24.335933394970     104.597107291289     104.050000000000
      5421    1       21.631940799978     106.158258142647     107.168770080000
      5422    2       22.533271661638     107.719409004017     105.609385040000
      5423    3       21.631940799978     106.158258142647     104.050000000000
      5424    4       24.335933394970     107.719409004017     107.168770080000
      5425    5       25.237264266641     106.158258142647     105.609385040000
      5426    6       24.335933394970     107.719409004017     104.050000000000
      5427    7       21.631940799978     109.280559855375     107.168770080000
      5428    8       22.533271661638     110.841710716745     105.609385040000
      5429    9       21.631940799978     109.280559855375     104.050000000000
      5430   10       24.335933394970     110.841710716745     107.168770080000
      5431   11       25.237264266641     109.280559855375     105.609385040000
      5432   12       24.335933394970     110.841710716745     104.050000000000
      5433    1       27.039925999973      99.913654727203     107.168770080000
      5434    2       27.941256861633     101.474805578561     105.609385040000
      5435    3       27.039925999973      99.913654727203     104.050000000000
      5436    4       29.743918594964     101.474805578561     107.168770080000
      5437    5       30.645249466636      99.913654727203     105.609385040000
      5438    6       29.743918594964     101.474805578561     104.050000000000
      5439    7       27.039925999973     103.035956439931     107.168770080000
      5440    8       27.941256861633     104.597107291289     105.609385040000
      5441    9       27.039925999973     103.035956439931     104.050000000000
      5442   10       29.743918594964     104.597107291289     107.168770080000
      5443   11       30.645249466636     103.035956439931     105.609385040000
      5444   12       29.743918594964     104.597107291289     104.050000000000
      5445    1       27.039925999973     106.158258142647     107.168770080000
      5446    2       27.941256861633     107.719409004017     105.609385040000
      5447    3       27.039925999973     106.158258142647     104.050000000000
      5448    4       29.743918594964     107.719409004017     107.168770080000
      5449    5       30.645249466636     106.158258142647     105.609385040000
      5450    6       29.743918594964     107.719409004017     104.050000000000
      5451    7       27.039925999973     109.280559855375     107.168770080000
      5452    8       27.941256861633     110.841710716745     105.609385040000
      5453    9       27.039925999973     109.280559855375     104.050000000000
      5454   10       29.743918594964     110.841710716745     107.168770080000
      5455   11       30.645249466636     109.280559855375     105.609385040000
      5456   12       29.743918594964     110.841710716745     104.050000000000
      5457    1       21.631940799978     112.402861568103     107.168770080000
      5458    2       22.533271661638     113.964012419461     105.609385040000
      5459    3       21.631940799978     112.402861568103     104.050000000000
      5460    4       24.335933394970     113.964012419461     107.168770080000
      5461    5       25.237264266641     112.402861568103     105.609385040000
      5462    6       24.335933394970     113.964012419461     104.050000000000
      5463    7       21.631940799978     115.525163280831     107.168770080000
      5464    8       22.533271661638     117.086314132189     105.609385040000
      5465    9       21.631940799978     115.525163280831     104.050000000000
      5466   10       24.335933394970     117.086314132189     107.168770080000
      5467   11       25.237264266641     115.525163280831     105.609385040000
      5468   12       24.335933394970     117.086314132189     104.050000000000
      5469    1       21.631940799978     118.647464983548     107.168770080000
      5470    2       22.533271661638     120.208615844917     105.609385040000
      5471    3       21.631940799978     118.647464983548     104.050000000000
      5472    4       24.335933394970     120.208615844917     107.168770080000
      5473    5       25.237264266641     118.647464983548     105.609385040000
      5474    6       24.335933394970     120.208615844917     104.050000000000
      5475    7       21.631940799978     121.769766696275     107.168770080000
      5476    8       22.533271661638     123.330917557645     105.609385040000
      5477    9       21.631940799978     121.769766696275     104.050000000000
      5478   10       24.335933394970     123.330917557645     107.168770080000
      5479   11       25.237264266641     121.769766696275     105.609385040000
      5480   12       24.335933394970     123.330917557645     104.050000000000
      5481    1       27.039925999973     112.402861568103     107.168770080000
      5482    2       27.941256861633     113.964012419461     105.609385040000
      5483    3       27.039925999973     112.402861568103     104.050000000000
      5484    4       29.743918594964     113.964012419461     107.168770080000
      5485    5       30.645249466636     112.402861568103     105.609385040000
      5486    6       29.743918594964     113.964012419461     104.050000000000
      5487    7       27.039925999973     115.525163280831     107.168770080000
      5488    8       27.941256861633     117.086314132189     105.609385040000
      5489    9       27.039925999973     115.525163280831     104.050000000000
      5490   10       29.743918594964     117.086314132189     107.168770080000
      5491   11       30.645249466636     115.525163280831     105.609385040000
      5492   12       29.743918594964     117.086314132189     104.050000000000
      5493    1       27.039925999973     118.647464983548     107.168770080000
      5494    2       27.941256861633     120.208615844917     105.609385040000
      5495    3       27.039925999973     118.647464983548     104.050000000000
      5496    4       29.743918594964     120.208615844917     107.168770080000
      5497    5       30.645249466636     118.647464983548     105.609385040000
      5498    6       29.743918594964     120.208615844917     104.050000000000
      5499    7       27.039925999973     121.769766696275     107.168770080000
      5500    8       27.941256861633     123.330917557645     105.609385040000
      5501    9       27.039925999973     121.769766696275     104.050000000000
      5502   10       29.743918594964     123.330917557645     107.168770080000
      5503   11       30.645249466636     121.769766696275     105.609385040000
      5504   12       29.743918594964     123.330917557645     104.050000000000
      5505    1       21.631940799978     124.892068409003     107.168770080000
      5506    2       22.533271661638     126.453219260362     105.609385040000
      5507    3       21.631940799978     124.892068409003     104.050000000000
      5508    4       24.335933394970     126.453219260362     107.168770080000
      5509    5       25.237264266641     124.892068409003     105.609385040000
      5510    6       24.335933394970     126.453219260362     104.050000000000
      5511    7       21.631940799978     128.014370121731     107.168770080000
      5512    8       22.533271661638     129.575520973090     105.609385040000
      5513    9       21.631940799978     128.014370121731     104.050000000000
      5514   10       24.335933394970     129.575520973090     107.168770080000
      5515   11       25.237264266641     128.014370121731     105.609385040000
      5516   12       24.335933394970     129.575520973090     104.050000000000
      5517    1       21.631940799978     131.136671824448     107.168770080000
      5518    2       22.533271661638     132.697822685817     105.609385040000
      5519    3       21.631940799978     131.136671824448     104.050000000000
      5520    4       24.335933394970     132.697822685817     107.168770080000
      5521    5       25.237264266641     131.136671824448     105.609385040000
      5522    6       24.335933394970     132.697822685817     104.050000000000
      5523    7       21.631940799978     134.258973537176     107.168770080000
      5524    8       22.533271661638     135.820124398545     105.609385040000
      5525    9       21.631940799978     134.258973537176     104.050000000000
      5526   10       24.335933394970     135.820124398545     107.168770080000
      5527   11       25.237264266641     134.258973537176     105.609385040000
      5528   12       24.335933394970     135.820124398545     104.050000000000
      5529    1       27.039925999973     124.892068409003     107.168770080000
      5530    2       27.941256861633     126.453219260362     105.609385040000
      5531    3       27.039925999973     124.892068409003     104.050000000000
      5532    4       29.743918594964     126.453219260362     107.168770080000
      5533    5       30.645249466636     124.892068409003     105.609385040000
      5534    6       29.743918594964     126.453219260362     104.050000000000
      5535    7       27.039925999973     128.014370121731     107.168770080000
      5536    8       27.941256861633     129.575520973090     105.609385040000
      5537    9       27.039925999973     128.014370121731     104.050000000000
      5538   10       29.743918594964     129.575520973090     107.168770080000
      5539   11       30.645249466636     128.014370121731     105.609385040000
      5540   12       29.743918594964     129.575520973090     104.050000000000
      5541    1       27.039925999973     131.136671824448     107.168770080000
      5542    2       27.941256861633     132.697822685817     105.609385040000
      5543    3       27.039925999973     131.136671824448     104.050000000000
      5544    4       29.743918594964     132.697822685817     107.168770080000
      5545    5       30.645249466636     131.136671824448     105.609385040000
      5546    6       29.743918594964     132.697822685817     104.050000000000
      5547    7       27.039925999973     134.258973537176     107.168770080000
      5548    8       27.941256861633     135.820124398545     105.609385040000
      5549    9       27.039925999973     134.258973537176     104.050000000000
      5550   10       29.743918594964     135.820124398545     107.168770080000
      5551   11       30.645249466636     134.258973537176     105.609385040000
      5552   12       29.743918594964     135.820124398545     104.050000000000
      5553    1       21.631940799978     137.381275249904     107.168770080000
      5554    2       22.533271661638     138.942426101262     105.609385040000
      5555    3       21.631940799978     137.381275249904     104.050000000000
      5556    4       24.335933394970     138.942426101262     107.168770080000
      5557    5       25.237264266641     137.381275249904     105.609385040000
      5558    6       24.335933394970     138.942426101262     104.050000000000
      5559    7       21.631940799978     140.503576962632     107.168770080000
      5560    8       22.533271661638     142.064727813990     105.609385040000
      5561    9       21.631940799978     140.503576962632     104.050000000000
      5562   10       24.335933394970     142.064727813990     107.168770080000
      5563   11       25.237264266641     140.503576962632     105.609385040000
      5564   12       24.335933394970     142.064727813990     104.050000000000
      5565    1       21.631940799978     143.625878665348     107.168770080000
      5566    2       22.533271661638     145.187029526718     105.609385040000
      5567    3       21.631940799978     143.625878665348     104.050000000000
      5568    4       24.335933394970     145.187029526718     107.168770080000
      5569    5       25.237264266641     143.625878665348     105.609385040000
      5570    6       24.335933394970     145.187029526718     104.050000000000
      5571    7       21.631940799978     146.748180378076     107.168770080000
      5572    8       22.533271661638     148.309331239446     105.609385040000
      5573    9       21.631940799978     146.748180378076     104.050000000000
      5574   10       24.335933394970     148.309331239446     107.168770080000
      5575   11       25.237264266641     146.748180378076     105.609385040000
      5576   12       24.335933394970     148.309331239446     104.050000000000
      5577    1       27.039925999973     137.381275249904     107.168770080000
      5578    2       27.941256861633     138.942426101262     105.609385040000
      5579    3       27.039925999973     137.381275249904     104.050000000000
      5580    4       29.743918594964     138.942426101262     107.168770080000
      5581    5       30.645249466636     137.381275249904     105.609385040000
      5582    6       29.743918594964     138.942426101262     104.050000000000
      5583    7       27.039925999973     140.503576962632     107.168770080000
      5584    8       27.941256861633     142.064727813990     105.609385040000
      5585    9       27.039925999973     140.503576962632     104.050000000000
      5586   10       29.743918594964     142.064727813990     107.168770080000
      5587   11       30.645249466636     140.503576962632     105.609385040000
      5588   12       29.743918594964     142.064727813990     104.050000000000
      5589    1       27.039925999973     143.625878665348     107.168770080000
      5590    2       27.941256861633     145.187029526718     105.609385040000
      5591    3       27.039925999973     143.625878665348     104.050000000000
      5592    4       29.743918594964     145.187029526718     107.168770080000
      5593    5       30.645249466636     143.625878665348     105.609385040000
      5594    6       29.743918594964     145.187029526718     104.050000000000
      5595    7       27.039925999973     146.748180378076     107.168770080000
      5596    8       27.941256861633     148.309331239446     105.609385040000
      5597    9       27.039925999973     146.748180378076     104.050000000000
      5598   10       29.743918594964     148.309331239446     107.168770080000
      5599   11       30.645249466636     146.748180378076     105.609385040000
      5600   12       29.743918594964     148.309331239446     104.050000000000
      5601    1       32.447911199967       0.000000000000     107.168770080000
      5602    2       33.349242061627       1.561150851358     105.609385040000
      5603    3       32.447911199967       0.000000000000     104.050000000000
      5604    4       35.151903794959       1.561150851358     107.168770080000
      5605    5       36.053234666630       0.000000000000     105.609385040000
      5606    6       35.151903794959       1.561150851358     104.050000000000
      5607    7       32.447911199967       3.122301712728     107.168770080000
      5608    8       33.349242061627       4.683452564086     105.609385040000
      5609    9       32.447911199967       3.122301712728     104.050000000000
      5610   10       35.151903794959       4.683452564086     107.168770080000
      5611   11       36.053234666630       3.122301712728     105.609385040000
      5612   12       35.151903794959       4.683452564086     104.050000000000
      5613    1       32.447911199967       6.244603415445     107.168770080000
      5614    2       33.349242061627       7.805754276814     105.609385040000
      5615    3       32.447911199967       6.244603415445     104.050000000000
      5616    4       35.151903794959       7.805754276814     107.168770080000
      5617    5       36.053234666630       6.244603415445     105.609385040000
      5618    6       35.151903794959       7.805754276814     104.050000000000
      5619    7       32.447911199967       9.366905128172     107.168770080000
      5620    8       33.349242061627      10.928055989542     105.609385040000
      5621    9       32.447911199967       9.366905128172     104.050000000000
      5622   10       35.151903794959      10.928055989542     107.168770080000
      5623   11       36.053234666630       9.366905128172     105.609385040000
      5624   12       35.151903794959      10.928055989542     104.050000000000
      5625    1       37.855896399962       0.000000000000     107.168770080000
      5626    2       38.757227261622       1.561150851358     105.609385040000
      5627    3       37.855896399962       0.000000000000     104.050000000000
      5628    4       40.559888994953       1.561150851358     107.168770080000
      5629    5       41.461219866625       0.000000000000     105.609385040000
      5630    6       40.559888994953       1.561150851358     104.050000000000
      5631    7       37.855896399962       3.122301712728     107.168770080000
      5632    8       38.757227261622       4.683452564086     105.609385040000
      5633    9       37.855896399962       3.122301712728     104.050000000000
      5634   10       40.559888994953       4.683452564086     107.168770080000
      5635   11       41.461219866625       3.122301712728     105.609385040000
      5636   12       40.559888994953       4.683452564086     104.050000000000
      5637    1       37.855896399962       6.244603415445     107.168770080000
      5638    2       38.757227261622       7.805754276814     105.609385040000
      5639    3       37.855896399962       6.244603415445     104.050000000000
      5640    4       40.559888994953       7.805754276814     107.168770080000
      5641    5       41.461219866625       6.244603415445     105.609385040000
      5642    6       40.559888994953       7.805754276814     104.050000000000
      5643    7       37.855896399962       9.366905128172     107.168770080000
      5644    8       38.757227261622      10.928055989542     105.609385040000
      5645    9       37.855896399962       9.366905128172     104.050000000000
      5646   10       40.559888994953      10.928055989542     107.168770080000
      5647   11       41.461219866625       9.366905128172     105.609385040000
      5648   12       40.559888994953      10.928055989542     104.050000000000
      5649    1       32.447911199967      12.489206840900     107.168770080000
      5650    2       33.349242061627      14.050357692259     105.609385040000
      5651    3       32.447911199967      12.489206840900     104.050000000000
      5652    4       35.151903794959      14.050357692259     107.168770080000
      5653    5       36.053234666630      12.489206840900     105.609385040000
      5654    6       35.151903794959      14.050357692259     104.050000000000
      5655    7       32.447911199967      15.611508553628     107.168770080000
      5656    8       33.349242061627      17.172659404987     105.609385040000
      5657    9       32.447911199967      15.611508553628     104.050000000000
      5658   10       35.151903794959      17.172659404987     107.168770080000
      5659   11       36.053234666630      15.611508553628     105.609385040000
      5660   12       35.151903794959      17.172659404987     104.050000000000
      5661    1       32.447911199967      18.733810256345     107.168770080000
      5662    2       33.349242061627      20.294961117714     105.609385040000
      5663    3       32.447911199967      18.733810256345     104.050000000000
      5664    4       35.151903794959      20.294961117714     107.168770080000
      5665    5       36.053234666630      18.733810256345     105.609385040000
      5666    6       35.151903794959      20.294961117714     104.050000000000
      5667    7       32.447911199967      21.856111969073     107.168770080000
      5668    8       33.349242061627      23.417262830442     105.609385040000
      5669    9       32.447911199967      21.856111969073     104.050000000000
      5670   10       35.151903794959      23.417262830442     107.168770080000
      5671   11       36.053234666630      21.856111969073     105.609385040000
      5672   12       35.151903794959      23.417262830442     104.050000000000
      5673    1       37.855896399962      12.489206840900     107.168770080000
      5674    2       38.757227261622      14.050357692259     105.609385040000
      5675    3       37.855896399962      12.489206840900     104.050000000000
      5676    4       40.559888994953      14.050357692259     107.168770080000
      5677    5       41.461219866625      12.489206840900     105.609385040000
      5678    6       40.559888994953      14.050357692259     104.050000000000
      5679    7       37.855896399962      15.611508553628     107.168770080000
      5680    8       38.757227261622      17.172659404987     105.609385040000
      5681    9       37.855896399962      15.611508553628     104.050000000000
      5682   10       40.559888994953      17.172659404987     107.168770080000
      5683   11       41.461219866625      15.611508553628     105.609385040000
      5684   12       40.559888994953      17.172659404987     104.050000000000
      5685    1       37.855896399962      18.733810256345     107.168770080000
      5686    2       38.757227261622      20.294961117714     105.609385040000
      5687    3       37.855896399962      18.733810256345     104.050000000000
      5688    4       40.559888994953      20.294961117714     107.168770080000
      5689    5       41.461219866625      18.733810256345     105.609385040000
      5690    6       40.559888994953      20.294961117714     104.050000000000
      5691    7       37.855896399962      21.856111969073     107.168770080000
      5692    8       38.757227261622      23.417262830442     105.609385040000
      5693    9       37.855896399962      21.856111969073     104.050000000000
      5694   10       40.559888994953      23.417262830442     107.168770080000
      5695   11       41.461219866625      21.856111969073     105.609385040000
      5696   12       40.559888994953      23.417262830442     104.050000000000
      5697    1       32.447911199967      24.978413681801     107.168770080000
      5698    2       33.349242061627      26.539564533159     105.609385040000
      5699    3       32.447911199967      24.978413681801     104.050000000000
      5700    4       35.151903794959      26.539564533159     107.168770080000
      5701    5       36.053234666630      24.978413681801     105.609385040000
      5702    6       35.151903794959      26.539564533159     104.050000000000
      5703    7       32.447911199967      28.100715394529     107.168770080000
      5704    8       33.349242061627      29.661866245887     105.609385040000
      5705    9       32.447911199967      28.100715394529     104.050000000000
      5706   10       35.151903794959      29.661866245887     107.168770080000
      5707   11       36.053234666630      28.100715394529     105.609385040000
      5708   12       35.151903794959      29.661866245887     104.050000000000
      5709    1       32.447911199967      31.223017097245     107.168770080000
      5710    2       33.349242061627      32.784167958615     105.609385040000
      5711    3       32.447911199967      31.223017097245     104.050000000000
      5712    4       35.151903794959      32.784167958615     107.168770080000
      5713    5       36.053234666630      31.223017097245     105.609385040000
      5714    6       35.151903794959      32.784167958615     104.050000000000
      5715    7       32.447911199967      34.345318809973     107.168770080000
      5716    8       33.349242061627      35.906469671343     105.609385040000
      5717    9       32.447911199967      34.345318809973     104.050000000000
      5718   10       35.151903794959      35.906469671343     107.168770080000
      5719   11       36.053234666630      34.345318809973     105.609385040000
      5720   12       35.151903794959      35.906469671343     104.050000000000
      5721    1       37.855896399962      24.978413681801     107.168770080000
      5722    2       38.757227261622      26.539564533159     105.609385040000
      5723    3       37.855896399962      24.978413681801     104.050000000000
      5724    4       40.559888994953      26.539564533159     107.168770080000
      5725    5       41.461219866625      24.978413681801     105.609385040000
      5726    6       40.559888994953      26.539564533159     104.050000000000
      5727    7       37.855896399962      28.100715394529     107.168770080000
      5728    8       38.757227261622      29.661866245887     105.609385040000
      5729    9       37.855896399962      28.100715394529     104.050000000000
      5730   10       40.559888994953      29.661866245887     107.168770080000
      5731   11       41.461219866625      28.100715394529     105.609385040000
      5732   12       40.559888994953      29.661866245887     104.050000000000
      5733    1       37.855896399962      31.223017097245     107.168770080000
      5734    2       38.757227261622      32.784167958615     105.609385040000
      5735    3       37.855896399962      31.223017097245     104.050000000000
      5736    4       40.559888994953      32.784167958615     107.168770080000
      5737    5       41.461219866625      31.223017097245     105.609385040000
      5738    6       40.559888994953      32.784167958615     104.050000000000
      5739    7       37.855896399962      34.345318809973     107.168770080000
      5740    8       38.757227261622      35.906469671343     105.609385040000
      5741    9       37.855896399962      34.345318809973     104.050000000000
      5742   10       40.559888994953      35.906469671343     107.168770080000
      5743   11       41.461219866625      34.345318809973     105.609385040000
      5744   12       40.559888994953      35.906469671343     104.050000000000
      5745    1       32.447911199967      37.467620522701     107.168770080000
      5746    2       33.349242061627      39.028771374059     105.609385040000
      5747    3       32.447911199967      37.467620522701     104.050000000000
      5748    4       35.151903794959      39.028771374059     107.168770080000
      5749    5       36.053234666630      37.467620522701     105.609385040000
      5750    6       35.151903794959      39.028771374059     104.050000000000
      5751    7       32.447911199967      40.589922235429     107.168770080000
      5752    8       33.349242061627      42.151073086787     105.609385040000
      5753    9       32.447911199967      40.589922235429     104.050000000000
      5754   10       35.151903794959      42.151073086787     107.168770080000
      5755   11       36.053234666630      40.589922235429     105.609385040000
      5756   12       35.151903794959      42.151073086787     104.050000000000
      5757    1       32.447911199967      43.712223938146     107.168770080000
      5758    2       33.349242061627      45.273374799515     105.609385040000
      5759    3       32.447911199967      43.712223938146     104.050000000000
      5760    4       35.151903794959      45.273374799515     107.168770080000
      5761    5       36.053234666630      43.712223938146     105.609385040000
      5762    6       35.151903794959      45.273374799515     104.050000000000
      5763    7       32.447911199967      46.834525650873     107.168770080000
      5764    8       33.349242061627      48.395676512243     105.609385040000
      5765    9       32.447911199967      46.834525650873     104.050000000000
      5766   10       35.151903794959      48.395676512243     107.168770080000
      5767   11       36.053234666630      46.834525650873     105.609385040000
      5768   12       35.151903794959      48.395676512243     104.050000000000
      5769    1       37.855896399962      37.467620522701     107.168770080000
      5770    2       38.757227261622      39.028771374059     105.609385040000
      5771    3       37.855896399962      37.467620522701     104.050000000000
      5772    4       40.559888994953      39.028771374059     107.168770080000
      5773    5       41.461219866625      37.467620522701     105.609385040000
      5774    6       40.559888994953      39.028771374059     104.050000000000
      5775    7       37.855896399962      40.589922235429     107.168770080000
      5776    8       38.757227261622      42.151073086787     105.609385040000
      5777    9       37.855896399962      40.589922235429     104.050000000000
      5778   10       40.559888994953      42.151073086787     107.168770080000
      5779   11       41.461219866625      40.589922235429     105.609385040000
      5780   12       40.559888994953      42.151073086787     104.050000000000
      5781    1       37.855896399962      43.712223938146     107.168770080000
      5782    2       38.757227261622      45.273374799515     105.609385040000
      5783    3       37.855896399962      43.712223938146     104.050000000000
      5784    4       40.559888994953      45.273374799515     107.168770080000
      5785    5       41.461219866625      43.712223938146     105.609385040000
      5786    6       40.559888994953      45.273374799515     104.050000000000
      5787    7       37.855896399962      46.834525650873     107.168770080000
      5788    8       38.757227261622      48.395676512243     105.609385040000
      5789    9       37.855896399962      46.834525650873     104.050000000000
      5790   10       40.559888994953      48.395676512243     107.168770080000
      5791   11       41.461219866625      46.834525650873     105.609385040000
      5792   12       40.559888994953      48.395676512243     104.050000000000
      5793    1       32.447911199967      49.956827363601     107.168770080000
      5794    2       33.349242061627      51.517978214960     105.609385040000
      5795    3       32.447911199967      49.956827363601     104.050000000000
      5796    4       35.151903794959      51.517978214960     107.168770080000
      5797    5       36.053234666630      49.956827363601     105.609385040000
      5798    6       35.151903794959      51.517978214960     104.050000000000
      5799    7       32.447911199967      53.079129076329     107.168770080000
      5800    8       33.349242061627      54.640279927688     105.609385040000
      5801    9       32.447911199967      53.079129076329     104.050000000000
      5802   10       35.151903794959      54.640279927688     107.168770080000
      5803   11       36.053234666630      53.079129076329     105.609385040000
      5804   12       35.151903794959      54.640279927688     104.050000000000
      5805    1       32.447911199967      56.201430779046     107.168770080000
      5806    2       33.349242061627      57.762581640415     105.609385040000
      5807    3       32.447911199967      56.201430779046     104.050000000000
      5808    4       35.151903794959      57.762581640415     107.168770080000
      5809    5       36.053234666630      56.201430779046     105.609385040000
      5810    6       35.151903794959      57.762581640415     104.050000000000
      5811    7       32.447911199967      59.323732491774     107.168770080000
      5812    8       33.349242061627      60.884883353143     105.609385040000
      5813    9       32.447911199967      59.323732491774     104.050000000000
      5814   10       35.151903794959      60.884883353143     107.168770080000
      5815   11       36.053234666630      59.323732491774     105.609385040000
      5816   12       35.151903794959      60.884883353143     104.050000000000
      5817    1       37.855896399962      49.956827363601     107.168770080000
      5818    2       38.757227261622      51.517978214960     105.609385040000
      5819    3       37.855896399962      49.956827363601     104.050000000000
      5820    4       40.559888994953      51.517978214960     107.168770080000
      5821    5       41.461219866625      49.956827363601     105.609385040000
      5822    6       40.559888994953      51.517978214960     104.050000000000
      5823    7       37.855896399962      53.079129076329     107.168770080000
      5824    8       38.757227261622      54.640279927688     105.609385040000
      5825    9       37.855896399962      53.079129076329     104.050000000000
      5826   10       40.559888994953      54.640279927688     107.168770080000
      5827   11       41.461219866625      53.079129076329     105.609385040000
      5828   12       40.559888994953      54.640279927688     104.050000000000
      5829    1       37.855896399962      56.201430779046     107.168770080000
      5830    2       38.757227261622      57.762581640415     105.609385040000
      5831    3       37.855896399962      56.201430779046     104.050000000000
      5832    4       40.559888994953      57.762581640415     107.168770080000
      5833    5       41.461219866625      56.201430779046     105.609385040000
      5834    6       40.559888994953      57.762581640415     104.050000000000
      5835    7       37.855896399962      59.323732491774     107.168770080000
      5836    8       38.757227261622      60.884883353143     105.609385040000
      5837    9       37.855896399962      59.323732491774     104.050000000000
      5838   10       40.559888994953      60.884883353143     107.168770080000
      5839   11       41.461219866625      59.323732491774     105.609385040000
      5840   12       40.559888994953      60.884883353143     104.050000000000
      5841    1       32.447911199967      62.446034204502     107.168770080000
      5842    2       33.349242061627      64.007185055860     105.609385040000
      5843    3       32.447911199967      62.446034204502     104.050000000000
      5844    4       35.151903794959      64.007185055860     107.168770080000
      5845    5       36.053234666630      62.446034204502     105.609385040000
      5846    6       35.151903794959      64.007185055860     104.050000000000
      5847    7       32.447911199967      65.568335917230     107.168770080000
      5848    8       33.349242061627      67.129486768588     105.609385040000
      5849    9       32.447911199967      65.568335917230     104.050000000000
      5850   10       35.151903794959      67.129486768588     107.168770080000
      5851   11       36.053234666630      65.568335917230     105.609385040000
      5852   12       35.151903794959      67.129486768588     104.050000000000
      5853    1       32.447911199967      68.690637619946     107.168770080000
      5854    2       33.349242061627      70.251788481316     105.609385040000
      5855    3       32.447911199967      68.690637619946     104.050000000000
      5856    4       35.151903794959      70.251788481316     107.168770080000
      5857    5       36.053234666630      68.690637619946     105.609385040000
      5858    6       35.151903794959      70.251788481316     104.050000000000
      5859    7       32.447911199967      71.812939332674     107.168770080000
      5860    8       33.349242061627      73.374090194044     105.609385040000
      5861    9       32.447911199967      71.812939332674     104.050000000000
      5862   10       35.151903794959      73.374090194044     107.168770080000
      5863   11       36.053234666630      71.812939332674     105.609385040000
      5864   12       35.151903794959      73.374090194044     104.050000000000
      5865    1       37.855896399962      62.446034204502     107.168770080000
      5866    2       38.757227261622      64.007185055860     105.609385040000
      5867    3       37.855896399962      62.446034204502     104.050000000000
      5868    4       40.559888994953      64.007185055860     107.168770080000
      5869    5       41.461219866625      62.446034204502     105.609385040000
      5870    6       40.559888994953      64.007185055860     104.050000000000
      5871    7       37.855896399962      65.568335917230     107.168770080000
      5872    8       38.757227261622      67.129486768588     105.609385040000
      5873    9       37.855896399962      65.568335917230     104.050000000000
      5874   10       40.559888994953      67.129486768588     107.168770080000
      5875   11       41.461219866625      65.568335917230     105.609385040000
      5876   12       40.559888994953      67.129486768588     104.050000000000
      5877    1       37.855896399962      68.690637619946     107.168770080000
      5878    2       38.757227261622      70.251788481316     105.609385040000
      5879    3       37.855896399962      68.690637619946     104.050000000000
      5880    4       40.559888994953      70.251788481316     107.168770080000
      5881    5       41.461219866625      68.690637619946     105.609385040000
      5882    6       40.559888994953      70.251788481316     104.050000000000
      5883    7       37.855896399962      71.812939332674     107.168770080000
      5884    8       38.757227261622      73.374090194044     105.609385040000
      5885    9       37.855896399962      71.812939332674     104.050000000000
      5886   10       40.559888994953      73.374090194044     107.168770080000
      5887   11       41.461219866625      71.812939332674     105.609385040000
      5888   12       40.559888994953      73.374090194044     104.050000000000
      5889    1       32.447911199967      74.935241045402     107.168770080000
      5890    2       33.349242061627      76.496391896760     105.609385040000
      5891    3       32.447911199967      74.935241045402     104.050000000000
      5892    4       35.151903794959      76.496391896760     107.168770080000
      5893    5       36.053234666630      74.935241045402     105.609385040000
      5894    6       35.151903794959      76.496391896760     104.050000000000
      5895    7       32.447911199967      78.057542758130     107.168770080000
      5896    8       33.349242061627      79.618693609488     105.609385040000
      5897    9       32.447911199967      78.057542758130     104.050000000000
      5898   10       35.151903794959      79.618693609488     107.168770080000
      5899   11       36.053234666630      78.057542758130     105.609385040000
      5900   12       35.151903794959      79.618693609488     104.050000000000
      5901    1       32.447911199967      81.179844460847     107.168770080000
      5902    2       33.349242061627      82.740995322216     105.609385040000
      5903    3       32.447911199967      81.179844460847     104.050000000000
      5904    4       35.151903794959      82.740995322216     107.168770080000
      5905    5       36.053234666630      81.179844460847     105.609385040000
      5906    6       35.151903794959      82.740995322216     104.050000000000
      5907    7       32.447911199967      84.302146173574     107.168770080000
      5908    8       33.349242061627      85.863297034944     105.609385040000
      5909    9       32.447911199967      84.302146173574     104.050000000000
      5910   10       35.151903794959      85.863297034944     107.168770080000
      5911   11       36.053234666630      84.302146173574     105.609385040000
      5912   12       35.151903794959      85.863297034944     104.050000000000
      5913    1       37.855896399962      74.935241045402     107.168770080000
      5914    2       38.757227261622      76.496391896760     105.609385040000
      5915    3       37.855896399962      74.935241045402     104.050000000000
      5916    4       40.559888994953      76.496391896760     107.168770080000
      5917    5       41.461219866625      74.935241045402     105.609385040000
      5918    6       40.559888994953      76.496391896760     104.050000000000
      5919    7       37.855896399962      78.057542758130     107.168770080000
      5920    8       38.757227261622      79.618693609488     105.609385040000
      5921    9       37.855896399962      78.057542758130     104.050000000000
      5922   10       40.559888994953      79.618693609488     107.168770080000
      5923   11       41.461219866625      78.057542758130     105.609385040000
      5924   12       40.559888994953      79.618693609488     104.050000000000
      5925    1       37.855896399962      81.179844460847     107.168770080000
      5926    2       38.757227261622      82.740995322216     105.609385040000
      5927    3       37.855896399962      81.179844460847     104.050000000000
      5928    4       40.559888994953      82.740995322216     107.168770080000
      5929    5       41.461219866625      81.179844460847     105.609385040000
      5930    6       40.559888994953      82.740995322216     104.050000000000
      5931    7       37.855896399962      84.302146173574     107.168770080000
      5932    8       38.757227261622      85.863297034944     105.609385040000
      5933    9       37.855896399962      84.302146173574     104.050000000000
      5934   10       40.559888994953      85.863297034944     107.168770080000
      5935   11       41.461219866625      84.302146173574     105.609385040000
      5936   12       40.559888994953      85.863297034944     104.050000000000
      5937    1       32.447911199967      87.424447886302     107.168770080000
      5938    2       33.349242061627      88.985598737661     105.609385040000
      5939    3       32.447911199967      87.424447886302     104.050000000000
      5940    4       35.151903794959      88.985598737661     107.168770080000
      5941    5       36.053234666630      87.424447886302     105.609385040000
      5942    6       35.151903794959      88.985598737661     104.050000000000
      5943    7       32.447911199967      90.546749599030     107.168770080000
      5944    8       33.349242061627      92.107900450389     105.609385040000
      5945    9       32.447911199967      90.546749599030     104.050000000000
      5946   10       35.151903794959      92.107900450389     107.168770080000
      5947   11       36.053234666630      90.546749599030     105.609385040000
      5948   12       35.151903794959      92.107900450389     104.050000000000
      5949    1       32.447911199967      93.669051301747     107.168770080000
      5950    2       33.349242061627      95.230202163116     105.609385040000
      5951    3       32.447911199967      93.669051301747     104.050000000000
      5952    4       35.151903794959      95.230202163116     107.168770080000
      5953    5       36.053234666630      93.669051301747     105.609385040000
      5954    6       35.151903794959      95.230202163116     104.050000000000
      5955    7       32.447911199967      96.791353014475     107.168770080000
      5956    8       33.349242061627      98.352503875844     105.609385040000
      5957    9       32.447911199967      96.791353014475     104.050000000000
      5958   10       35.151903794959      98.352503875844     107.168770080000
      5959   11       36.053234666630      96.791353014475     105.609385040000
      5960   12       35.151903794959      98.352503875844     104.050000000000
      5961    1       37.855896399962      87.424447886302     107.168770080000
      5962    2       38.757227261622      88.985598737661     105.609385040000
      5963    3       37.855896399962      87.424447886302     104.050000000000
      5964    4       40.559888994953      88.985598737661     107.168770080000
      5965    5       41.461219866625      87.424447886302     105.609385040000
      5966    6       40.559888994953      88.985598737661     104.050000000000
      5967    7       37.855896399962      90.546749599030     107.168770080000
      5968    8       38.757227261622      92.107900450389     105.609385040000
      5969    9       37.855896399962      90.546749599030     104.050000000000
      5970   10       40.559888994953      92.107900450389     107.168770080000
      5971   11       41.461219866625      90.546749599030     105.609385040000
      5972   12       40.559888994953      92.107900450389     104.050000000000
      5973    1       37.855896399962      93.669051301747     107.168770080000
      5974    2       38.757227261622      95.230202163116     105.609385040000
      5975    3       37.855896399962      93.669051301747     104.050000000000
      5976    4       40.559888994953      95.230202163116     107.168770080000
      5977    5       41.461219866625      93.669051301747     105.609385040000
      5978    6       40.559888994953      95.230202163116     104.050000000000
      5979    7       37.855896399962      96.791353014475     107.168770080000
      5980    8       38.757227261622      98.352503875844     105.609385040000
      5981    9       37.855896399962      96.791353014475     104.050000000000
      5982   10       40.559888994953      98.352503875844     107.168770080000
      5983   11       41.461219866625      96.791353014475     105.609385040000
      5984   12       40.559888994953      98.352503875844     104.050000000000
      5985    1       32.447911199967      99.913654727203     107.168770080000
      5986    2       33.349242061627     101.474805578561     105.609385040000
      5987    3       32.447911199967      99.913654727203     104.050000000000
      5988    4       35.151903794959     101.474805578561     107.168770080000
      5989    5       36.053234666630      99.913654727203     105.609385040000
      5990    6       35.151903794959     101.474805578561     104.050000000000
      5991    7       32.447911199967     103.035956439931     107.168770080000
      5992    8       33.349242061627     104.597107291289     105.609385040000
      5993    9       32.447911199967     103.035956439931     104.050000000000
      5994   10       35.151903794959     104.597107291289     107.168770080000
      5995   11       36.053234666630     103.035956439931     105.609385040000
      5996   12       35.151903794959     104.597107291289     104.050000000000
      5997    1       32.447911199967     106.158258142647     107.168770080000
      5998    2       33.349242061627     107.719409004017     105.609385040000
      5999    3       32.447911199967     106.158258142647     104.050000000000
      6000    4       35.151903794959     107.719409004017     107.168770080000
      6001    5       36.053234666630     106.158258142647     105.609385040000
      6002    6       35.151903794959     107.719409004017     104.050000000000
      6003    7       32.447911199967     109.280559855375     107.168770080000
      6004    8       33.349242061627     110.841710716745     105.609385040000
      6005    9       32.447911199967     109.280559855375     104.050000000000
      6006   10       35.151903794959     110.841710716745     107.168770080000
      6007   11       36.053234666630     109.280559855375     105.609385040000
      6008   12       35.151903794959     110.841710716745     104.050000000000
      6009    1       37.855896399962      99.913654727203     107.168770080000
      6010    2       38.757227261622     101.474805578561     105.609385040000
      6011    3       37.855896399962      99.913654727203     104.050000000000
      6012    4       40.559888994953     101.474805578561     107.168770080000
      6013    5       41.461219866625      99.913654727203     105.609385040000
      6014    6       40.559888994953     101.474805578561     104.050000000000
      6015    7       37.855896399962     103.035956439931     107.168770080000
      6016    8       38.757227261622     104.597107291289     105.609385040000
      6017    9       37.855896399962     103.035956439931     104.050000000000
      6018   10       40.559888994953     104.597107291289     107.168770080000
      6019   11       41.461219866625     103.035956439931     105.609385040000
      6020   12       40.559888994953     104.597107291289     104.050000000000
      6021    1       37.855896399962     106.158258142647     107.168770080000
      6022    2       38.757227261622     107.719409004017     105.609385040000
      6023    3       37.855896399962     106.158258142647     104.050000000000
      6024    4       40.559888994953     107.719409004017     107.168770080000
      6025    5       41.461219866625     106.158258142647     105.609385040000
      6026    6       40.559888994953     107.719409004017     104.050000000000
      6027    7       37.855896399962     109.280559855375     107.168770080000
      6028    8       38.757227261622     110.841710716745     105.609385040000
      6029    9       37.855896399962     109.280559855375     104.050000000000
      6030   10       40.559888994953     110.841710716745     107.168770080000
      6031   11       41.461219866625     109.280559855375     105.609385040000
      6032   12       40.559888994953     110.841710716745     104.050000000000
      6033    1       32.447911199967     112.402861568103     107.168770080000
      6034    2       33.349242061627     113.964012419461     105.609385040000
      6035    3       32.447911199967     112.402861568103     104.050000000000
      6036    4       35.151903794959     113.964012419461     107.168770080000
      6037    5       36.053234666630     112.402861568103     105.609385040000
      6038    6       35.151903794959     113.964012419461     104.050000000000
      6039    7       32.447911199967     115.525163280831     107.168770080000
      6040    8       33.349242061627     117.086314132189     105.609385040000
      6041    9       32.447911199967     115.525163280831     104.050000000000
      6042   10       35.151903794959     117.086314132189     107.168770080000
      6043   11       36.053234666630     115.525163280831     105.609385040000
      6044   12       35.151903794959     117.086314132189     104.050000000000
      6045    1       32.447911199967     118.647464983548     107.168770080000
      6046    2       33.349242061627     120.208615844917     105.609385040000
      6047    3       32.447911199967     118.647464983548     104.050000000000
      6048    4       35.151903794959     120.208615844917     107.168770080000
      6049    5       36.053234666630     118.647464983548     105.609385040000
      6050    6       35.151903794959     120.208615844917     104.050000000000
      6051    7       32.447911199967     121.769766696275     107.168770080000
      6052    8       33.349242061627     123.330917557645     105.609385040000
      6053    9       32.447911199967     121.769766696275     104.050000000000
      6054   10       35.151903794959     123.330917557645     107.168770080000
      6055   11       36.053234666630     121.769766696275     105.609385040000
      6056   12       35.151903794959     123.330917557645     104.050000000000
      6057    1       37.855896399962     112.402861568103     107.168770080000
      6058    2       38.757227261622     113.964012419461     105.609385040000
      6059    3       37.855896399962     112.402861568103     104.050000000000
      6060    4       40.559888994953     113.964012419461     107.168770080000
      6061    5       41.461219866625     112.402861568103     105.609385040000
      6062    6       40.559888994953     113.964012419461     104.050000000000
      6063    7       37.855896399962     115.525163280831     107.168770080000
      6064    8       38.757227261622     117.086314132189     105.609385040000
      6065    9       37.855896399962     115.525163280831     104.050000000000
      6066   10       40.559888994953     117.086314132189     107.168770080000
      6067   11       41.461219866625     115.525163280831     105.609385040000
      6068   12       40.559888994953     117.086314132189     104.050000000000
      6069    1       37.855896399962     118.647464983548     107.168770080000
      6070    2       38.757227261622     120.208615844917     105.609385040000
      6071    3       37.855896399962     118.647464983548     104.050000000000
      6072    4       40.559888994953     120.208615844917     107.168770080000
      6073    5       41.461219866625     118.647464983548     105.609385040000
      6074    6       40.559888994953     120.208615844917     104.050000000000
      6075    7       37.855896399962     121.769766696275     107.168770080000
      6076    8       38.757227261622     123.330917557645     105.609385040000
      6077    9       37.855896399962     121.769766696275     104.050000000000
      6078   10       40.559888994953     123.330917557645     107.168770080000
      6079   11       41.461219866625     121.769766696275     105.609385040000
      6080   12       40.559888994953     123.330917557645     104.050000000000
      6081    1       32.447911199967     124.892068409003     107.168770080000
      6082    2       33.349242061627     126.453219260362     105.609385040000
      6083    3       32.447911199967     124.892068409003     104.050000000000
      6084    4       35.151903794959     126.453219260362     107.168770080000
      6085    5       36.053234666630     124.892068409003     105.609385040000
      6086    6       35.151903794959     126.453219260362     104.050000000000
      6087    7       32.447911199967     128.014370121731     107.168770080000
      6088    8       33.349242061627     129.575520973090     105.609385040000
      6089    9       32.447911199967     128.014370121731     104.050000000000
      6090   10       35.151903794959     129.575520973090     107.168770080000
      6091   11       36.053234666630     128.014370121731     105.609385040000
      6092   12       35.151903794959     129.575520973090     104.050000000000
      6093    1       32.447911199967     131.136671824448     107.168770080000
      6094    2       33.349242061627     132.697822685817     105.609385040000
      6095    3       32.447911199967     131.136671824448     104.050000000000
      6096    4       35.151903794959     132.697822685817     107.168770080000
      6097    5       36.053234666630     131.136671824448     105.609385040000
      6098    6       35.151903794959     132.697822685817     104.050000000000
      6099    7       32.447911199967     134.258973537176     107.168770080000
      6100    8       33.349242061627     135.820124398545     105.609385040000
      6101    9       32.447911199967     134.258973537176     104.050000000000
      6102   10       35.151903794959     135.820124398545     107.168770080000
      6103   11       36.053234666630     134.258973537176     105.609385040000
      6104   12       35.151903794959     135.820124398545     104.050000000000
      6105    1       37.855896399962     124.892068409003     107.168770080000
      6106    2       38.757227261622     126.453219260362     105.609385040000
      6107    3       37.855896399962     124.892068409003     104.050000000000
      6108    4       40.559888994953     126.453219260362     107.168770080000
      6109    5       41.461219866625     124.892068409003     105.609385040000
      6110    6       40.559888994953     126.453219260362     104.050000000000
      6111    7       37.855896399962     128.014370121731     107.168770080000
      6112    8       38.757227261622     129.575520973090     105.609385040000
      6113    9       37.855896399962     128.014370121731     104.050000000000
      6114   10       40.559888994953     129.575520973090     107.168770080000
      6115   11       41.461219866625     128.014370121731     105.609385040000
      6116   12       40.559888994953     129.575520973090     104.050000000000
      6117    1       37.855896399962     131.136671824448     107.168770080000
      6118    2       38.757227261622     132.697822685817     105.609385040000
      6119    3       37.855896399962     131.136671824448     104.050000000000
      6120    4       40.559888994953     132.697822685817     107.168770080000
      6121    5       41.461219866625     131.136671824448     105.609385040000
      6122    6       40.559888994953     132.697822685817     104.050000000000
      6123    7       37.855896399962     134.258973537176     107.168770080000
      6124    8       38.757227261622     135.820124398545     105.609385040000
      6125    9       37.855896399962     134.258973537176     104.050000000000
      6126   10       40.559888994953     135.820124398545     107.168770080000
      6127   11       41.461219866625     134.258973537176     105.609385040000
      6128   12       40.559888994953     135.820124398545     104.050000000000
      6129    1       32.447911199967     137.381275249904     107.168770080000
      6130    2       33.349242061627     138.942426101262     105.609385040000
      6131    3       32.447911199967     137.381275249904     104.050000000000
      6132    4       35.151903794959     138.942426101262     107.168770080000
      6133    5       36.053234666630     137.381275249904     105.609385040000
      6134    6       35.151903794959     138.942426101262     104.050000000000
      6135    7       32.447911199967     140.503576962632     107.168770080000
      6136    8       33.349242061627     142.064727813990     105.609385040000
      6137    9       32.447911199967     140.503576962632     104.050000000000
      6138   10       35.151903794959     142.064727813990     107.168770080000
      6139   11       36.053234666630     140.503576962632     105.609385040000
      6140   12       35.151903794959     142.064727813990     104.050000000000
      6141    1       32.447911199967     143.625878665348     107.168770080000
      6142    2       33.349242061627     145.187029526718     105.609385040000
      6143    3       32.447911199967     143.625878665348     104.050000000000
      6144    4       35.151903794959     145.187029526718     107.168770080000
      6145    5       36.053234666630     143.625878665348     105.609385040000
      6146    6       35.151903794959     145.187029526718     104.050000000000
      6147    7       32.447911199967     146.748180378076     107.168770080000
      6148    8       33.349242061627     148.309331239446     105.609385040000
      6149    9       32.447911199967     146.748180378076     104.050000000000
      6150   10       35.151903794959     148.309331239446     107.168770080000
      6151   11       36.053234666630     146.748180378076     105.609385040000
      6152   12       35.151903794959     148.309331239446     104.050000000000
      6153    1       37.855896399962     137.381275249904     107.168770080000
      6154    2       38.757227261622     138.942426101262     105.609385040000
      6155    3       37.855896399962     137.381275249904     104.050000000000
      6156    4       40.559888994953     138.942426101262     107.168770080000
      6157    5       41.461219866625     137.381275249904     105.609385040000
      6158    6       40.559888994953     138.942426101262     104.050000000000
      6159    7       37.855896399962     140.503576962632     107.168770080000
      6160    8       38.757227261622     142.064727813990     105.609385040000
      6161    9       37.855896399962     140.503576962632     104.050000000000
      6162   10       40.559888994953     142.064727813990     107.168770080000
      6163   11       41.461219866625     140.503576962632     105.609385040000
      6164   12       40.559888994953     142.064727813990     104.050000000000
      6165    1       37.855896399962     143.625878665348     107.168770080000
      6166    2       38.757227261622     145.187029526718     105.609385040000
      6167    3       37.855896399962     143.625878665348     104.050000000000
      6168    4       40.559888994953     145.187029526718     107.168770080000
      6169    5       41.461219866625     143.625878665348     105.609385040000
      6170    6       40.559888994953     145.187029526718     104.050000000000
      6171    7       37.855896399962     146.748180378076     107.168770080000
      6172    8       38.757227261622     148.309331239446     105.609385040000
      6173    9       37.855896399962     146.748180378076     104.050000000000
      6174   10       40.559888994953     148.309331239446     107.168770080000
      6175   11       41.461219866625     146.748180378076     105.609385040000
      6176   12       40.559888994953     148.309331239446     104.050000000000
      6177    1       43.263881599956       0.000000000000     107.168770080000
      6178    2       44.165212461616       1.561150851358     105.609385040000
      6179    3       43.263881599956       0.000000000000     104.050000000000
      6180    4       45.967874194948       1.561150851358     107.168770080000
      6181    5       46.869205066619       0.000000000000     105.609385040000
      6182    6       45.967874194948       1.561150851358     104.050000000000
      6183    7       43.263881599956       3.122301712728     107.168770080000
      6184    8       44.165212461616       4.683452564086     105.609385040000
      6185    9       43.263881599956       3.122301712728     104.050000000000
      6186   10       45.967874194948       4.683452564086     107.168770080000
      6187   11       46.869205066619       3.122301712728     105.609385040000
      6188   12       45.967874194948       4.683452564086     104.050000000000
      6189    1       43.263881599956       6.244603415445     107.168770080000
      6190    2       44.165212461616       7.805754276814     105.609385040000
      6191    3       43.263881599956       6.244603415445     104.050000000000
      6192    4       45.967874194948       7.805754276814     107.168770080000
      6193    5       46.869205066619       6.244603415445     105.609385040000
      6194    6       45.967874194948       7.805754276814     104.050000000000
      6195    7       43.263881599956       9.366905128172     107.168770080000
      6196    8       44.165212461616      10.928055989542     105.609385040000
      6197    9       43.263881599956       9.366905128172     104.050000000000
      6198   10       45.967874194948      10.928055989542     107.168770080000
      6199   11       46.869205066619       9.366905128172     105.609385040000
      6200   12       45.967874194948      10.928055989542     104.050000000000
      6201    1       48.671866799951       0.000000000000     107.168770080000
      6202    2       49.573197661611       1.561150851358     105.609385040000
      6203    3       48.671866799951       0.000000000000     104.050000000000
      6204    4       51.375859394942       1.561150851358     107.168770080000
      6205    5       52.277190266614       0.000000000000     105.609385040000
      6206    6       51.375859394942       1.561150851358     104.050000000000
      6207    7       48.671866799951       3.122301712728     107.168770080000
      6208    8       49.573197661611       4.683452564086     105.609385040000
      6209    9       48.671866799951       3.122301712728     104.050000000000
      6210   10       51.375859394942       4.683452564086     107.168770080000
      6211   11       52.277190266614       3.122301712728     105.609385040000
      6212   12       51.375859394942       4.683452564086     104.050000000000
      6213    1       48.671866799951       6.244603415445     107.168770080000
      6214    2       49.573197661611       7.805754276814     105.609385040000
      6215    3       48.671866799951       6.244603415445     104.050000000000
      6216    4       51.375859394942       7.805754276814     107.168770080000
      6217    5       52.277190266614       6.244603415445     105.609385040000
      6218    6       51.375859394942       7.805754276814     104.050000000000
      6219    7       48.671866799951       9.366905128172     107.168770080000
      6220    8       49.573197661611      10.928055989542     105.609385040000
      6221    9       48.671866799951       9.366905128172     104.050000000000
      6222   10       51.375859394942      10.928055989542     107.168770080000
      6223   11       52.277190266614       9.366905128172     105.609385040000
      6224   12       51.375859394942      10.928055989542     104.050000000000
      6225    1       43.263881599956      12.489206840900     107.168770080000
      6226    2       44.165212461616      14.050357692259     105.609385040000
      6227    3       43.263881599956      12.489206840900     104.050000000000
      6228    4       45.967874194948      14.050357692259     107.168770080000
      6229    5       46.869205066619      12.489206840900     105.609385040000
      6230    6       45.967874194948      14.050357692259     104.050000000000
      6231    7       43.263881599956      15.611508553628     107.168770080000
      6232    8       44.165212461616      17.172659404987     105.609385040000
      6233    9       43.263881599956      15.611508553628     104.050000000000
      6234   10       45.967874194948      17.172659404987     107.168770080000
      6235   11       46.869205066619      15.611508553628     105.609385040000
      6236   12       45.967874194948      17.172659404987     104.050000000000
      6237    1       43.263881599956      18.733810256345     107.168770080000
      6238    2       44.165212461616      20.294961117714     105.609385040000
      6239    3       43.263881599956      18.733810256345     104.050000000000
      6240    4       45.967874194948      20.294961117714     107.168770080000
      6241    5       46.869205066619      18.733810256345     105.609385040000
      6242    6       45.967874194948      20.294961117714     104.050000000000
      6243    7       43.263881599956      21.856111969073     107.168770080000
      6244    8       44.165212461616      23.417262830442     105.609385040000
      6245    9       43.263881599956      21.856111969073     104.050000000000
      6246   10       45.967874194948      23.417262830442     107.168770080000
      6247   11       46.869205066619      21.856111969073     105.609385040000
      6248   12       45.967874194948      23.417262830442     104.050000000000
      6249    1       48.671866799951      12.489206840900     107.168770080000
      6250    2       49.573197661611      14.050357692259     105.609385040000
      6251    3       48.671866799951      12.489206840900     104.050000000000
      6252    4       51.375859394942      14.050357692259     107.168770080000
      6253    5       52.277190266614      12.489206840900     105.609385040000
      6254    6       51.375859394942      14.050357692259     104.050000000000
      6255    7       48.671866799951      15.611508553628     107.168770080000
      6256    8       49.573197661611      17.172659404987     105.609385040000
      6257    9       48.671866799951      15.611508553628     104.050000000000
      6258   10       51.375859394942      17.172659404987     107.168770080000
      6259   11       52.277190266614      15.611508553628     105.609385040000
      6260   12       51.375859394942      17.172659404987     104.050000000000
      6261    1       48.671866799951      18.733810256345     107.168770080000
      6262    2       49.573197661611      20.294961117714     105.609385040000
      6263    3       48.671866799951      18.733810256345     104.050000000000
      6264    4       51.375859394942      20.294961117714     107.168770080000
      6265    5       52.277190266614      18.733810256345     105.609385040000
      6266    6       51.375859394942      20.294961117714     104.050000000000
      6267    7       48.671866799951      21.856111969073     107.168770080000
      6268    8       49.573197661611      23.417262830442     105.609385040000
      6269    9       48.671866799951      21.856111969073     104.050000000000
      6270   10       51.375859394942      23.417262830442     107.168770080000
      6271   11       52.277190266614      21.856111969073     105.609385040000
      6272   12       51.375859394942      23.417262830442     104.050000000000
      6273    1       43.263881599956      24.978413681801     107.168770080000
      6274    2       44.165212461616      26.539564533159     105.609385040000
      6275    3       43.263881599956      24.978413681801     104.050000000000
      6276    4       45.967874194948      26.539564533159     107.168770080000
      6277    5       46.869205066619      24.978413681801     105.609385040000
      6278    6       45.967874194948      26.539564533159     104.050000000000
      6279    7       43.263881599956      28.100715394529     107.168770080000
      6280    8       44.165212461616      29.661866245887     105.609385040000
      6281    9       43.263881599956      28.100715394529     104.050000000000
      6282   10       45.967874194948      29.661866245887     107.168770080000
      6283   11       46.869205066619      28.100715394529     105.609385040000
      6284   12       45.967874194948      29.661866245887     104.050000000000
      6285    1       43.263881599956      31.223017097245     107.168770080000
      6286    2       44.165212461616      32.784167958615     105.609385040000
      6287    3       43.263881599956      31.223017097245     104.050000000000
      6288    4       45.967874194948      32.784167958615     107.168770080000
      6289    5       46.869205066619      31.223017097245     105.609385040000
      6290    6       45.967874194948      32.784167958615     104.050000000000
      6291    7       43.263881599956      34.345318809973     107.168770080000
      6292    8       44.165212461616      35.906469671343     105.609385040000
      6293    9       43.263881599956      34.345318809973     104.050000000000
      6294   10       45.967874194948      35.906469671343     107.168770080000
      6295   11       46.869205066619      34.345318809973     105.609385040000
      6296   12       45.967874194948      35.906469671343     104.050000000000
      6297    1       48.671866799951      24.978413681801     107.168770080000
      6298    2       49.573197661611      26.539564533159     105.609385040000
      6299    3       48.671866799951      24.978413681801     104.050000000000
      6300    4       51.375859394942      26.539564533159     107.168770080000
      6301    5       52.277190266614      24.978413681801     105.609385040000
      6302    6       51.375859394942      26.539564533159     104.050000000000
      6303    7       48.671866799951      28.100715394529     107.168770080000
      6304    8       49.573197661611      29.661866245887     105.609385040000
      6305    9       48.671866799951      28.100715394529     104.050000000000
      6306   10       51.375859394942      29.661866245887     107.168770080000
      6307   11       52.277190266614      28.100715394529     105.609385040000
      6308   12       51.375859394942      29.661866245887     104.050000000000
      6309    1       48.671866799951      31.223017097245     107.168770080000
      6310    2       49.573197661611      32.784167958615     105.609385040000
      6311    3       48.671866799951      31.223017097245     104.050000000000
      6312    4       51.375859394942      32.784167958615     107.168770080000
      6313    5       52.277190266614      31.223017097245     105.609385040000
      6314    6       51.375859394942      32.784167958615     104.050000000000
      6315    7       48.671866799951      34.345318809973     107.168770080000
      6316    8       49.573197661611      35.906469671343     105.609385040000
      6317    9       48.671866799951      34.345318809973     104.050000000000
      6318   10       51.375859394942      35.906469671343     107.168770080000
      6319   11       52.277190266614      34.345318809973     105.609385040000
      6320   12       51.375859394942      35.906469671343     104.050000000000
      6321    1       43.263881599956      37.467620522701     107.168770080000
      6322    2       44.165212461616      39.028771374059     105.609385040000
      6323    3       43.263881599956      37.467620522701     104.050000000000
      6324    4       45.967874194948      39.028771374059     107.168770080000
      6325    5       46.869205066619      37.467620522701     105.609385040000
      6326    6       45.967874194948      39.028771374059     104.050000000000
      6327    7       43.263881599956      40.589922235429     107.168770080000
      6328    8       44.165212461616      42.151073086787     105.609385040000
      6329    9       43.263881599956      40.589922235429     104.050000000000
      6330   10       45.967874194948      42.151073086787     107.168770080000
      6331   11       46.869205066619      40.589922235429     105.609385040000
      6332   12       45.967874194948      42.151073086787     104.050000000000
      6333    1       43.263881599956      43.712223938146     107.168770080000
      6334    2       44.165212461616      45.273374799515     105.609385040000
      6335    3       43.263881599956      43.712223938146     104.050000000000
      6336    4       45.967874194948      45.273374799515     107.168770080000
      6337    5       46.869205066619      43.712223938146     105.609385040000
      6338    6       45.967874194948      45.273374799515     104.050000000000
      6339    7       43.263881599956      46.834525650873     107.168770080000
      6340    8       44.165212461616      48.395676512243     105.609385040000
      6341    9       43.263881599956      46.834525650873     104.050000000000
      6342   10       45.967874194948      48.395676512243     107.168770080000
      6343   11       46.869205066619      46.834525650873     105.609385040000
      6344   12       45.967874194948      48.395676512243     104.050000000000
      6345    1       48.671866799951      37.467620522701     107.168770080000
      6346    2       49.573197661611      39.028771374059     105.609385040000
      6347    3       48.671866799951      37.467620522701     104.050000000000
      6348    4       51.375859394942      39.028771374059     107.168770080000
      6349    5       52.277190266614      37.467620522701     105.609385040000
      6350    6       51.375859394942      39.028771374059     104.050000000000
      6351    7       48.671866799951      40.589922235429     107.168770080000
      6352    8       49.573197661611      42.151073086787     105.609385040000
      6353    9       48.671866799951      40.589922235429     104.050000000000
      6354   10       51.375859394942      42.151073086787     107.168770080000
      6355   11       52.277190266614      40.589922235429     105.609385040000
      6356   12       51.375859394942      42.151073086787     104.050000000000
      6357    1       48.671866799951      43.712223938146     107.168770080000
      6358    2       49.573197661611      45.273374799515     105.609385040000
      6359    3       48.671866799951      43.712223938146     104.050000000000
      6360    4       51.375859394942      45.273374799515     107.168770080000
      6361    5       52.277190266614      43.712223938146     105.609385040000
      6362    6       51.375859394942      45.273374799515     104.050000000000
      6363    7       48.671866799951      46.834525650873     107.168770080000
      6364    8       49.573197661611      48.395676512243     105.609385040000
      6365    9       48.671866799951      46.834525650873     104.050000000000
      6366   10       51.375859394942      48.395676512243     107.168770080000
      6367   11       52.277190266614      46.834525650873     105.609385040000
      6368   12       51.375859394942      48.395676512243     104.050000000000
      6369    1       43.263881599956      49.956827363601     107.168770080000
      6370    2       44.165212461616      51.517978214960     105.609385040000
      6371    3       43.263881599956      49.956827363601     104.050000000000
      6372    4       45.967874194948      51.517978214960     107.168770080000
      6373    5       46.869205066619      49.956827363601     105.609385040000
      6374    6       45.967874194948      51.517978214960     104.050000000000
      6375    7       43.263881599956      53.079129076329     107.168770080000
      6376    8       44.165212461616      54.640279927688     105.609385040000
      6377    9       43.263881599956      53.079129076329     104.050000000000
      6378   10       45.967874194948      54.640279927688     107.168770080000
      6379   11       46.869205066619      53.079129076329     105.609385040000
      6380   12       45.967874194948      54.640279927688     104.050000000000
      6381    1       43.263881599956      56.201430779046     107.168770080000
      6382    2       44.165212461616      57.762581640415     105.609385040000
      6383    3       43.263881599956      56.201430779046     104.050000000000
      6384    4       45.967874194948      57.762581640415     107.168770080000
      6385    5       46.869205066619      56.201430779046     105.609385040000
      6386    6       45.967874194948      57.762581640415     104.050000000000
      6387    7       43.263881599956      59.323732491774     107.168770080000
      6388    8       44.165212461616      60.884883353143     105.609385040000
      6389    9       43.263881599956      59.323732491774     104.050000000000
      6390   10       45.967874194948      60.884883353143     107.168770080000
      6391   11       46.869205066619      59.323732491774     105.609385040000
      6392   12       45.967874194948      60.884883353143     104.050000000000
      6393    1       48.671866799951      49.956827363601     107.168770080000
      6394    2       49.573197661611      51.517978214960     105.609385040000
      6395    3       48.671866799951      49.956827363601     104.050000000000
      6396    4       51.375859394942      51.517978214960     107.168770080000
      6397    5       52.277190266614      49.956827363601     105.609385040000
      6398    6       51.375859394942      51.517978214960     104.050000000000
      6399    7       48.671866799951      53.079129076329     107.168770080000
      6400    8       49.573197661611      54.640279927688     105.609385040000
      6401    9       48.671866799951      53.079129076329     104.050000000000
      6402   10       51.375859394942      54.640279927688     107.168770080000
      6403   11       52.277190266614      53.079129076329     105.609385040000
      6404   12       51.375859394942      54.640279927688     104.050000000000
      6405    1       48.671866799951      56.201430779046     107.168770080000
      6406    2       49.573197661611      57.762581640415     105.609385040000
      6407    3       48.671866799951      56.201430779046     104.050000000000
      6408    4       51.375859394942      57.762581640415     107.168770080000
      6409    5       52.277190266614      56.201430779046     105.609385040000
      6410    6       51.375859394942      57.762581640415     104.050000000000
      6411    7       48.671866799951      59.323732491774     107.168770080000
      6412    8       49.573197661611      60.884883353143     105.609385040000
      6413    9       48.671866799951      59.323732491774     104.050000000000
      6414   10       51.375859394942      60.884883353143     107.168770080000
      6415   11       52.277190266614      59.323732491774     105.609385040000
      6416   12       51.375859394942      60.884883353143     104.050000000000
      6417    1       43.263881599956      62.446034204502     107.168770080000
      6418    2       44.165212461616      64.007185055860     105.609385040000
      6419    3       43.263881599956      62.446034204502     104.050000000000
      6420    4       45.967874194948      64.007185055860     107.168770080000
      6421    5       46.869205066619      62.446034204502     105.609385040000
      6422    6       45.967874194948      64.007185055860     104.050000000000
      6423    7       43.263881599956      65.568335917230     107.168770080000
      6424    8       44.165212461616      67.129486768588     105.609385040000
      6425    9       43.263881599956      65.568335917230     104.050000000000
      6426   10       45.967874194948      67.129486768588     107.168770080000
      6427   11       46.869205066619      65.568335917230     105.609385040000
      6428   12       45.967874194948      67.129486768588     104.050000000000
      6429    1       43.263881599956      68.690637619946     107.168770080000
      6430    2       44.165212461616      70.251788481316     105.609385040000
      6431    3       43.263881599956      68.690637619946     104.050000000000
      6432    4       45.967874194948      70.251788481316     107.168770080000
      6433    5       46.869205066619      68.690637619946     105.609385040000
      6434    6       45.967874194948      70.251788481316     104.050000000000
      6435    7       43.263881599956      71.812939332674     107.168770080000
      6436    8       44.165212461616      73.374090194044     105.609385040000
      6437    9       43.263881599956      71.812939332674     104.050000000000
      6438   10       45.967874194948      73.374090194044     107.168770080000
      6439   11       46.869205066619      71.812939332674     105.609385040000
      6440   12       45.967874194948      73.374090194044     104.050000000000
      6441    1       48.671866799951      62.446034204502     107.168770080000
      6442    2       49.573197661611      64.007185055860     105.609385040000
      6443    3       48.671866799951      62.446034204502     104.050000000000
      6444    4       51.375859394942      64.007185055860     107.168770080000
      6445    5       52.277190266614      62.446034204502     105.609385040000
      6446    6       51.375859394942      64.007185055860     104.050000000000
      6447    7       48.671866799951      65.568335917230     107.168770080000
      6448    8       49.573197661611      67.129486768588     105.609385040000
      6449    9       48.671866799951      65.568335917230     104.050000000000
      6450   10       51.375859394942      67.129486768588     107.168770080000
      6451   11       52.277190266614      65.568335917230     105.609385040000
      6452   12       51.375859394942      67.129486768588     104.050000000000
      6453    1       48.671866799951      68.690637619946     107.168770080000
      6454    2       49.573197661611      70.251788481316     105.609385040000
      6455    3       48.671866799951      68.690637619946     104.050000000000
      6456    4       51.375859394942      70.251788481316     107.168770080000
      6457    5       52.277190266614      68.690637619946     105.609385040000
      6458    6       51.375859394942      70.251788481316     104.050000000000
      6459    7       48.671866799951      71.812939332674     107.168770080000
      6460    8       49.573197661611      73.374090194044     105.609385040000
      6461    9       48.671866799951      71.812939332674     104.050000000000
      6462   10       51.375859394942      73.374090194044     107.168770080000
      6463   11       52.277190266614      71.812939332674     105.609385040000
      6464   12       51.375859394942      73.374090194044     104.050000000000
      6465    1       43.263881599956      74.935241045402     107.168770080000
      6466    2       44.165212461616      76.496391896760     105.609385040000
      6467    3       43.263881599956      74.935241045402     104.050000000000
      6468    4       45.967874194948      76.496391896760     107.168770080000
      6469    5       46.869205066619      74.935241045402     105.609385040000
      6470    6       45.967874194948      76.496391896760     104.050000000000
      6471    7       43.263881599956      78.057542758130     107.168770080000
      6472    8       44.165212461616      79.618693609488     105.609385040000
      6473    9       43.263881599956      78.057542758130     104.050000000000
      6474   10       45.967874194948      79.618693609488     107.168770080000
      6475   11       46.869205066619      78.057542758130     105.609385040000
      6476   12       45.967874194948      79.618693609488     104.050000000000
      6477    1       43.263881599956      81.179844460847     107.168770080000
      6478    2       44.165212461616      82.740995322216     105.609385040000
      6479    3       43.263881599956      81.179844460847     104.050000000000
      6480    4       45.967874194948      82.740995322216     107.168770080000
      6481    5       46.869205066619      81.179844460847     105.609385040000
      6482    6       45.967874194948      82.740995322216     104.050000000000
      6483    7       43.263881599956      84.302146173574     107.168770080000
      6484    8       44.165212461616      85.863297034944     105.609385040000
      6485    9       43.263881599956      84.302146173574     104.050000000000
      6486   10       45.967874194948      85.863297034944     107.168770080000
      6487   11       46.869205066619      84.302146173574     105.609385040000
      6488   12       45.967874194948      85.863297034944     104.050000000000
      6489    1       48.671866799951      74.935241045402     107.168770080000
      6490    2       49.573197661611      76.496391896760     105.609385040000
      6491    3       48.671866799951      74.935241045402     104.050000000000
      6492    4       51.375859394942      76.496391896760     107.168770080000
      6493    5       52.277190266614      74.935241045402     105.609385040000
      6494    6       51.375859394942      76.496391896760     104.050000000000
      6495    7       48.671866799951      78.057542758130     107.168770080000
      6496    8       49.573197661611      79.618693609488     105.609385040000
      6497    9       48.671866799951      78.057542758130     104.050000000000
      6498   10       51.375859394942      79.618693609488     107.168770080000
      6499   11       52.277190266614      78.057542758130     105.609385040000
      6500   12       51.375859394942      79.618693609488     104.050000000000
      6501    1       48.671866799951      81.179844460847     107.168770080000
      6502    2       49.573197661611      82.740995322216     105.609385040000
      6503    3       48.671866799951      81.179844460847     104.050000000000
      6504    4       51.375859394942      82.740995322216     107.168770080000
      6505    5       52.277190266614      81.179844460847     105.609385040000
      6506    6       51.375859394942      82.740995322216     104.050000000000
      6507    7       48.671866799951      84.302146173574     107.168770080000
      6508    8       49.573197661611      85.863297034944     105.609385040000
      6509    9       48.671866799951      84.302146173574     104.050000000000
      6510   10       51.375859394942      85.863297034944     107.168770080000
      6511   11       52.277190266614      84.302146173574     105.609385040000
      6512   12       51.375859394942      85.863297034944     104.050000000000
      6513    1       43.263881599956      87.424447886302     107.168770080000
      6514    2       44.165212461616      88.985598737661     105.609385040000
      6515    3       43.263881599956      87.424447886302     104.050000000000
      6516    4       45.967874194948      88.985598737661     107.168770080000
      6517    5       46.869205066619      87.424447886302     105.609385040000
      6518    6       45.967874194948      88.985598737661     104.050000000000
      6519    7       43.263881599956      90.546749599030     107.168770080000
      6520    8       44.165212461616      92.107900450389     105.609385040000
      6521    9       43.263881599956      90.546749599030     104.050000000000
      6522   10       45.967874194948      92.107900450389     107.168770080000
      6523   11       46.869205066619      90.546749599030     105.609385040000
      6524   12       45.967874194948      92.107900450389     104.050000000000
      6525    1       43.263881599956      93.669051301747     107.168770080000
      6526    2       44.165212461616      95.230202163116     105.609385040000
      6527    3       43.263881599956      93.669051301747     104.050000000000
      6528    4       45.967874194948      95.230202163116     107.168770080000
      6529    5       46.869205066619      93.669051301747     105.609385040000
      6530    6       45.967874194948      95.230202163116     104.050000000000
      6531    7       43.263881599956      96.791353014475     107.168770080000
      6532    8       44.165212461616      98.352503875844     105.609385040000
      6533    9       43.263881599956      96.791353014475     104.050000000000
      6534   10       45.967874194948      98.352503875844     107.168770080000
      6535   11       46.869205066619      96.791353014475     105.609385040000
      6536   12       45.967874194948      98.352503875844     104.050000000000
      6537    1       48.671866799951      87.424447886302     107.168770080000
      6538    2       49.573197661611      88.985598737661     105.609385040000
      6539    3       48.671866799951      87.424447886302     104.050000000000
      6540    4       51.375859394942      88.985598737661     107.168770080000
      6541    5       52.277190266614      87.424447886302     105.609385040000
      6542    6       51.375859394942      88.985598737661     104.050000000000
      6543    7       48.671866799951      90.546749599030     107.168770080000
      6544    8       49.573197661611      92.107900450389     105.609385040000
      6545    9       48.671866799951      90.546749599030     104.050000000000
      6546   10       51.375859394942      92.107900450389     107.168770080000
      6547   11       52.277190266614      90.546749599030     105.609385040000
      6548   12       51.375859394942      92.107900450389     104.050000000000
      6549    1       48.671866799951      93.669051301747     107.168770080000
      6550    2       49.573197661611      95.230202163116     105.609385040000
      6551    3       48.671866799951      93.669051301747     104.050000000000
      6552    4       51.375859394942      95.230202163116     107.168770080000
      6553    5       52.277190266614      93.669051301747     105.609385040000
      6554    6       51.375859394942      95.230202163116     104.050000000000
      6555    7       48.671866799951      96.791353014475     107.168770080000
      6556    8       49.573197661611      98.352503875844     105.609385040000
      6557    9       48.671866799951      96.791353014475     104.050000000000
      6558   10       51.375859394942      98.352503875844     107.168770080000
      6559   11       52.277190266614      96.791353014475     105.609385040000
      6560   12       51.375859394942      98.352503875844     104.050000000000
      6561    1       43.263881599956      99.913654727203     107.168770080000
      6562    2       44.165212461616     101.474805578561     105.609385040000
      6563    3       43.263881599956      99.913654727203     104.050000000000
      6564    4       45.967874194948     101.474805578561     107.168770080000
      6565    5       46.869205066619      99.913654727203     105.609385040000
      6566    6       45.967874194948     101.474805578561     104.050000000000
      6567    7       43.263881599956     103.035956439931     107.168770080000
      6568    8       44.165212461616     104.597107291289     105.609385040000
      6569    9       43.263881599956     103.035956439931     104.050000000000
      6570   10       45.967874194948     104.597107291289     107.168770080000
      6571   11       46.869205066619     103.035956439931     105.609385040000
      6572   12       45.967874194948     104.597107291289     104.050000000000
      6573    1       43.263881599956     106.158258142647     107.168770080000
      6574    2       44.165212461616     107.719409004017     105.609385040000
      6575    3       43.263881599956     106.158258142647     104.050000000000
      6576    4       45.967874194948     107.719409004017     107.168770080000
      6577    5       46.869205066619     106.158258142647     105.609385040000
      6578    6       45.967874194948     107.719409004017     104.050000000000
      6579    7       43.263881599956     109.280559855375     107.168770080000
      6580    8       44.165212461616     110.841710716745     105.609385040000
      6581    9       43.263881599956     109.280559855375     104.050000000000
      6582   10       45.967874194948     110.841710716745     107.168770080000
      6583   11       46.869205066619     109.280559855375     105.609385040000
      6584   12       45.967874194948     110.841710716745     104.050000000000
      6585    1       48.671866799951      99.913654727203     107.168770080000
      6586    2       49.573197661611     101.474805578561     105.609385040000
      6587    3       48.671866799951      99.913654727203     104.050000000000
      6588    4       51.375859394942     101.474805578561     107.168770080000
      6589    5       52.277190266614      99.913654727203     105.609385040000
      6590    6       51.375859394942     101.474805578561     104.050000000000
      6591    7       48.671866799951     103.035956439931     107.168770080000
      6592    8       49.573197661611     104.597107291289     105.609385040000
      6593    9       48.671866799951     103.035956439931     104.050000000000
      6594   10       51.375859394942     104.597107291289     107.168770080000
      6595   11       52.277190266614     103.035956439931     105.609385040000
      6596   12       51.375859394942     104.597107291289     104.050000000000
      6597    1       48.671866799951     106.158258142647     107.168770080000
      6598    2       49.573197661611     107.719409004017     105.609385040000
      6599    3       48.671866799951     106.158258142647     104.050000000000
      6600    4       51.375859394942     107.719409004017     107.168770080000
      6601    5       52.277190266614     106.158258142647     105.609385040000
      6602    6       51.375859394942     107.719409004017     104.050000000000
      6603    7       48.671866799951     109.280559855375     107.168770080000
      6604    8       49.573197661611     110.841710716745     105.609385040000
      6605    9       48.671866799951     109.280559855375     104.050000000000
      6606   10       51.375859394942     110.841710716745     107.168770080000
      6607   11       52.277190266614     109.280559855375     105.609385040000
      6608   12       51.375859394942     110.841710716745     104.050000000000
      6609    1       43.263881599956     112.402861568103     107.168770080000
      6610    2       44.165212461616     113.964012419461     105.609385040000
      6611    3       43.263881599956     112.402861568103     104.050000000000
      6612    4       45.967874194948     113.964012419461     107.168770080000
      6613    5       46.869205066619     112.402861568103     105.609385040000
      6614    6       45.967874194948     113.964012419461     104.050000000000
      6615    7       43.263881599956     115.525163280831     107.168770080000
      6616    8       44.165212461616     117.086314132189     105.609385040000
      6617    9       43.263881599956     115.525163280831     104.050000000000
      6618   10       45.967874194948     117.086314132189     107.168770080000
      6619   11       46.869205066619     115.525163280831     105.609385040000
      6620   12       45.967874194948     117.086314132189     104.050000000000
      6621    1       43.263881599956     118.647464983548     107.168770080000
      6622    2       44.165212461616     120.208615844917     105.609385040000
      6623    3       43.263881599956     118.647464983548     104.050000000000
      6624    4       45.967874194948     120.208615844917     107.168770080000
      6625    5       46.869205066619     118.647464983548     105.609385040000
      6626    6       45.967874194948     120.208615844917     104.050000000000
      6627    7       43.263881599956     121.769766696275     107.168770080000
      6628    8       44.165212461616     123.330917557645     105.609385040000
      6629    9       43.263881599956     121.769766696275     104.050000000000
      6630   10       45.967874194948     123.330917557645     107.168770080000
      6631   11       46.869205066619     121.769766696275     105.609385040000
      6632   12       45.967874194948     123.330917557645     104.050000000000
      6633    1       48.671866799951     112.402861568103     107.168770080000
      6634    2       49.573197661611     113.964012419461     105.609385040000
      6635    3       48.671866799951     112.402861568103     104.050000000000
      6636    4       51.375859394942     113.964012419461     107.168770080000
      6637    5       52.277190266614     112.402861568103     105.609385040000
      6638    6       51.375859394942     113.964012419461     104.050000000000
      6639    7       48.671866799951     115.525163280831     107.168770080000
      6640    8       49.573197661611     117.086314132189     105.609385040000
      6641    9       48.671866799951     115.525163280831     104.050000000000
      6642   10       51.375859394942     117.086314132189     107.168770080000
      6643   11       52.277190266614     115.525163280831     105.609385040000
      6644   12       51.375859394942     117.086314132189     104.050000000000
      6645    1       48.671866799951     118.647464983548     107.168770080000
      6646    2       49.573197661611     120.208615844917     105.609385040000
      6647    3       48.671866799951     118.647464983548     104.050000000000
      6648    4       51.375859394942     120.208615844917     107.168770080000
      6649    5       52.277190266614     118.647464983548     105.609385040000
      6650    6       51.375859394942     120.208615844917     104.050000000000
      6651    7       48.671866799951     121.769766696275     107.168770080000
      6652    8       49.573197661611     123.330917557645     105.609385040000
      6653    9       48.671866799951     121.769766696275     104.050000000000
      6654   10       51.375859394942     123.330917557645     107.168770080000
      6655   11       52.277190266614     121.769766696275     105.609385040000
      6656   12       51.375859394942     123.330917557645     104.050000000000
      6657    1       43.263881599956     124.892068409003     107.168770080000
      6658    2       44.165212461616     126.453219260362     105.609385040000
      6659    3       43.263881599956     124.892068409003     104.050000000000
      6660    4       45.967874194948     126.453219260362     107.168770080000
      6661    5       46.869205066619     124.892068409003     105.609385040000
      6662    6       45.967874194948     126.453219260362     104.050000000000
      6663    7       43.263881599956     128.014370121731     107.168770080000
      6664    8       44.165212461616     129.575520973090     105.609385040000
      6665    9       43.263881599956     128.014370121731     104.050000000000
      6666   10       45.967874194948     129.575520973090     107.168770080000
      6667   11       46.869205066619     128.014370121731     105.609385040000
      6668   12       45.967874194948     129.575520973090     104.050000000000
      6669    1       43.263881599956     131.136671824448     107.168770080000
      6670    2       44.165212461616     132.697822685817     105.609385040000
      6671    3       43.263881599956     131.136671824448     104.050000000000
      6672    4       45.967874194948     132.697822685817     107.168770080000
      6673    5       46.869205066619     131.136671824448     105.609385040000
      6674    6       45.967874194948     132.697822685817     104.050000000000
      6675    7       43.263881599956     134.258973537176     107.168770080000
      6676    8       44.165212461616     135.820124398545     105.609385040000
      6677    9       43.263881599956     134.258973537176     104.050000000000
      6678   10       45.967874194948     135.820124398545     107.168770080000
      6679   11       46.869205066619     134.258973537176     105.609385040000
      6680   12       45.967874194948     135.820124398545     104.050000000000
      6681    1       48.671866799951     124.892068409003     107.168770080000
      6682    2       49.573197661611     126.453219260362     105.609385040000
      6683    3       48.671866799951     124.892068409003     104.050000000000
      6684    4       51.375859394942     126.453219260362     107.168770080000
      6685    5       52.277190266614     124.892068409003     105.609385040000
      6686    6       51.375859394942     126.453219260362     104.050000000000
      6687    7       48.671866799951     128.014370121731     107.168770080000
      6688    8       49.573197661611     129.575520973090     105.609385040000
      6689    9       48.671866799951     128.014370121731     104.050000000000
      6690   10       51.375859394942     129.575520973090     107.168770080000
      6691   11       52.277190266614     128.014370121731     105.609385040000
      6692   12       51.375859394942     129.575520973090     104.050000000000
      6693    1       48.671866799951     131.136671824448     107.168770080000
      6694    2       49.573197661611     132.697822685817     105.609385040000
      6695    3       48.671866799951     131.136671824448     104.050000000000
      6696    4       51.375859394942     132.697822685817     107.168770080000
      6697    5       52.277190266614     131.136671824448     105.609385040000
      6698    6       51.375859394942     132.697822685817     104.050000000000
      6699    7       48.671866799951     134.258973537176     107.168770080000
      6700    8       49.573197661611     135.820124398545     105.609385040000
      6701    9       48.671866799951     134.258973537176     104.050000000000
      6702   10       51.375859394942     135.820124398545     107.168770080000
      6703   11       52.277190266614     134.258973537176     105.609385040000
      6704   12       51.375859394942     135.820124398545     104.050000000000
      6705    1       43.263881599956     137.381275249904     107.168770080000
      6706    2       44.165212461616     138.942426101262     105.609385040000
      6707    3       43.263881599956     137.381275249904     104.050000000000
      6708    4       45.967874194948     138.942426101262     107.168770080000
      6709    5       46.869205066619     137.381275249904     105.609385040000
      6710    6       45.967874194948     138.942426101262     104.050000000000
      6711    7       43.263881599956     140.503576962632     107.168770080000
      6712    8       44.165212461616     142.064727813990     105.609385040000
      6713    9       43.263881599956     140.503576962632     104.050000000000
      6714   10       45.967874194948     142.064727813990     107.168770080000
      6715   11       46.869205066619     140.503576962632     105.609385040000
      6716   12       45.967874194948     142.064727813990     104.050000000000
      6717    1       43.263881599956     143.625878665348     107.168770080000
      6718    2       44.165212461616     145.187029526718     105.609385040000
      6719    3       43.263881599956     143.625878665348     104.050000000000
      6720    4       45.967874194948     145.187029526718     107.168770080000
      6721    5       46.869205066619     143.625878665348     105.609385040000
      6722    6       45.967874194948     145.187029526718     104.050000000000
      6723    7       43.263881599956     146.748180378076     107.168770080000
      6724    8       44.165212461616     148.309331239446     105.609385040000
      6725    9       43.263881599956     146.748180378076     104.050000000000
      6726   10       45.967874194948     148.309331239446     107.168770080000
      6727   11       46.869205066619     146.748180378076     105.609385040000
      6728   12       45.967874194948     148.309331239446     104.050000000000
      6729    1       48.671866799951     137.381275249904     107.168770080000
      6730    2       49.573197661611     138.942426101262     105.609385040000
      6731    3       48.671866799951     137.381275249904     104.050000000000
      6732    4       51.375859394942     138.942426101262     107.168770080000
      6733    5       52.277190266614     137.381275249904     105.609385040000
      6734    6       51.375859394942     138.942426101262     104.050000000000
      6735    7       48.671866799951     140.503576962632     107.168770080000
      6736    8       49.573197661611     142.064727813990     105.609385040000
      6737    9       48.671866799951     140.503576962632     104.050000000000
      6738   10       51.375859394942     142.064727813990     107.168770080000
      6739   11       52.277190266614     140.503576962632     105.609385040000
      6740   12       51.375859394942     142.064727813990     104.050000000000
      6741    1       48.671866799951     143.625878665348     107.168770080000
      6742    2       49.573197661611     145.187029526718     105.609385040000
      6743    3       48.671866799951     143.625878665348     104.050000000000
      6744    4       51.375859394942     145.187029526718     107.168770080000
      6745    5       52.277190266614     143.625878665348     105.609385040000
      6746    6       51.375859394942     145.187029526718     104.050000000000
      6747    7       48.671866799951     146.748180378076     107.168770080000
      6748    8       49.573197661611     148.309331239446     105.609385040000
      6749    9       48.671866799951     146.748180378076     104.050000000000
      6750   10       51.375859394942     148.309331239446     107.168770080000
      6751   11       52.277190266614     146.748180378076     105.609385040000
      6752   12       51.375859394942     148.309331239446     104.050000000000
      6753    1       54.079851999945       0.000000000000     107.168770080000
      6754    2       54.981182861605       1.561150851358     105.609385040000
      6755    3       54.079851999945       0.000000000000     104.050000000000
      6756    4       56.783844594937       1.561150851358     107.168770080000
      6757    5       57.685175466608       0.000000000000     105.609385040000
      6758    6       56.783844594937       1.561150851358     104.050000000000
      6759    7       54.079851999945       3.122301712728     107.168770080000
      6760    8       54.981182861605       4.683452564086     105.609385040000
      6761    9       54.079851999945       3.122301712728     104.050000000000
      6762   10       56.783844594937       4.683452564086     107.168770080000
      6763   11       57.685175466608       3.122301712728     105.609385040000
      6764   12       56.783844594937       4.683452564086     104.050000000000
      6765    1       54.079851999945       6.244603415445     107.168770080000
      6766    2       54.981182861605       7.805754276814     105.609385040000
      6767    3       54.079851999945       6.244603415445     104.050000000000
      6768    4       56.783844594937       7.805754276814     107.168770080000
      6769    5       57.685175466608       6.244603415445     105.609385040000
      6770    6       56.783844594937       7.805754276814     104.050000000000
      6771    7       54.079851999945       9.366905128172     107.168770080000
      6772    8       54.981182861605      10.928055989542     105.609385040000
      6773    9       54.079851999945       9.366905128172     104.050000000000
      6774   10       56.783844594937      10.928055989542     107.168770080000
      6775   11       57.685175466608       9.366905128172     105.609385040000
      6776   12       56.783844594937      10.928055989542     104.050000000000
      6777    1       59.487837199940       0.000000000000     107.168770080000
      6778    2       60.389168061600       1.561150851358     105.609385040000
      6779    3       59.487837199940       0.000000000000     104.050000000000
      6780    4       62.191829794931       1.561150851358     107.168770080000
      6781    5       63.093160666603       0.000000000000     105.609385040000
      6782    6       62.191829794931       1.561150851358     104.050000000000
      6783    7       59.487837199940       3.122301712728     107.168770080000
      6784    8       60.389168061600       4.683452564086     105.609385040000
      6785    9       59.487837199940       3.122301712728     104.050000000000
      6786   10       62.191829794931       4.683452564086     107.168770080000
      6787   11       63.093160666603       3.122301712728     105.609385040000
      6788   12       62.191829794931       4.683452564086     104.050000000000
      6789    1       59.487837199940       6.244603415445     107.168770080000
      6790    2       60.389168061600       7.805754276814     105.609385040000
      6791    3       59.487837199940       6.244603415445     104.050000000000
      6792    4       62.191829794931       7.805754276814     107.168770080000
      6793    5       63.093160666603       6.244603415445     105.609385040000
      6794    6       62.191829794931       7.805754276814     104.050000000000
      6795    7       59.487837199940       9.366905128172     107.168770080000
      6796    8       60.389168061600      10.928055989542     105.609385040000
      6797    9       59.487837199940       9.366905128172     104.050000000000
      6798   10       62.191829794931      10.928055989542     107.168770080000
      6799   11       63.093160666603       9.366905128172     105.609385040000
      6800   12       62.191829794931      10.928055989542     104.050000000000
      6801    1       54.079851999945      12.489206840900     107.168770080000
      6802    2       54.981182861605      14.050357692259     105.609385040000
      6803    3       54.079851999945      12.489206840900     104.050000000000
      6804    4       56.783844594937      14.050357692259     107.168770080000
      6805    5       57.685175466608      12.489206840900     105.609385040000
      6806    6       56.783844594937      14.050357692259     104.050000000000
      6807    7       54.079851999945      15.611508553628     107.168770080000
      6808    8       54.981182861605      17.172659404987     105.609385040000
      6809    9       54.079851999945      15.611508553628     104.050000000000
      6810   10       56.783844594937      17.172659404987     107.168770080000
      6811   11       57.685175466608      15.611508553628     105.609385040000
      6812   12       56.783844594937      17.172659404987     104.050000000000
      6813    1       54.079851999945      18.733810256345     107.168770080000
      6814    2       54.981182861605      20.294961117714     105.609385040000
      6815    3       54.079851999945      18.733810256345     104.050000000000
      6816    4       56.783844594937      20.294961117714     107.168770080000
      6817    5       57.685175466608      18.733810256345     105.609385040000
      6818    6       56.783844594937      20.294961117714     104.050000000000
      6819    7       54.079851999945      21.856111969073     107.168770080000
      6820    8       54.981182861605      23.417262830442     105.609385040000
      6821    9       54.079851999945      21.856111969073     104.050000000000
      6822   10       56.783844594937      23.417262830442     107.168770080000
      6823   11       57.685175466608      21.856111969073     105.609385040000
      6824   12       56.783844594937      23.417262830442     104.050000000000
      6825    1       59.487837199940      12.489206840900     107.168770080000
      6826    2       60.389168061600      14.050357692259     105.609385040000
      6827    3       59.487837199940      12.489206840900     104.050000000000
      6828    4       62.191829794931      14.050357692259     107.168770080000
      6829    5       63.093160666603      12.489206840900     105.609385040000
      6830    6       62.191829794931      14.050357692259     104.050000000000
      6831    7       59.487837199940      15.611508553628     107.168770080000
      6832    8       60.389168061600      17.172659404987     105.609385040000
      6833    9       59.487837199940      15.611508553628     104.050000000000
      6834   10       62.191829794931      17.172659404987     107.168770080000
      6835   11       63.093160666603      15.611508553628     105.609385040000
      6836   12       62.191829794931      17.172659404987     104.050000000000
      6837    1       59.487837199940      18.733810256345     107.168770080000
      6838    2       60.389168061600      20.294961117714     105.609385040000
      6839    3       59.487837199940      18.733810256345     104.050000000000
      6840    4       62.191829794931      20.294961117714     107.168770080000
      6841    5       63.093160666603      18.733810256345     105.609385040000
      6842    6       62.191829794931      20.294961117714     104.050000000000
      6843    7       59.487837199940      21.856111969073     107.168770080000
      6844    8       60.389168061600      23.417262830442     105.609385040000
      6845    9       59.487837199940      21.856111969073     104.050000000000
      6846   10       62.191829794931      23.417262830442     107.168770080000
      6847   11       63.093160666603      21.856111969073     105.609385040000
      6848   12       62.191829794931      23.417262830442     104.050000000000
      6849    1       54.079851999945      24.978413681801     107.168770080000
      6850    2       54.981182861605      26.539564533159     105.609385040000
      6851    3       54.079851999945      24.978413681801     104.050000000000
      6852    4       56.783844594937      26.539564533159     107.168770080000
      6853    5       57.685175466608      24.978413681801     105.609385040000
      6854    6       56.783844594937      26.539564533159     104.050000000000
      6855    7       54.079851999945      28.100715394529     107.168770080000
      6856    8       54.981182861605      29.661866245887     105.609385040000
      6857    9       54.079851999945      28.100715394529     104.050000000000
      6858   10       56.783844594937      29.661866245887     107.168770080000
      6859   11       57.685175466608      28.100715394529     105.609385040000
      6860   12       56.783844594937      29.661866245887     104.050000000000
      6861    1       54.079851999945      31.223017097245     107.168770080000
      6862    2       54.981182861605      32.784167958615     105.609385040000
      6863    3       54.079851999945      31.223017097245     104.050000000000
      6864    4       56.783844594937      32.784167958615     107.168770080000
      6865    5       57.685175466608      31.223017097245     105.609385040000
      6866    6       56.783844594937      32.784167958615     104.050000000000
      6867    7       54.079851999945      34.345318809973     107.168770080000
      6868    8       54.981182861605      35.906469671343     105.609385040000
      6869    9       54.079851999945      34.345318809973     104.050000000000
      6870   10       56.783844594937      35.906469671343     107.168770080000
      6871   11       57.685175466608      34.345318809973     105.609385040000
      6872   12       56.783844594937      35.906469671343     104.050000000000
      6873    1       59.487837199940      24.978413681801     107.168770080000
      6874    2       60.389168061600      26.539564533159     105.609385040000
      6875    3       59.487837199940      24.978413681801     104.050000000000
      6876    4       62.191829794931      26.539564533159     107.168770080000
      6877    5       63.093160666603      24.978413681801     105.609385040000
      6878    6       62.191829794931      26.539564533159     104.050000000000
      6879    7       59.487837199940      28.100715394529     107.168770080000
      6880    8       60.389168061600      29.661866245887     105.609385040000
      6881    9       59.487837199940      28.100715394529     104.050000000000
      6882   10       62.191829794931      29.661866245887     107.168770080000
      6883   11       63.093160666603      28.100715394529     105.609385040000
      6884   12       62.191829794931      29.661866245887     104.050000000000
      6885    1       59.487837199940      31.223017097245     107.168770080000
      6886    2       60.389168061600      32.784167958615     105.609385040000
      6887    3       59.487837199940      31.223017097245     104.050000000000
      6888    4       62.191829794931      32.784167958615     107.168770080000
      6889    5       63.093160666603      31.223017097245     105.609385040000
      6890    6       62.191829794931      32.784167958615     104.050000000000
      6891    7       59.487837199940      34.345318809973     107.168770080000
      6892    8       60.389168061600      35.906469671343     105.609385040000
      6893    9       59.487837199940      34.345318809973     104.050000000000
      6894   10       62.191829794931      35.906469671343     107.168770080000
      6895   11       63.093160666603      34.345318809973     105.609385040000
      6896   12       62.191829794931      35.906469671343     104.050000000000
      6897    1       54.079851999945      37.467620522701     107.168770080000
      6898    2       54.981182861605      39.028771374059     105.609385040000
      6899    3       54.079851999945      37.467620522701     104.050000000000
      6900    4       56.783844594937      39.028771374059     107.168770080000
      6901    5       57.685175466608      37.467620522701     105.609385040000
      6902    6       56.783844594937      39.028771374059     104.050000000000
      6903    7       54.079851999945      40.589922235429     107.168770080000
      6904    8       54.981182861605      42.151073086787     105.609385040000
      6905    9       54.079851999945      40.589922235429     104.050000000000
      6906   10       56.783844594937      42.151073086787     107.168770080000
      6907   11       57.685175466608      40.589922235429     105.609385040000
      6908   12       56.783844594937      42.151073086787     104.050000000000
      6909    1       54.079851999945      43.712223938146     107.168770080000
      6910    2       54.981182861605      45.273374799515     105.609385040000
      6911    3       54.079851999945      43.712223938146     104.050000000000
      6912    4       56.783844594937      45.273374799515     107.168770080000
      6913    5       57.685175466608      43.712223938146     105.609385040000
      6914    6       56.783844594937      45.273374799515     104.050000000000
      6915    7       54.079851999945      46.834525650873     107.168770080000
      6916    8       54.981182861605      48.395676512243     105.609385040000
      6917    9       54.079851999945      46.834525650873     104.050000000000
      6918   10       56.783844594937      48.395676512243     107.168770080000
      6919   11       57.685175466608      46.834525650873     105.609385040000
      6920   12       56.783844594937      48.395676512243     104.050000000000
      6921    1       59.487837199940      37.467620522701     107.168770080000
      6922    2       60.389168061600      39.028771374059     105.609385040000
      6923    3       59.487837199940      37.467620522701     104.050000000000
      6924    4       62.191829794931      39.028771374059     107.168770080000
      6925    5       63.093160666603      37.467620522701     105.609385040000
      6926    6       62.191829794931      39.028771374059     104.050000000000
      6927    7       59.487837199940      40.589922235429     107.168770080000
      6928    8       60.389168061600      42.151073086787     105.609385040000
      6929    9       59.487837199940      40.589922235429     104.050000000000
      6930   10       62.191829794931      42.151073086787     107.168770080000
      6931   11       63.093160666603      40.589922235429     105.609385040000
      6932   12       62.191829794931      42.151073086787     104.050000000000
      6933    1       59.487837199940      43.712223938146     107.168770080000
      6934    2       60.389168061600      45.273374799515     105.609385040000
      6935    3       59.487837199940      43.712223938146     104.050000000000
      6936    4       62.191829794931      45.273374799515     107.168770080000
      6937    5       63.093160666603      43.712223938146     105.609385040000
      6938    6       62.191829794931      45.273374799515     104.050000000000
      6939    7       59.487837199940      46.834525650873     107.168770080000
      6940    8       60.389168061600      48.395676512243     105.609385040000
      6941    9       59.487837199940      46.834525650873     104.050000000000
      6942   10       62.191829794931      48.395676512243     107.168770080000
      6943   11       63.093160666603      46.834525650873     105.609385040000
      6944   12       62.191829794931      48.395676512243     104.050000000000
      6945    1       54.079851999945      49.956827363601     107.168770080000
      6946    2       54.981182861605      51.517978214960     105.609385040000
      6947    3       54.079851999945      49.956827363601     104.050000000000
      6948    4       56.783844594937      51.517978214960     107.168770080000
      6949    5       57.685175466608      49.956827363601     105.609385040000
      6950    6       56.783844594937      51.517978214960     104.050000000000
      6951    7       54.079851999945      53.079129076329     107.168770080000
      6952    8       54.981182861605      54.640279927688     105.609385040000
      6953    9       54.079851999945      53.079129076329     104.050000000000
      6954   10       56.783844594937      54.640279927688     107.168770080000
      6955   11       57.685175466608      53.079129076329     105.609385040000
      6956   12       56.783844594937      54.640279927688     104.050000000000
      6957    1       54.079851999945      56.201430779046     107.168770080000
      6958    2       54.981182861605      57.762581640415     105.609385040000
      6959    3       54.079851999945      56.201430779046     104.050000000000
      6960    4       56.783844594937      57.762581640415     107.168770080000
      6961    5       57.685175466608      56.201430779046     105.609385040000
      6962    6       56.783844594937      57.762581640415     104.050000000000
      6963    7       54.079851999945      59.323732491774     107.168770080000
      6964    8       54.981182861605      60.884883353143     105.609385040000
      6965    9       54.079851999945      59.323732491774     104.050000000000
      6966   10       56.783844594937      60.884883353143     107.168770080000
      6967   11       57.685175466608      59.323732491774     105.609385040000
      6968   12       56.783844594937      60.884883353143     104.050000000000
      6969    1       59.487837199940      49.956827363601     107.168770080000
      6970    2       60.389168061600      51.517978214960     105.609385040000
      6971    3       59.487837199940      49.956827363601     104.050000000000
      6972    4       62.191829794931      51.517978214960     107.168770080000
      6973    5       63.093160666603      49.956827363601     105.609385040000
      6974    6       62.191829794931      51.517978214960     104.050000000000
      6975    7       59.487837199940      53.079129076329     107.168770080000
      6976    8       60.389168061600      54.640279927688     105.609385040000
      6977    9       59.487837199940      53.079129076329     104.050000000000
      6978   10       62.191829794931      54.640279927688     107.168770080000
      6979   11       63.093160666603      53.079129076329     105.609385040000
      6980   12       62.191829794931      54.640279927688     104.050000000000
      6981    1       59.487837199940      56.201430779046     107.168770080000
      6982    2       60.389168061600      57.762581640415     105.609385040000
      6983    3       59.487837199940      56.201430779046     104.050000000000
      6984    4       62.191829794931      57.762581640415     107.168770080000
      6985    5       63.093160666603      56.201430779046     105.609385040000
      6986    6       62.191829794931      57.762581640415     104.050000000000
      6987    7       59.487837199940      59.323732491774     107.168770080000
      6988    8       60.389168061600      60.884883353143     105.609385040000
      6989    9       59.487837199940      59.323732491774     104.050000000000
      6990   10       62.191829794931      60.884883353143     107.168770080000
      6991   11       63.093160666603      59.323732491774     105.609385040000
      6992   12       62.191829794931      60.884883353143     104.050000000000
      6993    1       54.079851999945      62.446034204502     107.168770080000
      6994    2       54.981182861605      64.007185055860     105.609385040000
      6995    3       54.079851999945      62.446034204502     104.050000000000
      6996    4       56.783844594937      64.007185055860     107.168770080000
      6997    5       57.685175466608      62.446034204502     105.609385040000
      6998    6       56.783844594937      64.007185055860     104.050000000000
      6999    7       54.079851999945      65.568335917230     107.168770080000
      7000    8       54.981182861605      67.129486768588     105.609385040000
      7001    9       54.079851999945      65.568335917230     104.050000000000
      7002   10       56.783844594937      67.129486768588     107.168770080000
      7003   11       57.685175466608      65.568335917230     105.609385040000
      7004   12       56.783844594937      67.129486768588     104.050000000000
      7005    1       54.079851999945      68.690637619946     107.168770080000
      7006    2       54.981182861605      70.251788481316     105.609385040000
      7007    3       54.079851999945      68.690637619946     104.050000000000
      7008    4       56.783844594937      70.251788481316     107.168770080000
      7009    5       57.685175466608      68.690637619946     105.609385040000
      7010    6       56.783844594937      70.251788481316     104.050000000000
      7011    7       54.079851999945      71.812939332674     107.168770080000
      7012    8       54.981182861605      73.374090194044     105.609385040000
      7013    9       54.079851999945      71.812939332674     104.050000000000
      7014   10       56.783844594937      73.374090194044     107.168770080000
      7015   11       57.685175466608      71.812939332674     105.609385040000
      7016   12       56.783844594937      73.374090194044     104.050000000000
      7017    1       59.487837199940      62.446034204502     107.168770080000
      7018    2       60.389168061600      64.007185055860     105.609385040000
      7019    3       59.487837199940      62.446034204502     104.050000000000
      7020    4       62.191829794931      64.007185055860     107.168770080000
      7021    5       63.093160666603      62.446034204502     105.609385040000
      7022    6       62.191829794931      64.007185055860     104.050000000000
      7023    7       59.487837199940      65.568335917230     107.168770080000
      7024    8       60.389168061600      67.129486768588     105.609385040000
      7025    9       59.487837199940      65.568335917230     104.050000000000
      7026   10       62.191829794931      67.129486768588     107.168770080000
      7027   11       63.093160666603      65.568335917230     105.609385040000
      7028   12       62.191829794931      67.129486768588     104.050000000000
      7029    1       59.487837199940      68.690637619946     107.168770080000
      7030    2       60.389168061600      70.251788481316     105.609385040000
      7031    3       59.487837199940      68.690637619946     104.050000000000
      7032    4       62.191829794931      70.251788481316     107.168770080000
      7033    5       63.093160666603      68.690637619946     105.609385040000
      7034    6       62.191829794931      70.251788481316     104.050000000000
      7035    7       59.487837199940      71.812939332674     107.168770080000
      7036    8       60.389168061600      73.374090194044     105.609385040000
      7037    9       59.487837199940      71.812939332674     104.050000000000
      7038   10       62.191829794931      73.374090194044     107.168770080000
      7039   11       63.093160666603      71.812939332674     105.609385040000
      7040   12       62.191829794931      73.374090194044     104.050000000000
      7041    1       54.079851999945      74.935241045402     107.168770080000
      7042    2       54.981182861605      76.496391896760     105.609385040000
      7043    3       54.079851999945      74.935241045402     104.050000000000
      7044    4       56.783844594937      76.496391896760     107.168770080000
      7045    5       57.685175466608      74.935241045402     105.609385040000
      7046    6       56.783844594937      76.496391896760     104.050000000000
      7047    7       54.079851999945      78.057542758130     107.168770080000
      7048    8       54.981182861605      79.618693609488     105.609385040000
      7049    9       54.079851999945      78.057542758130     104.050000000000
      7050   10       56.783844594937      79.618693609488     107.168770080000
      7051   11       57.685175466608      78.057542758130     105.609385040000
      7052   12       56.783844594937      79.618693609488     104.050000000000
      7053    1       54.079851999945      81.179844460847     107.168770080000
      7054    2       54.981182861605      82.740995322216     105.609385040000
      7055    3       54.079851999945      81.179844460847     104.050000000000
      7056    4       56.783844594937      82.740995322216     107.168770080000
      7057    5       57.685175466608      81.179844460847     105.609385040000
      7058    6       56.783844594937      82.740995322216     104.050000000000
      7059    7       54.079851999945      84.302146173574     107.168770080000
      7060    8       54.981182861605      85.863297034944     105.609385040000
      7061    9       54.079851999945      84.302146173574     104.050000000000
      7062   10       56.783844594937      85.863297034944     107.168770080000
      7063   11       57.685175466608      84.302146173574     105.609385040000
      7064   12       56.783844594937      85.863297034944     104.050000000000
      7065    1       59.487837199940      74.935241045402     107.168770080000
      7066    2       60.389168061600      76.496391896760     105.609385040000
      7067    3       59.487837199940      74.935241045402     104.050000000000
      7068    4       62.191829794931      76.496391896760     107.168770080000
      7069    5       63.093160666603      74.935241045402     105.609385040000
      7070    6       62.191829794931      76.496391896760     104.050000000000
      7071    7       59.487837199940      78.057542758130     107.168770080000
      7072    8       60.389168061600      79.618693609488     105.609385040000
      7073    9       59.487837199940      78.057542758130     104.050000000000
      7074   10       62.191829794931      79.618693609488     107.168770080000
      7075   11       63.093160666603      78.057542758130     105.609385040000
      7076   12       62.191829794931      79.618693609488     104.050000000000
      7077    1       59.487837199940      81.179844460847     107.168770080000
      7078    2       60.389168061600      82.740995322216     105.609385040000
      7079    3       59.487837199940      81.179844460847     104.050000000000
      7080    4       62.191829794931      82.740995322216     107.168770080000
      7081    5       63.093160666603      81.179844460847     105.609385040000
      7082    6       62.191829794931      82.740995322216     104.050000000000
      7083    7       59.487837199940      84.302146173574     107.168770080000
      7084    8       60.389168061600      85.863297034944     105.609385040000
      7085    9       59.487837199940      84.302146173574     104.050000000000
      7086   10       62.191829794931      85.863297034944     107.168770080000
      7087   11       63.093160666603      84.302146173574     105.609385040000
      7088   12       62.191829794931      85.863297034944     104.050000000000
      7089    1       54.079851999945      87.424447886302     107.168770080000
      7090    2       54.981182861605      88.985598737661     105.609385040000
      7091    3       54.079851999945      87.424447886302     104.050000000000
      7092    4       56.783844594937      88.985598737661     107.168770080000
      7093    5       57.685175466608      87.424447886302     105.609385040000
      7094    6       56.783844594937      88.985598737661     104.050000000000
      7095    7       54.079851999945      90.546749599030     107.168770080000
      7096    8       54.981182861605      92.107900450389     105.609385040000
      7097    9       54.079851999945      90.546749599030     104.050000000000
      7098   10       56.783844594937      92.107900450389     107.168770080000
      7099   11       57.685175466608      90.546749599030     105.609385040000
      7100   12       56.783844594937      92.107900450389     104.050000000000
      7101    1       54.079851999945      93.669051301747     107.168770080000
      7102    2       54.981182861605      95.230202163116     105.609385040000
      7103    3       54.079851999945      93.669051301747     104.050000000000
      7104    4       56.783844594937      95.230202163116     107.168770080000
      7105    5       57.685175466608      93.669051301747     105.609385040000
      7106    6       56.783844594937      95.230202163116     104.050000000000
      7107    7       54.079851999945      96.791353014475     107.168770080000
      7108    8       54.981182861605      98.352503875844     105.609385040000
      7109    9       54.079851999945      96.791353014475     104.050000000000
      7110   10       56.783844594937      98.352503875844     107.168770080000
      7111   11       57.685175466608      96.791353014475     105.609385040000
      7112   12       56.783844594937      98.352503875844     104.050000000000
      7113    1       59.487837199940      87.424447886302     107.168770080000
      7114    2       60.389168061600      88.985598737661     105.609385040000
      7115    3       59.487837199940      87.424447886302     104.050000000000
      7116    4       62.191829794931      88.985598737661     107.168770080000
      7117    5       63.093160666603      87.424447886302     105.609385040000
      7118    6       62.191829794931      88.985598737661     104.050000000000
      7119    7       59.487837199940      90.546749599030     107.168770080000
      7120    8       60.389168061600      92.107900450389     105.609385040000
      7121    9       59.487837199940      90.546749599030     104.050000000000
      7122   10       62.191829794931      92.107900450389     107.168770080000
      7123   11       63.093160666603      90.546749599030     105.609385040000
      7124   12       62.191829794931      92.107900450389     104.050000000000
      7125    1       59.487837199940      93.669051301747     107.168770080000
      7126    2       60.389168061600      95.230202163116     105.609385040000
      7127    3       59.487837199940      93.669051301747     104.050000000000
      7128    4       62.191829794931      95.230202163116     107.168770080000
      7129    5       63.093160666603      93.669051301747     105.609385040000
      7130    6       62.191829794931      95.230202163116     104.050000000000
      7131    7       59.487837199940      96.791353014475     107.168770080000
      7132    8       60.389168061600      98.352503875844     105.609385040000
      7133    9       59.487837199940      96.791353014475     104.050000000000
      7134   10       62.191829794931      98.352503875844     107.168770080000
      7135   11       63.093160666603      96.791353014475     105.609385040000
      7136   12       62.191829794931      98.352503875844     104.050000000000
      7137    1       54.079851999945      99.913654727203     107.168770080000
      7138    2       54.981182861605     101.474805578561     105.609385040000
      7139    3       54.079851999945      99.913654727203     104.050000000000
      7140    4       56.783844594937     101.474805578561     107.168770080000
      7141    5       57.685175466608      99.913654727203     105.609385040000
      7142    6       56.783844594937     101.474805578561     104.050000000000
      7143    7       54.079851999945     103.035956439931     107.168770080000
      7144    8       54.981182861605     104.597107291289     105.609385040000
      7145    9       54.079851999945     103.035956439931     104.050000000000
      7146   10       56.783844594937     104.597107291289     107.168770080000
      7147   11       57.685175466608     103.035956439931     105.609385040000
      7148   12       56.783844594937     104.597107291289     104.050000000000
      7149    1       54.079851999945     106.158258142647     107.168770080000
      7150    2       54.981182861605     107.719409004017     105.609385040000
      7151    3       54.079851999945     106.158258142647     104.050000000000
      7152    4       56.783844594937     107.719409004017     107.168770080000
      7153    5       57.685175466608     106.158258142647     105.609385040000
      7154    6       56.783844594937     107.719409004017     104.050000000000
      7155    7       54.079851999945     109.280559855375     107.168770080000
      7156    8       54.981182861605     110.841710716745     105.609385040000
      7157    9       54.079851999945     109.280559855375     104.050000000000
      7158   10       56.783844594937     110.841710716745     107.168770080000
      7159   11       57.685175466608     109.280559855375     105.609385040000
      7160   12       56.783844594937     110.841710716745     104.050000000000
      7161    1       59.487837199940      99.913654727203     107.168770080000
      7162    2       60.389168061600     101.474805578561     105.609385040000
      7163    3       59.487837199940      99.913654727203     104.050000000000
      7164    4       62.191829794931     101.474805578561     107.168770080000
      7165    5       63.093160666603      99.913654727203     105.609385040000
      7166    6       62.191829794931     101.474805578561     104.050000000000
      7167    7       59.487837199940     103.035956439931     107.168770080000
      7168    8       60.389168061600     104.597107291289     105.609385040000
      7169    9       59.487837199940     103.035956439931     104.050000000000
      7170   10       62.191829794931     104.597107291289     107.168770080000
      7171   11       63.093160666603     103.035956439931     105.609385040000
      7172   12       62.191829794931     104.597107291289     104.050000000000
      7173    1       59.487837199940     106.158258142647     107.168770080000
      7174    2       60.389168061600     107.719409004017     105.609385040000
      7175    3       59.487837199940     106.158258142647     104.050000000000
      7176    4       62.191829794931     107.719409004017     107.168770080000
      7177    5       63.093160666603     106.158258142647     105.609385040000
      7178    6       62.191829794931     107.719409004017     104.050000000000
      7179    7       59.487837199940     109.280559855375     107.168770080000
      7180    8       60.389168061600     110.841710716745     105.609385040000
      7181    9       59.487837199940     109.280559855375     104.050000000000
      7182   10       62.191829794931     110.841710716745     107.168770080000
      7183   11       63.093160666603     109.280559855375     105.609385040000
      7184   12       62.191829794931     110.841710716745     104.050000000000
      7185    1       54.079851999945     112.402861568103     107.168770080000
      7186    2       54.981182861605     113.964012419461     105.609385040000
      7187    3       54.079851999945     112.402861568103     104.050000000000
      7188    4       56.783844594937     113.964012419461     107.168770080000
      7189    5       57.685175466608     112.402861568103     105.609385040000
      7190    6       56.783844594937     113.964012419461     104.050000000000
      7191    7       54.079851999945     115.525163280831     107.168770080000
      7192    8       54.981182861605     117.086314132189     105.609385040000
      7193    9       54.079851999945     115.525163280831     104.050000000000
      7194   10       56.783844594937     117.086314132189     107.168770080000
      7195   11       57.685175466608     115.525163280831     105.609385040000
      7196   12       56.783844594937     117.086314132189     104.050000000000
      7197    1       54.079851999945     118.647464983548     107.168770080000
      7198    2       54.981182861605     120.208615844917     105.609385040000
      7199    3       54.079851999945     118.647464983548     104.050000000000
      7200    4       56.783844594937     120.208615844917     107.168770080000
      7201    5       57.685175466608     118.647464983548     105.609385040000
      7202    6       56.783844594937     120.208615844917     104.050000000000
      7203    7       54.079851999945     121.769766696275     107.168770080000
      7204    8       54.981182861605     123.330917557645     105.609385040000
      7205    9       54.079851999945     121.769766696275     104.050000000000
      7206   10       56.783844594937     123.330917557645     107.168770080000
      7207   11       57.685175466608     121.769766696275     105.609385040000
      7208   12       56.783844594937     123.330917557645     104.050000000000
      7209    1       59.487837199940     112.402861568103     107.168770080000
      7210    2       60.389168061600     113.964012419461     105.609385040000
      7211    3       59.487837199940     112.402861568103     104.050000000000
      7212    4       62.191829794931     113.964012419461     107.168770080000
      7213    5       63.093160666603     112.402861568103     105.609385040000
      7214    6       62.191829794931     113.964012419461     104.050000000000
      7215    7       59.487837199940     115.525163280831     107.168770080000
      7216    8       60.389168061600     117.086314132189     105.609385040000
      7217    9       59.487837199940     115.525163280831     104.050000000000
      7218   10       62.191829794931     117.086314132189     107.168770080000
      7219   11       63.093160666603     115.525163280831     105.609385040000
      7220   12       62.191829794931     117.086314132189     104.050000000000
      7221    1       59.487837199940     118.647464983548     107.168770080000
      7222    2       60.389168061600     120.208615844917     105.609385040000
      7223    3       59.487837199940     118.647464983548     104.050000000000
      7224    4       62.191829794931     120.208615844917     107.168770080000
      7225    5       63.093160666603     118.647464983548     105.609385040000
      7226    6       62.191829794931     120.208615844917     104.050000000000
      7227    7       59.487837199940     121.769766696275     107.168770080000
      7228    8       60.389168061600     123.330917557645     105.609385040000
      7229    9       59.487837199940     121.769766696275     104.050000000000
      7230   10       62.191829794931     123.330917557645     107.168770080000
      7231   11       63.093160666603     121.769766696275     105.609385040000
      7232   12       62.191829794931     123.330917557645     104.050000000000
      7233    1       54.079851999945     124.892068409003     107.168770080000
      7234    2       54.981182861605     126.453219260362     105.609385040000
      7235    3       54.079851999945     124.892068409003     104.050000000000
      7236    4       56.783844594937     126.453219260362     107.168770080000
      7237    5       57.685175466608     124.892068409003     105.609385040000
      7238    6       56.783844594937     126.453219260362     104.050000000000
      7239    7       54.079851999945     128.014370121731     107.168770080000
      7240    8       54.981182861605     129.575520973090     105.609385040000
      7241    9       54.079851999945     128.014370121731     104.050000000000
      7242   10       56.783844594937     129.575520973090     107.168770080000
      7243   11       57.685175466608     128.014370121731     105.609385040000
      7244   12       56.783844594937     129.575520973090     104.050000000000
      7245    1       54.079851999945     131.136671824448     107.168770080000
      7246    2       54.981182861605     132.697822685817     105.609385040000
      7247    3       54.079851999945     131.136671824448     104.050000000000
      7248    4       56.783844594937     132.697822685817     107.168770080000
      7249    5       57.685175466608     131.136671824448     105.609385040000
      7250    6       56.783844594937     132.697822685817     104.050000000000
      7251    7       54.079851999945     134.258973537176     107.168770080000
      7252    8       54.981182861605     135.820124398545     105.609385040000
      7253    9       54.079851999945     134.258973537176     104.050000000000
      7254   10       56.783844594937     135.820124398545     107.168770080000
      7255   11       57.685175466608     134.258973537176     105.609385040000
      7256   12       56.783844594937     135.820124398545     104.050000000000
      7257    1       59.487837199940     124.892068409003     107.168770080000
      7258    2       60.389168061600     126.453219260362     105.609385040000
      7259    3       59.487837199940     124.892068409003     104.050000000000
      7260    4       62.191829794931     126.453219260362     107.168770080000
      7261    5       63.093160666603     124.892068409003     105.609385040000
      7262    6       62.191829794931     126.453219260362     104.050000000000
      7263    7       59.487837199940     128.014370121731     107.168770080000
      7264    8       60.389168061600     129.575520973090     105.609385040000
      7265    9       59.487837199940     128.014370121731     104.050000000000
      7266   10       62.191829794931     129.575520973090     107.168770080000
      7267   11       63.093160666603     128.014370121731     105.609385040000
      7268   12       62.191829794931     129.575520973090     104.050000000000
      7269    1       59.487837199940     131.136671824448     107.168770080000
      7270    2       60.389168061600     132.697822685817     105.609385040000
      7271    3       59.487837199940     131.136671824448     104.050000000000
      7272    4       62.191829794931     132.697822685817     107.168770080000
      7273    5       63.093160666603     131.136671824448     105.609385040000
      7274    6       62.191829794931     132.697822685817     104.050000000000
      7275    7       59.487837199940     134.258973537176     107.168770080000
      7276    8       60.389168061600     135.820124398545     105.609385040000
      7277    9       59.487837199940     134.258973537176     104.050000000000
      7278   10       62.191829794931     135.820124398545     107.168770080000
      7279   11       63.093160666603     134.258973537176     105.609385040000
      7280   12       62.191829794931     135.820124398545     104.050000000000
      7281    1       54.079851999945     137.381275249904     107.168770080000
      7282    2       54.981182861605     138.942426101262     105.609385040000
      7283    3       54.079851999945     137.381275249904     104.050000000000
      7284    4       56.783844594937     138.942426101262     107.168770080000
      7285    5       57.685175466608     137.381275249904     105.609385040000
      7286    6       56.783844594937     138.942426101262     104.050000000000
      7287    7       54.079851999945     140.503576962632     107.168770080000
      7288    8       54.981182861605     142.064727813990     105.609385040000
      7289    9       54.079851999945     140.503576962632     104.050000000000
      7290   10       56.783844594937     142.064727813990     107.168770080000
      7291   11       57.685175466608     140.503576962632     105.609385040000
      7292   12       56.783844594937     142.064727813990     104.050000000000
      7293    1       54.079851999945     143.625878665348     107.168770080000
      7294    2       54.981182861605     145.187029526718     105.609385040000
      7295    3       54.079851999945     143.625878665348     104.050000000000
      7296    4       56.783844594937     145.187029526718     107.168770080000
      7297    5       57.685175466608     143.625878665348     105.609385040000
      7298    6       56.783844594937     145.187029526718     104.050000000000
      7299    7       54.079851999945     146.748180378076     107.168770080000
      7300    8       54.981182861605     148.309331239446     105.609385040000
      7301    9       54.079851999945     146.748180378076     104.050000000000
      7302   10       56.783844594937     148.309331239446     107.168770080000
      7303   11       57.685175466608     146.748180378076     105.609385040000
      7304   12       56.783844594937     148.309331239446     104.050000000000
      7305    1       59.487837199940     137.381275249904     107.168770080000
      7306    2       60.389168061600     138.942426101262     105.609385040000
      7307    3       59.487837199940     137.381275249904     104.050000000000
      7308    4       62.191829794931     138.942426101262     107.168770080000
      7309    5       63.093160666603     137.381275249904     105.609385040000
      7310    6       62.191829794931     138.942426101262     104.050000000000
      7311    7       59.487837199940     140.503576962632     107.168770080000
      7312    8       60.389168061600     142.064727813990     105.609385040000
      7313    9       59.487837199940     140.503576962632     104.050000000000
      7314   10       62.191829794931     142.064727813990     107.168770080000
      7315   11       63.093160666603     140.503576962632     105.609385040000
      7316   12       62.191829794931     142.064727813990     104.050000000000
      7317    1       59.487837199940     143.625878665348     107.168770080000
      7318    2       60.389168061600     145.187029526718     105.609385040000
      7319    3       59.487837199940     143.625878665348     104.050000000000
      7320    4       62.191829794931     145.187029526718     107.168770080000
      7321    5       63.093160666603     143.625878665348     105.609385040000
      7322    6       62.191829794931     145.187029526718     104.050000000000
      7323    7       59.487837199940     146.748180378076     107.168770080000
      7324    8       60.389168061600     148.309331239446     105.609385040000
      7325    9       59.487837199940     146.748180378076     104.050000000000
      7326   10       62.191829794931     148.309331239446     107.168770080000
      7327   11       63.093160666603     146.748180378076     105.609385040000
      7328   12       62.191829794931     148.309331239446     104.050000000000
      7329    1       64.895822399934       0.000000000000     107.168770080000
      7330    2       65.797153261594       1.561150851358     105.609385040000
      7331    3       64.895822399934       0.000000000000     104.050000000000
      7332    4       67.599814994926       1.561150851358     107.168770080000
      7333    5       68.501145866597       0.000000000000     105.609385040000
      7334    6       67.599814994926       1.561150851358     104.050000000000
      7335    7       64.895822399934       3.122301712728     107.168770080000
      7336    8       65.797153261594       4.683452564086     105.609385040000
      7337    9       64.895822399934       3.122301712728     104.050000000000
      7338   10       67.599814994926       4.683452564086     107.168770080000
      7339   11       68.501145866597       3.122301712728     105.609385040000
      7340   12       67.599814994926       4.683452564086     104.050000000000
      7341    1       64.895822399934       6.244603415445     107.168770080000
      7342    2       65.797153261594       7.805754276814     105.609385040000
      7343    3       64.895822399934       6.244603415445     104.050000000000
      7344    4       67.599814994926       7.805754276814     107.168770080000
      7345    5       68.501145866597       6.244603415445     105.609385040000
      7346    6       67.599814994926       7.805754276814     104.050000000000
      7347    7       64.895822399934       9.366905128172     107.168770080000
      7348    8       65.797153261594      10.928055989542     105.609385040000
      7349    9       64.895822399934       9.366905128172     104.050000000000
      7350   10       67.599814994926      10.928055989542     107.168770080000
      7351   11       68.501145866597       9.366905128172     105.609385040000
      7352   12       67.599814994926      10.928055989542     104.050000000000
      7353    1       70.303807599929       0.000000000000     107.168770080000
      7354    2       71.205138461589       1.561150851358     105.609385040000
      7355    3       70.303807599929       0.000000000000     104.050000000000
      7356    4       73.007800194920       1.561150851358     107.168770080000
      7357    5       73.909131066592       0.000000000000     105.609385040000
      7358    6       73.007800194920       1.561150851358     104.050000000000
      7359    7       70.303807599929       3.122301712728     107.168770080000
      7360    8       71.205138461589       4.683452564086     105.609385040000
      7361    9       70.303807599929       3.122301712728     104.050000000000
      7362   10       73.007800194920       4.683452564086     107.168770080000
      7363   11       73.909131066592       3.122301712728     105.609385040000
      7364   12       73.007800194920       4.683452564086     104.050000000000
      7365    1       70.303807599929       6.244603415445     107.168770080000
      7366    2       71.205138461589       7.805754276814     105.609385040000
      7367    3       70.303807599929       6.244603415445     104.050000000000
      7368    4       73.007800194920       7.805754276814     107.168770080000
      7369    5       73.909131066592       6.244603415445     105.609385040000
      7370    6       73.007800194920       7.805754276814     104.050000000000
      7371    7       70.303807599929       9.366905128172     107.168770080000
      7372    8       71.205138461589      10.928055989542     105.609385040000
      7373    9       70.303807599929       9.366905128172     104.050000000000
      7374   10       73.007800194920      10.928055989542     107.168770080000
      7375   11       73.909131066592       9.366905128172     105.609385040000
      7376   12       73.007800194920      10.928055989542     104.050000000000
      7377    1       64.895822399934      12.489206840900     107.168770080000
      7378    2       65.797153261594      14.050357692259     105.609385040000
      7379    3       64.895822399934      12.489206840900     104.050000000000
      7380    4       67.599814994926      14.050357692259     107.168770080000
      7381    5       68.501145866597      12.489206840900     105.609385040000
      7382    6       67.599814994926      14.050357692259     104.050000000000
      7383    7       64.895822399934      15.611508553628     107.168770080000
      7384    8       65.797153261594      17.172659404987     105.609385040000
      7385    9       64.895822399934      15.611508553628     104.050000000000
      7386   10       67.599814994926      17.172659404987     107.168770080000
      7387   11       68.501145866597      15.611508553628     105.609385040000
      7388   12       67.599814994926      17.172659404987     104.050000000000
      7389    1       64.895822399934      18.733810256345     107.168770080000
      7390    2       65.797153261594      20.294961117714     105.609385040000
      7391    3       64.895822399934      18.733810256345     104.050000000000
      7392    4       67.599814994926      20.294961117714     107.168770080000
      7393    5       68.501145866597      18.733810256345     105.609385040000
      7394    6       67.599814994926      20.294961117714     104.050000000000
      7395    7       64.895822399934      21.856111969073     107.168770080000
      7396    8       65.797153261594      23.417262830442     105.609385040000
      7397    9       64.895822399934      21.856111969073     104.050000000000
      7398   10       67.599814994926      23.417262830442     107.168770080000
      7399   11       68.501145866597      21.856111969073     105.609385040000
      7400   12       67.599814994926      23.417262830442     104.050000000000
      7401    1       70.303807599929      12.489206840900     107.168770080000
      7402    2       71.205138461589      14.050357692259     105.609385040000
      7403    3       70.303807599929      12.489206840900     104.050000000000
      7404    4       73.007800194920      14.050357692259     107.168770080000
      7405    5       73.909131066592      12.489206840900     105.609385040000
      7406    6       73.007800194920      14.050357692259     104.050000000000
      7407    7       70.303807599929      15.611508553628     107.168770080000
      7408    8       71.205138461589      17.172659404987     105.609385040000
      7409    9       70.303807599929      15.611508553628     104.050000000000
      7410   10       73.007800194920      17.172659404987     107.168770080000
      7411   11       73.909131066592      15.611508553628     105.609385040000
      7412   12       73.007800194920      17.172659404987     104.050000000000
      7413    1       70.303807599929      18.733810256345     107.168770080000
      7414    2       71.205138461589      20.294961117714     105.609385040000
      7415    3       70.303807599929      18.733810256345     104.050000000000
      7416    4       73.007800194920      20.294961117714     107.168770080000
      7417    5       73.909131066592      18.733810256345     105.609385040000
      7418    6       73.007800194920      20.294961117714     104.050000000000
      7419    7       70.303807599929      21.856111969073     107.168770080000
      7420    8       71.205138461589      23.417262830442     105.609385040000
      7421    9       70.303807599929      21.856111969073     104.050000000000
      7422   10       73.007800194920      23.417262830442     107.168770080000
      7423   11       73.909131066592      21.856111969073     105.609385040000
      7424   12       73.007800194920      23.417262830442     104.050000000000
      7425    1       64.895822399934      24.978413681801     107.168770080000
      7426    2       65.797153261594      26.539564533159     105.609385040000
      7427    3       64.895822399934      24.978413681801     104.050000000000
      7428    4       67.599814994926      26.539564533159     107.168770080000
      7429    5       68.501145866597      24.978413681801     105.609385040000
      7430    6       67.599814994926      26.539564533159     104.050000000000
      7431    7       64.895822399934      28.100715394529     107.168770080000
      7432    8       65.797153261594      29.661866245887     105.609385040000
      7433    9       64.895822399934      28.100715394529     104.050000000000
      7434   10       67.599814994926      29.661866245887     107.168770080000
      7435   11       68.501145866597      28.100715394529     105.609385040000
      7436   12       67.599814994926      29.661866245887     104.050000000000
      7437    1       64.895822399934      31.223017097245     107.168770080000
      7438    2       65.797153261594      32.784167958615     105.609385040000
      7439    3       64.895822399934      31.223017097245     104.050000000000
      7440    4       67.599814994926      32.784167958615     107.168770080000
      7441    5       68.501145866597      31.223017097245     105.609385040000
      7442    6       67.599814994926      32.784167958615     104.050000000000
      7443    7       64.895822399934      34.345318809973     107.168770080000
      7444    8       65.797153261594      35.906469671343     105.609385040000
      7445    9       64.895822399934      34.345318809973     104.050000000000
      7446   10       67.599814994926      35.906469671343     107.168770080000
      7447   11       68.501145866597      34.345318809973     105.609385040000
      7448   12       67.599814994926      35.906469671343     104.050000000000
      7449    1       70.303807599929      24.978413681801     107.168770080000
      7450    2       71.205138461589      26.539564533159     105.609385040000
      7451    3       70.303807599929      24.978413681801     104.050000000000
      7452    4       73.007800194920      26.539564533159     107.168770080000
      7453    5       73.909131066592      24.978413681801     105.609385040000
      7454    6       73.007800194920      26.539564533159     104.050000000000
      7455    7       70.303807599929      28.100715394529     107.168770080000
      7456    8       71.205138461589      29.661866245887     105.609385040000
      7457    9       70.303807599929      28.100715394529     104.050000000000
      7458   10       73.007800194920      29.661866245887     107.168770080000
      7459   11       73.909131066592      28.100715394529     105.609385040000
      7460   12       73.007800194920      29.661866245887     104.050000000000
      7461    1       70.303807599929      31.223017097245     107.168770080000
      7462    2       71.205138461589      32.784167958615     105.609385040000
      7463    3       70.303807599929      31.223017097245     104.050000000000
      7464    4       73.007800194920      32.784167958615     107.168770080000
      7465    5       73.909131066592      31.223017097245     105.609385040000
      7466    6       73.007800194920      32.784167958615     104.050000000000
      7467    7       70.303807599929      34.345318809973     107.168770080000
      7468    8       71.205138461589      35.906469671343     105.609385040000
      7469    9       70.303807599929      34.345318809973     104.050000000000
      7470   10       73.007800194920      35.906469671343     107.168770080000
      7471   11       73.909131066592      34.345318809973     105.609385040000
      7472   12       73.007800194920      35.906469671343     104.050000000000
      7473    1       64.895822399934      37.467620522701     107.168770080000
      7474    2       65.797153261594      39.028771374059     105.609385040000
      7475    3       64.895822399934      37.467620522701     104.050000000000
      7476    4       67.599814994926      39.028771374059     107.168770080000
      7477    5       68.501145866597      37.467620522701     105.609385040000
      7478    6       67.599814994926      39.028771374059     104.050000000000
      7479    7       64.895822399934      40.589922235429     107.168770080000
      7480    8       65.797153261594      42.151073086787     105.609385040000
      7481    9       64.895822399934      40.589922235429     104.050000000000
      7482   10       67.599814994926      42.151073086787     107.168770080000
      7483   11       68.501145866597      40.589922235429     105.609385040000
      7484   12       67.599814994926      42.151073086787     104.050000000000
      7485    1       64.895822399934      43.712223938146     107.168770080000
      7486    2       65.797153261594      45.273374799515     105.609385040000
      7487    3       64.895822399934      43.712223938146     104.050000000000
      7488    4       67.599814994926      45.273374799515     107.168770080000
      7489    5       68.501145866597      43.712223938146     105.609385040000
      7490    6       67.599814994926      45.273374799515     104.050000000000
      7491    7       64.895822399934      46.834525650873     107.168770080000
      7492    8       65.797153261594      48.395676512243     105.609385040000
      7493    9       64.895822399934      46.834525650873     104.050000000000
      7494   10       67.599814994926      48.395676512243     107.168770080000
      7495   11       68.501145866597      46.834525650873     105.609385040000
      7496   12       67.599814994926      48.395676512243     104.050000000000
      7497    1       70.303807599929      37.467620522701     107.168770080000
      7498    2       71.205138461589      39.028771374059     105.609385040000
      7499    3       70.303807599929      37.467620522701     104.050000000000
      7500    4       73.007800194920      39.028771374059     107.168770080000
      7501    5       73.909131066592      37.467620522701     105.609385040000
      7502    6       73.007800194920      39.028771374059     104.050000000000
      7503    7       70.303807599929      40.589922235429     107.168770080000
      7504    8       71.205138461589      42.151073086787     105.609385040000
      7505    9       70.303807599929      40.589922235429     104.050000000000
      7506   10       73.007800194920      42.151073086787     107.168770080000
      7507   11       73.909131066592      40.589922235429     105.609385040000
      7508   12       73.007800194920      42.151073086787     104.050000000000
      7509    1       70.303807599929      43.712223938146     107.168770080000
      7510    2       71.205138461589      45.273374799515     105.609385040000
      7511    3       70.303807599929      43.712223938146     104.050000000000
      7512    4       73.007800194920      45.273374799515     107.168770080000
      7513    5       73.909131066592      43.712223938146     105.609385040000
      7514    6       73.007800194920      45.273374799515     104.050000000000
      7515    7       70.303807599929      46.834525650873     107.168770080000
      7516    8       71.205138461589      48.395676512243     105.609385040000
      7517    9       70.303807599929      46.834525650873     104.050000000000
      7518   10       73.007800194920      48.395676512243     107.168770080000
      7519   11       73.909131066592      46.834525650873     105.609385040000
      7520   12       73.007800194920      48.395676512243     104.050000000000
      7521    1       64.895822399934      49.956827363601     107.168770080000
      7522    2       65.797153261594      51.517978214960     105.609385040000
      7523    3       64.895822399934      49.956827363601     104.050000000000
      7524    4       67.599814994926      51.517978214960     107.168770080000
      7525    5       68.501145866597      49.956827363601     105.609385040000
      7526    6       67.599814994926      51.517978214960     104.050000000000
      7527    7       64.895822399934      53.079129076329     107.168770080000
      7528    8       65.797153261594      54.640279927688     105.609385040000
      7529    9       64.895822399934      53.079129076329     104.050000000000
      7530   10       67.599814994926      54.640279927688     107.168770080000
      7531   11       68.501145866597      53.079129076329     105.609385040000
      7532   12       67.599814994926      54.640279927688     104.050000000000
      7533    1       64.895822399934      56.201430779046     107.168770080000
      7534    2       65.797153261594      57.762581640415     105.609385040000
      7535    3       64.895822399934      56.201430779046     104.050000000000
      7536    4       67.599814994926      57.762581640415     107.168770080000
      7537    5       68.501145866597      56.201430779046     105.609385040000
      7538    6       67.599814994926      57.762581640415     104.050000000000
      7539    7       64.895822399934      59.323732491774     107.168770080000
      7540    8       65.797153261594      60.884883353143     105.609385040000
      7541    9       64.895822399934      59.323732491774     104.050000000000
      7542   10       67.599814994926      60.884883353143     107.168770080000
      7543   11       68.501145866597      59.323732491774     105.609385040000
      7544   12       67.599814994926      60.884883353143     104.050000000000
      7545    1       70.303807599929      49.956827363601     107.168770080000
      7546    2       71.205138461589      51.517978214960     105.609385040000
      7547    3       70.303807599929      49.956827363601     104.050000000000
      7548    4       73.007800194920      51.517978214960     107.168770080000
      7549    5       73.909131066592      49.956827363601     105.609385040000
      7550    6       73.007800194920      51.517978214960     104.050000000000
      7551    7       70.303807599929      53.079129076329     107.168770080000
      7552    8       71.205138461589      54.640279927688     105.609385040000
      7553    9       70.303807599929      53.079129076329     104.050000000000
      7554   10       73.007800194920      54.640279927688     107.168770080000
      7555   11       73.909131066592      53.079129076329     105.609385040000
      7556   12       73.007800194920      54.640279927688     104.050000000000
      7557    1       70.303807599929      56.201430779046     107.168770080000
      7558    2       71.205138461589      57.762581640415     105.609385040000
      7559    3       70.303807599929      56.201430779046     104.050000000000
      7560    4       73.007800194920      57.762581640415     107.168770080000
      7561    5       73.909131066592      56.201430779046     105.609385040000
      7562    6       73.007800194920      57.762581640415     104.050000000000
      7563    7       70.303807599929      59.323732491774     107.168770080000
      7564    8       71.205138461589      60.884883353143     105.609385040000
      7565    9       70.303807599929      59.323732491774     104.050000000000
      7566   10       73.007800194920      60.884883353143     107.168770080000
      7567   11       73.909131066592      59.323732491774     105.609385040000
      7568   12       73.007800194920      60.884883353143     104.050000000000
      7569    1       64.895822399934      62.446034204502     107.168770080000
      7570    2       65.797153261594      64.007185055860     105.609385040000
      7571    3       64.895822399934      62.446034204502     104.050000000000
      7572    4       67.599814994926      64.007185055860     107.168770080000
      7573    5       68.501145866597      62.446034204502     105.609385040000
      7574    6       67.599814994926      64.007185055860     104.050000000000
      7575    7       64.895822399934      65.568335917230     107.168770080000
      7576    8       65.797153261594      67.129486768588     105.609385040000
      7577    9       64.895822399934      65.568335917230     104.050000000000
      7578   10       67.599814994926      67.129486768588     107.168770080000
      7579   11       68.501145866597      65.568335917230     105.609385040000
      7580   12       67.599814994926      67.129486768588     104.050000000000
      7581    1       64.895822399934      68.690637619946     107.168770080000
      7582    2       65.797153261594      70.251788481316     105.609385040000
      7583    3       64.895822399934      68.690637619946     104.050000000000
      7584    4       67.599814994926      70.251788481316     107.168770080000
      7585    5       68.501145866597      68.690637619946     105.609385040000
      7586    6       67.599814994926      70.251788481316     104.050000000000
      7587    7       64.895822399934      71.812939332674     107.168770080000
      7588    8       65.797153261594      73.374090194044     105.609385040000
      7589    9       64.895822399934      71.812939332674     104.050000000000
      7590   10       67.599814994926      73.374090194044     107.168770080000
      7591   11       68.501145866597      71.812939332674     105.609385040000
      7592   12       67.599814994926      73.374090194044     104.050000000000
      7593    1       70.303807599929      62.446034204502     107.168770080000
      7594    2       71.205138461589      64.007185055860     105.609385040000
      7595    3       70.303807599929      62.446034204502     104.050000000000
      7596    4       73.007800194920      64.007185055860     107.168770080000
      7597    5       73.909131066592      62.446034204502     105.609385040000
      7598    6       73.007800194920      64.007185055860     104.050000000000
      7599    7       70.303807599929      65.568335917230     107.168770080000
      7600    8       71.205138461589      67.129486768588     105.609385040000
      7601    9       70.303807599929      65.568335917230     104.050000000000
      7602   10       73.007800194920      67.129486768588     107.168770080000
      7603   11       73.909131066592      65.568335917230     105.609385040000
      7604   12       73.007800194920      67.129486768588     104.050000000000
      7605    1       70.303807599929      68.690637619946     107.168770080000
      7606    2       71.205138461589      70.251788481316     105.609385040000
      7607    3       70.303807599929      68.690637619946     104.050000000000
      7608    4       73.007800194920      70.251788481316     107.168770080000
      7609    5       73.909131066592      68.690637619946     105.609385040000
      7610    6       73.007800194920      70.251788481316     104.050000000000
      7611    7       70.303807599929      71.812939332674     107.168770080000
      7612    8       71.205138461589      73.374090194044     105.609385040000
      7613    9       70.303807599929      71.812939332674     104.050000000000
      7614   10       73.007800194920      73.374090194044     107.168770080000
      7615   11       73.909131066592      71.812939332674     105.609385040000
      7616   12       73.007800194920      73.374090194044     104.050000000000
      7617    1       64.895822399934      74.935241045402     107.168770080000
      7618    2       65.797153261594      76.496391896760     105.609385040000
      7619    3       64.895822399934      74.935241045402     104.050000000000
      7620    4       67.599814994926      76.496391896760     107.168770080000
      7621    5       68.501145866597      74.935241045402     105.609385040000
      7622    6       67.599814994926      76.496391896760     104.050000000000
      7623    7       64.895822399934      78.057542758130     107.168770080000
      7624    8       65.797153261594      79.618693609488     105.609385040000
      7625    9       64.895822399934      78.057542758130     104.050000000000
      7626   10       67.599814994926      79.618693609488     107.168770080000
      7627   11       68.501145866597      78.057542758130     105.609385040000
      7628   12       67.599814994926      79.618693609488     104.050000000000
      7629    1       64.895822399934      81.179844460847     107.168770080000
      7630    2       65.797153261594      82.740995322216     105.609385040000
      7631    3       64.895822399934      81.179844460847     104.050000000000
      7632    4       67.599814994926      82.740995322216     107.168770080000
      7633    5       68.501145866597      81.179844460847     105.609385040000
      7634    6       67.599814994926      82.740995322216     104.050000000000
      7635    7       64.895822399934      84.302146173574     107.168770080000
      7636    8       65.797153261594      85.863297034944     105.609385040000
      7637    9       64.895822399934      84.302146173574     104.050000000000
      7638   10       67.599814994926      85.863297034944     107.168770080000
      7639   11       68.501145866597      84.302146173574     105.609385040000
      7640   12       67.599814994926      85.863297034944     104.050000000000
      7641    1       70.303807599929      74.935241045402     107.168770080000
      7642    2       71.205138461589      76.496391896760     105.609385040000
      7643    3       70.303807599929      74.935241045402     104.050000000000
      7644    4       73.007800194920      76.496391896760     107.168770080000
      7645    5       73.909131066592      74.935241045402     105.609385040000
      7646    6       73.007800194920      76.496391896760     104.050000000000
      7647    7       70.303807599929      78.057542758130     107.168770080000
      7648    8       71.205138461589      79.618693609488     105.609385040000
      7649    9       70.303807599929      78.057542758130     104.050000000000
      7650   10       73.007800194920      79.618693609488     107.168770080000
      7651   11       73.909131066592      78.057542758130     105.609385040000
      7652   12       73.007800194920      79.618693609488     104.050000000000
      7653    1       70.303807599929      81.179844460847     107.168770080000
      7654    2       71.205138461589      82.740995322216     105.609385040000
      7655    3       70.303807599929      81.179844460847     104.050000000000
      7656    4       73.007800194920      82.740995322216     107.168770080000
      7657    5       73.909131066592      81.179844460847     105.609385040000
      7658    6       73.007800194920      82.740995322216     104.050000000000
      7659    7       70.303807599929      84.302146173574     107.168770080000
      7660    8       71.205138461589      85.863297034944     105.609385040000
      7661    9       70.303807599929      84.302146173574     104.050000000000
      7662   10       73.007800194920      85.863297034944     107.168770080000
      7663   11       73.909131066592      84.302146173574     105.609385040000
      7664   12       73.007800194920      85.863297034944     104.050000000000
      7665    1       64.895822399934      87.424447886302     107.168770080000
      7666    2       65.797153261594      88.985598737661     105.609385040000
      7667    3       64.895822399934      87.424447886302     104.050000000000
      7668    4       67.599814994926      88.985598737661     107.168770080000
      7669    5       68.501145866597      87.424447886302     105.609385040000
      7670    6       67.599814994926      88.985598737661     104.050000000000
      7671    7       64.895822399934      90.546749599030     107.168770080000
      7672    8       65.797153261594      92.107900450389     105.609385040000
      7673    9       64.895822399934      90.546749599030     104.050000000000
      7674   10       67.599814994926      92.107900450389     107.168770080000
      7675   11       68.501145866597      90.546749599030     105.609385040000
      7676   12       67.599814994926      92.107900450389     104.050000000000
      7677    1       64.895822399934      93.669051301747     107.168770080000
      7678    2       65.797153261594      95.230202163116     105.609385040000
      7679    3       64.895822399934      93.669051301747     104.050000000000
      7680    4       67.599814994926      95.230202163116     107.168770080000
      7681    5       68.501145866597      93.669051301747     105.609385040000
      7682    6       67.599814994926      95.230202163116     104.050000000000
      7683    7       64.895822399934      96.791353014475     107.168770080000
      7684    8       65.797153261594      98.352503875844     105.609385040000
      7685    9       64.895822399934      96.791353014475     104.050000000000
      7686   10       67.599814994926      98.352503875844     107.168770080000
      7687   11       68.501145866597      96.791353014475     105.609385040000
      7688   12       67.599814994926      98.352503875844     104.050000000000
      7689    1       70.303807599929      87.424447886302     107.168770080000
      7690    2       71.205138461589      88.985598737661     105.609385040000
      7691    3       70.303807599929      87.424447886302     104.050000000000
      7692    4       73.007800194920      88.985598737661     107.168770080000
      7693    5       73.909131066592      87.424447886302     105.609385040000
      7694    6       73.007800194920      88.985598737661     104.050000000000
      7695    7       70.303807599929      90.546749599030     107.168770080000
      7696    8       71.205138461589      92.107900450389     105.609385040000
      7697    9       70.303807599929      90.546749599030     104.050000000000
      7698   10       73.007800194920      92.107900450389     107.168770080000
      7699   11       73.909131066592      90.546749599030     105.609385040000
      7700   12       73.007800194920      92.107900450389     104.050000000000
      7701    1       70.303807599929      93.669051301747     107.168770080000
      7702    2       71.205138461589      95.230202163116     105.609385040000
      7703    3       70.303807599929      93.669051301747     104.050000000000
      7704    4       73.007800194920      95.230202163116     107.168770080000
      7705    5       73.909131066592      93.669051301747     105.609385040000
      7706    6       73.007800194920      95.230202163116     104.050000000000
      7707    7       70.303807599929      96.791353014475     107.168770080000
      7708    8       71.205138461589      98.352503875844     105.609385040000
      7709    9       70.303807599929      96.791353014475     104.050000000000
      7710   10       73.007800194920      98.352503875844     107.168770080000
      7711   11       73.909131066592      96.791353014475     105.609385040000
      7712   12       73.007800194920      98.352503875844     104.050000000000
      7713    1       64.895822399934      99.913654727203     107.168770080000
      7714    2       65.797153261594     101.474805578561     105.609385040000
      7715    3       64.895822399934      99.913654727203     104.050000000000
      7716    4       67.599814994926     101.474805578561     107.168770080000
      7717    5       68.501145866597      99.913654727203     105.609385040000
      7718    6       67.599814994926     101.474805578561     104.050000000000
      7719    7       64.895822399934     103.035956439931     107.168770080000
      7720    8       65.797153261594     104.597107291289     105.609385040000
      7721    9       64.895822399934     103.035956439931     104.050000000000
      7722   10       67.599814994926     104.597107291289     107.168770080000
      7723   11       68.501145866597     103.035956439931     105.609385040000
      7724   12       67.599814994926     104.597107291289     104.050000000000
      7725    1       64.895822399934     106.158258142647     107.168770080000
      7726    2       65.797153261594     107.719409004017     105.609385040000
      7727    3       64.895822399934     106.158258142647     104.050000000000
      7728    4       67.599814994926     107.719409004017     107.168770080000
      7729    5       68.501145866597     106.158258142647     105.609385040000
      7730    6       67.599814994926     107.719409004017     104.050000000000
      7731    7       64.895822399934     109.280559855375     107.168770080000
      7732    8       65.797153261594     110.841710716745     105.609385040000
      7733    9       64.895822399934     109.280559855375     104.050000000000
      7734   10       67.599814994926     110.841710716745     107.168770080000
      7735   11       68.501145866597     109.280559855375     105.609385040000
      7736   12       67.599814994926     110.841710716745     104.050000000000
      7737    1       70.303807599929      99.913654727203     107.168770080000
      7738    2       71.205138461589     101.474805578561     105.609385040000
      7739    3       70.303807599929      99.913654727203     104.050000000000
      7740    4       73.007800194920     101.474805578561     107.168770080000
      7741    5       73.909131066592      99.913654727203     105.609385040000
      7742    6       73.007800194920     101.474805578561     104.050000000000
      7743    7       70.303807599929     103.035956439931     107.168770080000
      7744    8       71.205138461589     104.597107291289     105.609385040000
      7745    9       70.303807599929     103.035956439931     104.050000000000
      7746   10       73.007800194920     104.597107291289     107.168770080000
      7747   11       73.909131066592     103.035956439931     105.609385040000
      7748   12       73.007800194920     104.597107291289     104.050000000000
      7749    1       70.303807599929     106.158258142647     107.168770080000
      7750    2       71.205138461589     107.719409004017     105.609385040000
      7751    3       70.303807599929     106.158258142647     104.050000000000
      7752    4       73.007800194920     107.719409004017     107.168770080000
      7753    5       73.909131066592     106.158258142647     105.609385040000
      7754    6       73.007800194920     107.719409004017     104.050000000000
      7755    7       70.303807599929     109.280559855375     107.168770080000
      7756    8       71.205138461589     110.841710716745     105.609385040000
      7757    9       70.303807599929     109.280559855375     104.050000000000
      7758   10       73.007800194920     110.841710716745     107.168770080000
      7759   11       73.909131066592     109.280559855375     105.609385040000
      7760   12       73.007800194920     110.841710716745     104.050000000000
      7761    1       64.895822399934     112.402861568103     107.168770080000
      7762    2       65.797153261594     113.964012419461     105.609385040000
      7763    3       64.895822399934     112.402861568103     104.050000000000
      7764    4       67.599814994926     113.964012419461     107.168770080000
      7765    5       68.501145866597     112.402861568103     105.609385040000
      7766    6       67.599814994926     113.964012419461     104.050000000000
      7767    7       64.895822399934     115.525163280831     107.168770080000
      7768    8       65.797153261594     117.086314132189     105.609385040000
      7769    9       64.895822399934     115.525163280831     104.050000000000
      7770   10       67.599814994926     117.086314132189     107.168770080000
      7771   11       68.501145866597     115.525163280831     105.609385040000
      7772   12       67.599814994926     117.086314132189     104.050000000000
      7773    1       64.895822399934     118.647464983548     107.168770080000
      7774    2       65.797153261594     120.208615844917     105.609385040000
      7775    3       64.895822399934     118.647464983548     104.050000000000
      7776    4       67.599814994926     120.208615844917     107.168770080000
      7777    5       68.501145866597     118.647464983548     105.609385040000
      7778    6       67.599814994926     120.208615844917     104.050000000000
      7779    7       64.895822399934     121.769766696275     107.168770080000
      7780    8       65.797153261594     123.330917557645     105.609385040000
      7781    9       64.895822399934     121.769766696275     104.050000000000
      7782   10       67.599814994926     123.330917557645     107.168770080000
      7783   11       68.501145866597     121.769766696275     105.609385040000
      7784   12       67.599814994926     123.330917557645     104.050000000000
      7785    1       70.303807599929     112.402861568103     107.168770080000
      7786    2       71.205138461589     113.964012419461     105.609385040000
      7787    3       70.303807599929     112.402861568103     104.050000000000
      7788    4       73.007800194920     113.964012419461     107.168770080000
      7789    5       73.909131066592     112.402861568103     105.609385040000
      7790    6       73.007800194920     113.964012419461     104.050000000000
      7791    7       70.303807599929     115.525163280831     107.168770080000
      7792    8       71.205138461589     117.086314132189     105.609385040000
      7793    9       70.303807599929     115.525163280831     104.050000000000
      7794   10       73.007800194920     117.086314132189     107.168770080000
      7795   11       73.909131066592     115.525163280831     105.609385040000
      7796   12       73.007800194920     117.086314132189     104.050000000000
      7797    1       70.303807599929     118.647464983548     107.168770080000
      7798    2       71.205138461589     120.208615844917     105.609385040000
      7799    3       70.303807599929     118.647464983548     104.050000000000
      7800    4       73.007800194920     120.208615844917     107.168770080000
      7801    5       73.909131066592     118.647464983548     105.609385040000
      7802    6       73.007800194920     120.208615844917     104.050000000000
      7803    7       70.303807599929     121.769766696275     107.168770080000
      7804    8       71.205138461589     123.330917557645     105.609385040000
      7805    9       70.303807599929     121.769766696275     104.050000000000
      7806   10       73.007800194920     123.330917557645     107.168770080000
      7807   11       73.909131066592     121.769766696275     105.609385040000
      7808   12       73.007800194920     123.330917557645     104.050000000000
      7809    1       64.895822399934     124.892068409003     107.168770080000
      7810    2       65.797153261594     126.453219260362     105.609385040000
      7811    3       64.895822399934     124.892068409003     104.050000000000
      7812    4       67.599814994926     126.453219260362     107.168770080000
      7813    5       68.501145866597     124.892068409003     105.609385040000
      7814    6       67.599814994926     126.453219260362     104.050000000000
      7815    7       64.895822399934     128.014370121731     107.168770080000
      7816    8       65.797153261594     129.575520973090     105.609385040000
      7817    9       64.895822399934     128.014370121731     104.050000000000
      7818   10       67.599814994926     129.575520973090     107.168770080000
      7819   11       68.501145866597     128.014370121731     105.609385040000
      7820   12       67.599814994926     129.575520973090     104.050000000000
      7821    1       64.895822399934     131.136671824448     107.168770080000
      7822    2       65.797153261594     132.697822685817     105.609385040000
      7823    3       64.895822399934     131.136671824448     104.050000000000
      7824    4       67.599814994926     132.697822685817     107.168770080000
      7825    5       68.501145866597     131.136671824448     105.609385040000
      7826    6       67.599814994926     132.697822685817     104.050000000000
      7827    7       64.895822399934     134.258973537176     107.168770080000
      7828    8       65.797153261594     135.820124398545     105.609385040000
      7829    9       64.895822399934     134.258973537176     104.050000000000
      7830   10       67.599814994926     135.820124398545     107.168770080000
      7831   11       68.501145866597     134.258973537176     105.609385040000
      7832   12       67.599814994926     135.820124398545     104.050000000000
      7833    1       70.303807599929     124.892068409003     107.168770080000
      7834    2       71.205138461589     126.453219260362     105.609385040000
      7835    3       70.303807599929     124.892068409003     104.050000000000
      7836    4       73.007800194920     126.453219260362     107.168770080000
      7837    5       73.909131066592     124.892068409003     105.609385040000
      7838    6       73.007800194920     126.453219260362     104.050000000000
      7839    7       70.303807599929     128.014370121731     107.168770080000
      7840    8       71.205138461589     129.575520973090     105.609385040000
      7841    9       70.303807599929     128.014370121731     104.050000000000
      7842   10       73.007800194920     129.575520973090     107.168770080000
      7843   11       73.909131066592     128.014370121731     105.609385040000
      7844   12       73.007800194920     129.575520973090     104.050000000000
      7845    1       70.303807599929     131.136671824448     107.168770080000
      7846    2       71.205138461589     132.697822685817     105.609385040000
      7847    3       70.303807599929     131.136671824448     104.050000000000
      7848    4       73.007800194920     132.697822685817     107.168770080000
      7849    5       73.909131066592     131.136671824448     105.609385040000
      7850    6       73.007800194920     132.697822685817     104.050000000000
      7851    7       70.303807599929     134.258973537176     107.168770080000
      7852    8       71.205138461589     135.820124398545     105.609385040000
      7853    9       70.303807599929     134.258973537176     104.050000000000
      7854   10       73.007800194920     135.820124398545     107.168770080000
      7855   11       73.909131066592     134.258973537176     105.609385040000
      7856   12       73.007800194920     135.820124398545     104.050000000000
      7857    1       64.895822399934     137.381275249904     107.168770080000
      7858    2       65.797153261594     138.942426101262     105.609385040000
      7859    3       64.895822399934     137.381275249904     104.050000000000
      7860    4       67.599814994926     138.942426101262     107.168770080000
      7861    5       68.501145866597     137.381275249904     105.609385040000
      7862    6       67.599814994926     138.942426101262     104.050000000000
      7863    7       64.895822399934     140.503576962632     107.168770080000
      7864    8       65.797153261594     142.064727813990     105.609385040000
      7865    9       64.895822399934     140.503576962632     104.050000000000
      7866   10       67.599814994926     142.064727813990     107.168770080000
      7867   11       68.501145866597     140.503576962632     105.609385040000
      7868   12       67.599814994926     142.064727813990     104.050000000000
      7869    1       64.895822399934     143.625878665348     107.168770080000
      7870    2       65.797153261594     145.187029526718     105.609385040000
      7871    3       64.895822399934     143.625878665348     104.050000000000
      7872    4       67.599814994926     145.187029526718     107.168770080000
      7873    5       68.501145866597     143.625878665348     105.609385040000
      7874    6       67.599814994926     145.187029526718     104.050000000000
      7875    7       64.895822399934     146.748180378076     107.168770080000
      7876    8       65.797153261594     148.309331239446     105.609385040000
      7877    9       64.895822399934     146.748180378076     104.050000000000
      7878   10       67.599814994926     148.309331239446     107.168770080000
      7879   11       68.501145866597     146.748180378076     105.609385040000
      7880   12       67.599814994926     148.309331239446     104.050000000000
      7881    1       70.303807599929     137.381275249904     107.168770080000
      7882    2       71.205138461589     138.942426101262     105.609385040000
      7883    3       70.303807599929     137.381275249904     104.050000000000
      7884    4       73.007800194920     138.942426101262     107.168770080000
      7885    5       73.909131066592     137.381275249904     105.609385040000
      7886    6       73.007800194920     138.942426101262     104.050000000000
      7887    7       70.303807599929     140.503576962632     107.168770080000
      7888    8       71.205138461589     142.064727813990     105.609385040000
      7889    9       70.303807599929     140.503576962632     104.050000000000
      7890   10       73.007800194920     142.064727813990     107.168770080000
      7891   11       73.909131066592     140.503576962632     105.609385040000
      7892   12       73.007800194920     142.064727813990     104.050000000000
      7893    1       70.303807599929     143.625878665348     107.168770080000
      7894    2       71.205138461589     145.187029526718     105.609385040000
      7895    3       70.303807599929     143.625878665348     104.050000000000
      7896    4       73.007800194920     145.187029526718     107.168770080000
      7897    5       73.909131066592     143.625878665348     105.609385040000
      7898    6       73.007800194920     145.187029526718     104.050000000000
      7899    7       70.303807599929     146.748180378076     107.168770080000
      7900    8       71.205138461589     148.309331239446     105.609385040000
      7901    9       70.303807599929     146.748180378076     104.050000000000
      7902   10       73.007800194920     148.309331239446     107.168770080000
      7903   11       73.909131066592     146.748180378076     105.609385040000
      7904   12       73.007800194920     148.309331239446     104.050000000000
      7905    1       75.711792799923       0.000000000000     107.168770080000
      7906    2       76.613123661583       1.561150851358     105.609385040000
      7907    3       75.711792799923       0.000000000000     104.050000000000
      7908    4       78.415785394915       1.561150851358     107.168770080000
      7909    5       79.317116266586       0.000000000000     105.609385040000
      7910    6       78.415785394915       1.561150851358     104.050000000000
      7911    7       75.711792799923       3.122301712728     107.168770080000
      7912    8       76.613123661583       4.683452564086     105.609385040000
      7913    9       75.711792799923       3.122301712728     104.050000000000
      7914   10       78.415785394915       4.683452564086     107.168770080000
      7915   11       79.317116266586       3.122301712728     105.609385040000
      7916   12       78.415785394915       4.683452564086     104.050000000000
      7917    1       75.711792799923       6.244603415445     107.168770080000
      7918    2       76.613123661583       7.805754276814     105.609385040000
      7919    3       75.711792799923       6.244603415445     104.050000000000
      7920    4       78.415785394915       7.805754276814     107.168770080000
      7921    5       79.317116266586       6.244603415445     105.609385040000
      7922    6       78.415785394915       7.805754276814     104.050000000000
      7923    7       75.711792799923       9.366905128172     107.168770080000
      7924    8       76.613123661583      10.928055989542     105.609385040000
      7925    9       75.711792799923       9.366905128172     104.050000000000
      7926   10       78.415785394915      10.928055989542     107.168770080000
      7927   11       79.317116266586       9.366905128172     105.609385040000
      7928   12       78.415785394915      10.928055989542     104.050000000000
      7929    1       81.119777999918       0.000000000000     107.168770080000
      7930    2       82.021108861578       1.561150851358     105.609385040000
      7931    3       81.119777999918       0.000000000000     104.050000000000
      7932    4       83.823770594909       1.561150851358     107.168770080000
      7933    5       84.725101466581       0.000000000000     105.609385040000
      7934    6       83.823770594909       1.561150851358     104.050000000000
      7935    7       81.119777999918       3.122301712728     107.168770080000
      7936    8       82.021108861578       4.683452564086     105.609385040000
      7937    9       81.119777999918       3.122301712728     104.050000000000
      7938   10       83.823770594909       4.683452564086     107.168770080000
      7939   11       84.725101466581       3.122301712728     105.609385040000
      7940   12       83.823770594909       4.683452564086     104.050000000000
      7941    1       81.119777999918       6.244603415445     107.168770080000
      7942    2       82.021108861578       7.805754276814     105.609385040000
      7943    3       81.119777999918       6.244603415445     104.050000000000
      7944    4       83.823770594909       7.805754276814     107.168770080000
      7945    5       84.725101466581       6.244603415445     105.609385040000
      7946    6       83.823770594909       7.805754276814     104.050000000000
      7947    7       81.119777999918       9.366905128172     107.168770080000
      7948    8       82.021108861578      10.928055989542     105.609385040000
      7949    9       81.119777999918       9.366905128172     104.050000000000
      7950   10       83.823770594909      10.928055989542     107.168770080000
      7951   11       84.725101466581       9.366905128172     105.609385040000
      7952   12       83.823770594909      10.928055989542     104.050000000000
      7953    1       75.711792799923      12.489206840900     107.168770080000
      7954    2       76.613123661583      14.050357692259     105.609385040000
      7955    3       75.711792799923      12.489206840900     104.050000000000
      7956    4       78.415785394915      14.050357692259     107.168770080000
      7957    5       79.317116266586      12.489206840900     105.609385040000
      7958    6       78.415785394915      14.050357692259     104.050000000000
      7959    7       75.711792799923      15.611508553628     107.168770080000
      7960    8       76.613123661583      17.172659404987     105.609385040000
      7961    9       75.711792799923      15.611508553628     104.050000000000
      7962   10       78.415785394915      17.172659404987     107.168770080000
      7963   11       79.317116266586      15.611508553628     105.609385040000
      7964   12       78.415785394915      17.172659404987     104.050000000000
      7965    1       75.711792799923      18.733810256345     107.168770080000
      7966    2       76.613123661583      20.294961117714     105.609385040000
      7967    3       75.711792799923      18.733810256345     104.050000000000
      7968    4       78.415785394915      20.294961117714     107.168770080000
      7969    5       79.317116266586      18.733810256345     105.609385040000
      7970    6       78.415785394915      20.294961117714     104.050000000000
      7971    7       75.711792799923      21.856111969073     107.168770080000
      7972    8       76.613123661583      23.417262830442     105.609385040000
      7973    9       75.711792799923      21.856111969073     104.050000000000
      7974   10       78.415785394915      23.417262830442     107.168770080000
      7975   11       79.317116266586      21.856111969073     105.609385040000
      7976   12       78.415785394915      23.417262830442     104.050000000000
      7977    1       81.119777999918      12.489206840900     107.168770080000
      7978    2       82.021108861578      14.050357692259     105.609385040000
      7979    3       81.119777999918      12.489206840900     104.050000000000
      7980    4       83.823770594909      14.050357692259     107.168770080000
      7981    5       84.725101466581      12.489206840900     105.609385040000
      7982    6       83.823770594909      14.050357692259     104.050000000000
      7983    7       81.119777999918      15.611508553628     107.168770080000
      7984    8       82.021108861578      17.172659404987     105.609385040000
      7985    9       81.119777999918      15.611508553628     104.050000000000
      7986   10       83.823770594909      17.172659404987     107.168770080000
      7987   11       84.725101466581      15.611508553628     105.609385040000
      7988   12       83.823770594909      17.172659404987     104.050000000000
      7989    1       81.119777999918      18.733810256345     107.168770080000
      7990    2       82.021108861578      20.294961117714     105.609385040000
      7991    3       81.119777999918      18.733810256345     104.050000000000
      7992    4       83.823770594909      20.294961117714     107.168770080000
      7993    5       84.725101466581      18.733810256345     105.609385040000
      7994    6       83.823770594909      20.294961117714     104.050000000000
      7995    7       81.119777999918      21.856111969073     107.168770080000
      7996    8       82.021108861578      23.417262830442     105.609385040000
      7997    9       81.119777999918      21.856111969073     104.050000000000
      7998   10       83.823770594909      23.417262830442     107.168770080000
      7999   11       84.725101466581      21.856111969073     105.609385040000
      8000   12       83.823770594909      23.417262830442     104.050000000000
      8001    1       75.711792799923      24.978413681801     107.168770080000
      8002    2       76.613123661583      26.539564533159     105.609385040000
      8003    3       75.711792799923      24.978413681801     104.050000000000
      8004    4       78.415785394915      26.539564533159     107.168770080000
      8005    5       79.317116266586      24.978413681801     105.609385040000
      8006    6       78.415785394915      26.539564533159     104.050000000000
      8007    7       75.711792799923      28.100715394529     107.168770080000
      8008    8       76.613123661583      29.661866245887     105.609385040000
      8009    9       75.711792799923      28.100715394529     104.050000000000
      8010   10       78.415785394915      29.661866245887     107.168770080000
      8011   11       79.317116266586      28.100715394529     105.609385040000
      8012   12       78.415785394915      29.661866245887     104.050000000000
      8013    1       75.711792799923      31.223017097245     107.168770080000
      8014    2       76.613123661583      32.784167958615     105.609385040000
      8015    3       75.711792799923      31.223017097245     104.050000000000
      8016    4       78.415785394915      32.784167958615     107.168770080000
      8017    5       79.317116266586      31.223017097245     105.609385040000
      8018    6       78.415785394915      32.784167958615     104.050000000000
      8019    7       75.711792799923      34.345318809973     107.168770080000
      8020    8       76.613123661583      35.906469671343     105.609385040000
      8021    9       75.711792799923      34.345318809973     104.050000000000
      8022   10       78.415785394915      35.906469671343     107.168770080000
      8023   11       79.317116266586      34.345318809973     105.609385040000
      8024   12       78.415785394915      35.906469671343     104.050000000000
      8025    1       81.119777999918      24.978413681801     107.168770080000
      8026    2       82.021108861578      26.539564533159     105.609385040000
      8027    3       81.119777999918      24.978413681801     104.050000000000
      8028    4       83.823770594909      26.539564533159     107.168770080000
      8029    5       84.725101466581      24.978413681801     105.609385040000
      8030    6       83.823770594909      26.539564533159     104.050000000000
      8031    7       81.119777999918      28.100715394529     107.168770080000
      8032    8       82.021108861578      29.661866245887     105.609385040000
      8033    9       81.119777999918      28.100715394529     104.050000000000
      8034   10       83.823770594909      29.661866245887     107.168770080000
      8035   11       84.725101466581      28.100715394529     105.609385040000
      8036   12       83.823770594909      29.661866245887     104.050000000000
      8037    1       81.119777999918      31.223017097245     107.168770080000
      8038    2       82.021108861578      32.784167958615     105.609385040000
      8039    3       81.119777999918      31.223017097245     104.050000000000
      8040    4       83.823770594909      32.784167958615     107.168770080000
      8041    5       84.725101466581      31.223017097245     105.609385040000
      8042    6       83.823770594909      32.784167958615     104.050000000000
      8043    7       81.119777999918      34.345318809973     107.168770080000
      8044    8       82.021108861578      35.906469671343     105.609385040000
      8045    9       81.119777999918      34.345318809973     104.050000000000
      8046   10       83.823770594909      35.906469671343     107.168770080000
      8047   11       84.725101466581      34.345318809973     105.609385040000
      8048   12       83.823770594909      35.906469671343     104.050000000000
      8049    1       75.711792799923      37.467620522701     107.168770080000
      8050    2       76.613123661583      39.028771374059     105.609385040000
      8051    3       75.711792799923      37.467620522701     104.050000000000
      8052    4       78.415785394915      39.028771374059     107.168770080000
      8053    5       79.317116266586      37.467620522701     105.609385040000
      8054    6       78.415785394915      39.028771374059     104.050000000000
      8055    7       75.711792799923      40.589922235429     107.168770080000
      8056    8       76.613123661583      42.151073086787     105.609385040000
      8057    9       75.711792799923      40.589922235429     104.050000000000
      8058   10       78.415785394915      42.151073086787     107.168770080000
      8059   11       79.317116266586      40.589922235429     105.609385040000
      8060   12       78.415785394915      42.151073086787     104.050000000000
      8061    1       75.711792799923      43.712223938146     107.168770080000
      8062    2       76.613123661583      45.273374799515     105.609385040000
      8063    3       75.711792799923      43.712223938146     104.050000000000
      8064    4       78.415785394915      45.273374799515     107.168770080000
      8065    5       79.317116266586      43.712223938146     105.609385040000
      8066    6       78.415785394915      45.273374799515     104.050000000000
      8067    7       75.711792799923      46.834525650873     107.168770080000
      8068    8       76.613123661583      48.395676512243     105.609385040000
      8069    9       75.711792799923      46.834525650873     104.050000000000
      8070   10       78.415785394915      48.395676512243     107.168770080000
      8071   11       79.317116266586      46.834525650873     105.609385040000
      8072   12       78.415785394915      48.395676512243     104.050000000000
      8073    1       81.119777999918      37.467620522701     107.168770080000
      8074    2       82.021108861578      39.028771374059     105.609385040000
      8075    3       81.119777999918      37.467620522701     104.050000000000
      8076    4       83.823770594909      39.028771374059     107.168770080000
      8077    5       84.725101466581      37.467620522701     105.609385040000
      8078    6       83.823770594909      39.028771374059     104.050000000000
      8079    7       81.119777999918      40.589922235429     107.168770080000
      8080    8       82.021108861578      42.151073086787     105.609385040000
      8081    9       81.119777999918      40.589922235429     104.050000000000
      8082   10       83.823770594909      42.151073086787     107.168770080000
      8083   11       84.725101466581      40.589922235429     105.609385040000
      8084   12       83.823770594909      42.151073086787     104.050000000000
      8085    1       81.119777999918      43.712223938146     107.168770080000
      8086    2       82.021108861578      45.273374799515     105.609385040000
      8087    3       81.119777999918      43.712223938146     104.050000000000
      8088    4       83.823770594909      45.273374799515     107.168770080000
      8089    5       84.725101466581      43.712223938146     105.609385040000
      8090    6       83.823770594909      45.273374799515     104.050000000000
      8091    7       81.119777999918      46.834525650873     107.168770080000
      8092    8       82.021108861578      48.395676512243     105.609385040000
      8093    9       81.119777999918      46.834525650873     104.050000000000
      8094   10       83.823770594909      48.395676512243     107.168770080000
      8095   11       84.725101466581      46.834525650873     105.609385040000
      8096   12       83.823770594909      48.395676512243     104.050000000000
      8097    1       75.711792799923      49.956827363601     107.168770080000
      8098    2       76.613123661583      51.517978214960     105.609385040000
      8099    3       75.711792799923      49.956827363601     104.050000000000
      8100    4       78.415785394915      51.517978214960     107.168770080000
      8101    5       79.317116266586      49.956827363601     105.609385040000
      8102    6       78.415785394915      51.517978214960     104.050000000000
      8103    7       75.711792799923      53.079129076329     107.168770080000
      8104    8       76.613123661583      54.640279927688     105.609385040000
      8105    9       75.711792799923      53.079129076329     104.050000000000
      8106   10       78.415785394915      54.640279927688     107.168770080000
      8107   11       79.317116266586      53.079129076329     105.609385040000
      8108   12       78.415785394915      54.640279927688     104.050000000000
      8109    1       75.711792799923      56.201430779046     107.168770080000
      8110    2       76.613123661583      57.762581640415     105.609385040000
      8111    3       75.711792799923      56.201430779046     104.050000000000
      8112    4       78.415785394915      57.762581640415     107.168770080000
      8113    5       79.317116266586      56.201430779046     105.609385040000
      8114    6       78.415785394915      57.762581640415     104.050000000000
      8115    7       75.711792799923      59.323732491774     107.168770080000
      8116    8       76.613123661583      60.884883353143     105.609385040000
      8117    9       75.711792799923      59.323732491774     104.050000000000
      8118   10       78.415785394915      60.884883353143     107.168770080000
      8119   11       79.317116266586      59.323732491774     105.609385040000
      8120   12       78.415785394915      60.884883353143     104.050000000000
      8121    1       81.119777999918      49.956827363601     107.168770080000
      8122    2       82.021108861578      51.517978214960     105.609385040000
      8123    3       81.119777999918      49.956827363601     104.050000000000
      8124    4       83.823770594909      51.517978214960     107.168770080000
      8125    5       84.725101466581      49.956827363601     105.609385040000
      8126    6       83.823770594909      51.517978214960     104.050000000000
      8127    7       81.119777999918      53.079129076329     107.168770080000
      8128    8       82.021108861578      54.640279927688     105.609385040000
      8129    9       81.119777999918      53.079129076329     104.050000000000
      8130   10       83.823770594909      54.640279927688     107.168770080000
      8131   11       84.725101466581      53.079129076329     105.609385040000
      8132   12       83.823770594909      54.640279927688     104.050000000000
      8133    1       81.119777999918      56.201430779046     107.168770080000
      8134    2       82.021108861578      57.762581640415     105.609385040000
      8135    3       81.119777999918      56.201430779046     104.050000000000
      8136    4       83.823770594909      57.762581640415     107.168770080000
      8137    5       84.725101466581      56.201430779046     105.609385040000
      8138    6       83.823770594909      57.762581640415     104.050000000000
      8139    7       81.119777999918      59.323732491774     107.168770080000
      8140    8       82.021108861578      60.884883353143     105.609385040000
      8141    9       81.119777999918      59.323732491774     104.050000000000
      8142   10       83.823770594909      60.884883353143     107.168770080000
      8143   11       84.725101466581      59.323732491774     105.609385040000
      8144   12       83.823770594909      60.884883353143     104.050000000000
      8145    1       75.711792799923      62.446034204502     107.168770080000
      8146    2       76.613123661583      64.007185055860     105.609385040000
      8147    3       75.711792799923      62.446034204502     104.050000000000
      8148    4       78.415785394915      64.007185055860     107.168770080000
      8149    5       79.317116266586      62.446034204502     105.609385040000
      8150    6       78.415785394915      64.007185055860     104.050000000000
      8151    7       75.711792799923      65.568335917230     107.168770080000
      8152    8       76.613123661583      67.129486768588     105.609385040000
      8153    9       75.711792799923      65.568335917230     104.050000000000
      8154   10       78.415785394915      67.129486768588     107.168770080000
      8155   11       79.317116266586      65.568335917230     105.609385040000
      8156   12       78.415785394915      67.129486768588     104.050000000000
      8157    1       75.711792799923      68.690637619946     107.168770080000
      8158    2       76.613123661583      70.251788481316     105.609385040000
      8159    3       75.711792799923      68.690637619946     104.050000000000
      8160    4       78.415785394915      70.251788481316     107.168770080000
      8161    5       79.317116266586      68.690637619946     105.609385040000
      8162    6       78.415785394915      70.251788481316     104.050000000000
      8163    7       75.711792799923      71.812939332674     107.168770080000
      8164    8       76.613123661583      73.374090194044     105.609385040000
      8165    9       75.711792799923      71.812939332674     104.050000000000
      8166   10       78.415785394915      73.374090194044     107.168770080000
      8167   11       79.317116266586      71.812939332674     105.609385040000
      8168   12       78.415785394915      73.374090194044     104.050000000000
      8169    1       81.119777999918      62.446034204502     107.168770080000
      8170    2       82.021108861578      64.007185055860     105.609385040000
      8171    3       81.119777999918      62.446034204502     104.050000000000
      8172    4       83.823770594909      64.007185055860     107.168770080000
      8173    5       84.725101466581      62.446034204502     105.609385040000
      8174    6       83.823770594909      64.007185055860     104.050000000000
      8175    7       81.119777999918      65.568335917230     107.168770080000
      8176    8       82.021108861578      67.129486768588     105.609385040000
      8177    9       81.119777999918      65.568335917230     104.050000000000
      8178   10       83.823770594909      67.129486768588     107.168770080000
      8179   11       84.725101466581      65.568335917230     105.609385040000
      8180   12       83.823770594909      67.129486768588     104.050000000000
      8181    1       81.119777999918      68.690637619946     107.168770080000
      8182    2       82.021108861578      70.251788481316     105.609385040000
      8183    3       81.119777999918      68.690637619946     104.050000000000
      8184    4       83.823770594909      70.251788481316     107.168770080000
      8185    5       84.725101466581      68.690637619946     105.609385040000
      8186    6       83.823770594909      70.251788481316     104.050000000000
      8187    7       81.119777999918      71.812939332674     107.168770080000
      8188    8       82.021108861578      73.374090194044     105.609385040000
      8189    9       81.119777999918      71.812939332674     104.050000000000
      8190   10       83.823770594909      73.374090194044     107.168770080000
      8191   11       84.725101466581      71.812939332674     105.609385040000
      8192   12       83.823770594909      73.374090194044     104.050000000000
      8193    1       75.711792799923      74.935241045402     107.168770080000
      8194    2       76.613123661583      76.496391896760     105.609385040000
      8195    3       75.711792799923      74.935241045402     104.050000000000
      8196    4       78.415785394915      76.496391896760     107.168770080000
      8197    5       79.317116266586      74.935241045402     105.609385040000
      8198    6       78.415785394915      76.496391896760     104.050000000000
      8199    7       75.711792799923      78.057542758130     107.168770080000
      8200    8       76.613123661583      79.618693609488     105.609385040000
      8201    9       75.711792799923      78.057542758130     104.050000000000
      8202   10       78.415785394915      79.618693609488     107.168770080000
      8203   11       79.317116266586      78.057542758130     105.609385040000
      8204   12       78.415785394915      79.618693609488     104.050000000000
      8205    1       75.711792799923      81.179844460847     107.168770080000
      8206    2       76.613123661583      82.740995322216     105.609385040000
      8207    3       75.711792799923      81.179844460847     104.050000000000
      8208    4       78.415785394915      82.740995322216     107.168770080000
      8209    5       79.317116266586      81.179844460847     105.609385040000
      8210    6       78.415785394915      82.740995322216     104.050000000000
      8211    7       75.711792799923      84.302146173574     107.168770080000
      8212    8       76.613123661583      85.863297034944     105.609385040000
      8213    9       75.711792799923      84.302146173574     104.050000000000
      8214   10       78.415785394915      85.863297034944     107.168770080000
      8215   11       79.317116266586      84.302146173574     105.609385040000
      8216   12       78.415785394915      85.863297034944     104.050000000000
      8217    1       81.119777999918      74.935241045402     107.168770080000
      8218    2       82.021108861578      76.496391896760     105.609385040000
      8219    3       81.119777999918      74.935241045402     104.050000000000
      8220    4       83.823770594909      76.496391896760     107.168770080000
      8221    5       84.725101466581      74.935241045402     105.609385040000
      8222    6       83.823770594909      76.496391896760     104.050000000000
      8223    7       81.119777999918      78.057542758130     107.168770080000
      8224    8       82.021108861578      79.618693609488     105.609385040000
      8225    9       81.119777999918      78.057542758130     104.050000000000
      8226   10       83.823770594909      79.618693609488     107.168770080000
      8227   11       84.725101466581      78.057542758130     105.609385040000
      8228   12       83.823770594909      79.618693609488     104.050000000000
      8229    1       81.119777999918      81.179844460847     107.168770080000
      8230    2       82.021108861578      82.740995322216     105.609385040000
      8231    3       81.119777999918      81.179844460847     104.050000000000
      8232    4       83.823770594909      82.740995322216     107.168770080000
      8233    5       84.725101466581      81.179844460847     105.609385040000
      8234    6       83.823770594909      82.740995322216     104.050000000000
      8235    7       81.119777999918      84.302146173574     107.168770080000
      8236    8       82.021108861578      85.863297034944     105.609385040000
      8237    9       81.119777999918      84.302146173574     104.050000000000
      8238   10       83.823770594909      85.863297034944     107.168770080000
      8239   11       84.725101466581      84.302146173574     105.609385040000
      8240   12       83.823770594909      85.863297034944     104.050000000000
      8241    1       75.711792799923      87.424447886302     107.168770080000
      8242    2       76.613123661583      88.985598737661     105.609385040000
      8243    3       75.711792799923      87.424447886302     104.050000000000
      8244    4       78.415785394915      88.985598737661     107.168770080000
      8245    5       79.317116266586      87.424447886302     105.609385040000
      8246    6       78.415785394915      88.985598737661     104.050000000000
      8247    7       75.711792799923      90.546749599030     107.168770080000
      8248    8       76.613123661583      92.107900450389     105.609385040000
      8249    9       75.711792799923      90.546749599030     104.050000000000
      8250   10       78.415785394915      92.107900450389     107.168770080000
      8251   11       79.317116266586      90.546749599030     105.609385040000
      8252   12       78.415785394915      92.107900450389     104.050000000000
      8253    1       75.711792799923      93.669051301747     107.168770080000
      8254    2       76.613123661583      95.230202163116     105.609385040000
      8255    3       75.711792799923      93.669051301747     104.050000000000
      8256    4       78.415785394915      95.230202163116     107.168770080000
      8257    5       79.317116266586      93.669051301747     105.609385040000
      8258    6       78.415785394915      95.230202163116     104.050000000000
      8259    7       75.711792799923      96.791353014475     107.168770080000
      8260    8       76.613123661583      98.352503875844     105.609385040000
      8261    9       75.711792799923      96.791353014475     104.050000000000
      8262   10       78.415785394915      98.352503875844     107.168770080000
      8263   11       79.317116266586      96.791353014475     105.609385040000
      8264   12       78.415785394915      98.352503875844     104.050000000000
      8265    1       81.119777999918      87.424447886302     107.168770080000
      8266    2       82.021108861578      88.985598737661     105.609385040000
      8267    3       81.119777999918      87.424447886302     104.050000000000
      8268    4       83.823770594909      88.985598737661     107.168770080000
      8269    5       84.725101466581      87.424447886302     105.609385040000
      8270    6       83.823770594909      88.985598737661     104.050000000000
      8271    7       81.119777999918      90.546749599030     107.168770080000
      8272    8       82.021108861578      92.107900450389     105.609385040000
      8273    9       81.119777999918      90.546749599030     104.050000000000
      8274   10       83.823770594909      92.107900450389     107.168770080000
      8275   11       84.725101466581      90.546749599030     105.609385040000
      8276   12       83.823770594909      92.107900450389     104.050000000000
      8277    1       81.119777999918      93.669051301747     107.168770080000
      8278    2       82.021108861578      95.230202163116     105.609385040000
      8279    3       81.119777999918      93.669051301747     104.050000000000
      8280    4       83.823770594909      95.230202163116     107.168770080000
      8281    5       84.725101466581      93.669051301747     105.609385040000
      8282    6       83.823770594909      95.230202163116     104.050000000000
      8283    7       81.119777999918      96.791353014475     107.168770080000
      8284    8       82.021108861578      98.352503875844     105.609385040000
      8285    9       81.119777999918      96.791353014475     104.050000000000
      8286   10       83.823770594909      98.352503875844     107.168770080000
      8287   11       84.725101466581      96.791353014475     105.609385040000
      8288   12       83.823770594909      98.352503875844     104.050000000000
      8289    1       75.711792799923      99.913654727203     107.168770080000
      8290    2       76.613123661583     101.474805578561     105.609385040000
      8291    3       75.711792799923      99.913654727203     104.050000000000
      8292    4       78.415785394915     101.474805578561     107.168770080000
      8293    5       79.317116266586      99.913654727203     105.609385040000
      8294    6       78.415785394915     101.474805578561     104.050000000000
      8295    7       75.711792799923     103.035956439931     107.168770080000
      8296    8       76.613123661583     104.597107291289     105.609385040000
      8297    9       75.711792799923     103.035956439931     104.050000000000
      8298   10       78.415785394915     104.597107291289     107.168770080000
      8299   11       79.317116266586     103.035956439931     105.609385040000
      8300   12       78.415785394915     104.597107291289     104.050000000000
      8301    1       75.711792799923     106.158258142647     107.168770080000
      8302    2       76.613123661583     107.719409004017     105.609385040000
      8303    3       75.711792799923     106.158258142647     104.050000000000
      8304    4       78.415785394915     107.719409004017     107.168770080000
      8305    5       79.317116266586     106.158258142647     105.609385040000
      8306    6       78.415785394915     107.719409004017     104.050000000000
      8307    7       75.711792799923     109.280559855375     107.168770080000
      8308    8       76.613123661583     110.841710716745     105.609385040000
      8309    9       75.711792799923     109.280559855375     104.050000000000
      8310   10       78.415785394915     110.841710716745     107.168770080000
      8311   11       79.317116266586     109.280559855375     105.609385040000
      8312   12       78.415785394915     110.841710716745     104.050000000000
      8313    1       81.119777999918      99.913654727203     107.168770080000
      8314    2       82.021108861578     101.474805578561     105.609385040000
      8315    3       81.119777999918      99.913654727203     104.050000000000
      8316    4       83.823770594909     101.474805578561     107.168770080000
      8317    5       84.725101466581      99.913654727203     105.609385040000
      8318    6       83.823770594909     101.474805578561     104.050000000000
      8319    7       81.119777999918     103.035956439931     107.168770080000
      8320    8       82.021108861578     104.597107291289     105.609385040000
      8321    9       81.119777999918     103.035956439931     104.050000000000
      8322   10       83.823770594909     104.597107291289     107.168770080000
      8323   11       84.725101466581     103.035956439931     105.609385040000
      8324   12       83.823770594909     104.597107291289     104.050000000000
      8325    1       81.119777999918     106.158258142647     107.168770080000
      8326    2       82.021108861578     107.719409004017     105.609385040000
      8327    3       81.119777999918     106.158258142647     104.050000000000
      8328    4       83.823770594909     107.719409004017     107.168770080000
      8329    5       84.725101466581     106.158258142647     105.609385040000
      8330    6       83.823770594909     107.719409004017     104.050000000000
      8331    7       81.119777999918     109.280559855375     107.168770080000
      8332    8       82.021108861578     110.841710716745     105.609385040000
      8333    9       81.119777999918     109.280559855375     104.050000000000
      8334   10       83.823770594909     110.841710716745     107.168770080000
      8335   11       84.725101466581     109.280559855375     105.609385040000
      8336   12       83.823770594909     110.841710716745     104.050000000000
      8337    1       75.711792799923     112.402861568103     107.168770080000
      8338    2       76.613123661583     113.964012419461     105.609385040000
      8339    3       75.711792799923     112.402861568103     104.050000000000
      8340    4       78.415785394915     113.964012419461     107.168770080000
      8341    5       79.317116266586     112.402861568103     105.609385040000
      8342    6       78.415785394915     113.964012419461     104.050000000000
      8343    7       75.711792799923     115.525163280831     107.168770080000
      8344    8       76.613123661583     117.086314132189     105.609385040000
      8345    9       75.711792799923     115.525163280831     104.050000000000
      8346   10       78.415785394915     117.086314132189     107.168770080000
      8347   11       79.317116266586     115.525163280831     105.609385040000
      8348   12       78.415785394915     117.086314132189     104.050000000000
      8349    1       75.711792799923     118.647464983548     107.168770080000
      8350    2       76.613123661583     120.208615844917     105.609385040000
      8351    3       75.711792799923     118.647464983548     104.050000000000
      8352    4       78.415785394915     120.208615844917     107.168770080000
      8353    5       79.317116266586     118.647464983548     105.609385040000
      8354    6       78.415785394915     120.208615844917     104.050000000000
      8355    7       75.711792799923     121.769766696275     107.168770080000
      8356    8       76.613123661583     123.330917557645     105.609385040000
      8357    9       75.711792799923     121.769766696275     104.050000000000
      8358   10       78.415785394915     123.330917557645     107.168770080000
      8359   11       79.317116266586     121.769766696275     105.609385040000
      8360   12       78.415785394915     123.330917557645     104.050000000000
      8361    1       81.119777999918     112.402861568103     107.168770080000
      8362    2       82.021108861578     113.964012419461     105.609385040000
      8363    3       81.119777999918     112.402861568103     104.050000000000
      8364    4       83.823770594909     113.964012419461     107.168770080000
      8365    5       84.725101466581     112.402861568103     105.609385040000
      8366    6       83.823770594909     113.964012419461     104.050000000000
      8367    7       81.119777999918     115.525163280831     107.168770080000
      8368    8       82.021108861578     117.086314132189     105.609385040000
      8369    9       81.119777999918     115.525163280831     104.050000000000
      8370   10       83.823770594909     117.086314132189     107.168770080000
      8371   11       84.725101466581     115.525163280831     105.609385040000
      8372   12       83.823770594909     117.086314132189     104.050000000000
      8373    1       81.119777999918     118.647464983548     107.168770080000
      8374    2       82.021108861578     120.208615844917     105.609385040000
      8375    3       81.119777999918     118.647464983548     104.050000000000
      8376    4       83.823770594909     120.208615844917     107.168770080000
      8377    5       84.725101466581     118.647464983548     105.609385040000
      8378    6       83.823770594909     120.208615844917     104.050000000000
      8379    7       81.119777999918     121.769766696275     107.168770080000
      8380    8       82.021108861578     123.330917557645     105.609385040000
      8381    9       81.119777999918     121.769766696275     104.050000000000
      8382   10       83.823770594909     123.330917557645     107.168770080000
      8383   11       84.725101466581     121.769766696275     105.609385040000
      8384   12       83.823770594909     123.330917557645     104.050000000000
      8385    1       75.711792799923     124.892068409003     107.168770080000
      8386    2       76.613123661583     126.453219260362     105.609385040000
      8387    3       75.711792799923     124.892068409003     104.050000000000
      8388    4       78.415785394915     126.453219260362     107.168770080000
      8389    5       79.317116266586     124.892068409003     105.609385040000
      8390    6       78.415785394915     126.453219260362     104.050000000000
      8391    7       75.711792799923     128.014370121731     107.168770080000
      8392    8       76.613123661583     129.575520973090     105.609385040000
      8393    9       75.711792799923     128.014370121731     104.050000000000
      8394   10       78.415785394915     129.575520973090     107.168770080000
      8395   11       79.317116266586     128.014370121731     105.609385040000
      8396   12       78.415785394915     129.575520973090     104.050000000000
      8397    1       75.711792799923     131.136671824448     107.168770080000
      8398    2       76.613123661583     132.697822685817     105.609385040000
      8399    3       75.711792799923     131.136671824448     104.050000000000
      8400    4       78.415785394915     132.697822685817     107.168770080000
      8401    5       79.317116266586     131.136671824448     105.609385040000
      8402    6       78.415785394915     132.697822685817     104.050000000000
      8403    7       75.711792799923     134.258973537176     107.168770080000
      8404    8       76.613123661583     135.820124398545     105.609385040000
      8405    9       75.711792799923     134.258973537176     104.050000000000
      8406   10       78.415785394915     135.820124398545     107.168770080000
      8407   11       79.317116266586     134.258973537176     105.609385040000
      8408   12       78.415785394915     135.820124398545     104.050000000000
      8409    1       81.119777999918     124.892068409003     107.168770080000
      8410    2       82.021108861578     126.453219260362     105.609385040000
      8411    3       81.119777999918     124.892068409003     104.050000000000
      8412    4       83.823770594909     126.453219260362     107.168770080000
      8413    5       84.725101466581     124.892068409003     105.609385040000
      8414    6       83.823770594909     126.453219260362     104.050000000000
      8415    7       81.119777999918     128.014370121731     107.168770080000
      8416    8       82.021108861578     129.575520973090     105.609385040000
      8417    9       81.119777999918     128.014370121731     104.050000000000
      8418   10       83.823770594909     129.575520973090     107.168770080000
      8419   11       84.725101466581     128.014370121731     105.609385040000
      8420   12       83.823770594909     129.575520973090     104.050000000000
      8421    1       81.119777999918     131.136671824448     107.168770080000
      8422    2       82.021108861578     132.697822685817     105.609385040000
      8423    3       81.119777999918     131.136671824448     104.050000000000
      8424    4       83.823770594909     132.697822685817     107.168770080000
      8425    5       84.725101466581     131.136671824448     105.609385040000
      8426    6       83.823770594909     132.697822685817     104.050000000000
      8427    7       81.119777999918     134.258973537176     107.168770080000
      8428    8       82.021108861578     135.820124398545     105.609385040000
      8429    9       81.119777999918     134.258973537176     104.050000000000
      8430   10       83.823770594909     135.820124398545     107.168770080000
      8431   11       84.725101466581     134.258973537176     105.609385040000
      8432   12       83.823770594909     135.820124398545     104.050000000000
      8433    1       75.711792799923     137.381275249904     107.168770080000
      8434    2       76.613123661583     138.942426101262     105.609385040000
      8435    3       75.711792799923     137.381275249904     104.050000000000
      8436    4       78.415785394915     138.942426101262     107.168770080000
      8437    5       79.317116266586     137.381275249904     105.609385040000
      8438    6       78.415785394915     138.942426101262     104.050000000000
      8439    7       75.711792799923     140.503576962632     107.168770080000
      8440    8       76.613123661583     142.064727813990     105.609385040000
      8441    9       75.711792799923     140.503576962632     104.050000000000
      8442   10       78.415785394915     142.064727813990     107.168770080000
      8443   11       79.317116266586     140.503576962632     105.609385040000
      8444   12       78.415785394915     142.064727813990     104.050000000000
      8445    1       75.711792799923     143.625878665348     107.168770080000
      8446    2       76.613123661583     145.187029526718     105.609385040000
      8447    3       75.711792799923     143.625878665348     104.050000000000
      8448    4       78.415785394915     145.187029526718     107.168770080000
      8449    5       79.317116266586     143.625878665348     105.609385040000
      8450    6       78.415785394915     145.187029526718     104.050000000000
      8451    7       75.711792799923     146.748180378076     107.168770080000
      8452    8       76.613123661583     148.309331239446     105.609385040000
      8453    9       75.711792799923     146.748180378076     104.050000000000
      8454   10       78.415785394915     148.309331239446     107.168770080000
      8455   11       79.317116266586     146.748180378076     105.609385040000
      8456   12       78.415785394915     148.309331239446     104.050000000000
      8457    1       81.119777999918     137.381275249904     107.168770080000
      8458    2       82.021108861578     138.942426101262     105.609385040000
      8459    3       81.119777999918     137.381275249904     104.050000000000
      8460    4       83.823770594909     138.942426101262     107.168770080000
      8461    5       84.725101466581     137.381275249904     105.609385040000
      8462    6       83.823770594909     138.942426101262     104.050000000000
      8463    7       81.119777999918     140.503576962632     107.168770080000
      8464    8       82.021108861578     142.064727813990     105.609385040000
      8465    9       81.119777999918     140.503576962632     104.050000000000
      8466   10       83.823770594909     142.064727813990     107.168770080000
      8467   11       84.725101466581     140.503576962632     105.609385040000
      8468   12       83.823770594909     142.064727813990     104.050000000000
      8469    1       81.119777999918     143.625878665348     107.168770080000
      8470    2       82.021108861578     145.187029526718     105.609385040000
      8471    3       81.119777999918     143.625878665348     104.050000000000
      8472    4       83.823770594909     145.187029526718     107.168770080000
      8473    5       84.725101466581     143.625878665348     105.609385040000
      8474    6       83.823770594909     145.187029526718     104.050000000000
      8475    7       81.119777999918     146.748180378076     107.168770080000
      8476    8       82.021108861578     148.309331239446     105.609385040000
      8477    9       81.119777999918     146.748180378076     104.050000000000
      8478   10       83.823770594909     148.309331239446     107.168770080000
      8479   11       84.725101466581     146.748180378076     105.609385040000
      8480   12       83.823770594909     148.309331239446     104.050000000000
      8481    1       86.527763199912       0.000000000000     107.168770080000
      8482    2       87.429094061572       1.561150851358     105.609385040000
      8483    3       86.527763199912       0.000000000000     104.050000000000
      8484    4       89.231755794904       1.561150851358     107.168770080000
      8485    5       90.133086666575       0.000000000000     105.609385040000
      8486    6       89.231755794904       1.561150851358     104.050000000000
      8487    7       86.527763199912       3.122301712728     107.168770080000
      8488    8       87.429094061572       4.683452564086     105.609385040000
      8489    9       86.527763199912       3.122301712728     104.050000000000
      8490   10       89.231755794904       4.683452564086     107.168770080000
      8491   11       90.133086666575       3.122301712728     105.609385040000
      8492   12       89.231755794904       4.683452564086     104.050000000000
      8493    1       86.527763199912       6.244603415445     107.168770080000
      8494    2       87.429094061572       7.805754276814     105.609385040000
      8495    3       86.527763199912       6.244603415445     104.050000000000
      8496    4       89.231755794904       7.805754276814     107.168770080000
      8497    5       90.133086666575       6.244603415445     105.609385040000
      8498    6       89.231755794904       7.805754276814     104.050000000000
      8499    7       86.527763199912       9.366905128172     107.168770080000
      8500    8       87.429094061572      10.928055989542     105.609385040000
      8501    9       86.527763199912       9.366905128172     104.050000000000
      8502   10       89.231755794904      10.928055989542     107.168770080000
      8503   11       90.133086666575       9.366905128172     105.609385040000
      8504   12       89.231755794904      10.928055989542     104.050000000000
      8505    1       91.935748399907       0.000000000000     107.168770080000
      8506    2       92.837079261567       1.561150851358     105.609385040000
      8507    3       91.935748399907       0.000000000000     104.050000000000
      8508    4       94.639740994898       1.561150851358     107.168770080000
      8509    5       95.541071866570       0.000000000000     105.609385040000
      8510    6       94.639740994898       1.561150851358     104.050000000000
      8511    7       91.935748399907       3.122301712728     107.168770080000
      8512    8       92.837079261567       4.683452564086     105.609385040000
      8513    9       91.935748399907       3.122301712728     104.050000000000
      8514   10       94.639740994898       4.683452564086     107.168770080000
      8515   11       95.541071866570       3.122301712728     105.609385040000
      8516   12       94.639740994898       4.683452564086     104.050000000000
      8517    1       91.935748399907       6.244603415445     107.168770080000
      8518    2       92.837079261567       7.805754276814     105.609385040000
      8519    3       91.935748399907       6.244603415445     104.050000000000
      8520    4       94.639740994898       7.805754276814     107.168770080000
      8521    5       95.541071866570       6.244603415445     105.609385040000
      8522    6       94.639740994898       7.805754276814     104.050000000000
      8523    7       91.935748399907       9.366905128172     107.168770080000
      8524    8       92.837079261567      10.928055989542     105.609385040000
      8525    9       91.935748399907       9.366905128172     104.050000000000
      8526   10       94.639740994898      10.928055989542     107.168770080000
      8527   11       95.541071866570       9.366905128172     105.609385040000
      8528   12       94.639740994898      10.928055989542     104.050000000000
      8529    1       86.527763199912      12.489206840900     107.168770080000
      8530    2       87.429094061572      14.050357692259     105.609385040000
      8531    3       86.527763199912      12.489206840900     104.050000000000
      8532    4       89.231755794904      14.050357692259     107.168770080000
      8533    5       90.133086666575      12.489206840900     105.609385040000
      8534    6       89.231755794904      14.050357692259     104.050000000000
      8535    7       86.527763199912      15.611508553628     107.168770080000
      8536    8       87.429094061572      17.172659404987     105.609385040000
      8537    9       86.527763199912      15.611508553628     104.050000000000
      8538   10       89.231755794904      17.172659404987     107.168770080000
      8539   11       90.133086666575      15.611508553628     105.609385040000
      8540   12       89.231755794904      17.172659404987     104.050000000000
      8541    1       86.527763199912      18.733810256345     107.168770080000
      8542    2       87.429094061572      20.294961117714     105.609385040000
      8543    3       86.527763199912      18.733810256345     104.050000000000
      8544    4       89.231755794904      20.294961117714     107.168770080000
      8545    5       90.133086666575      18.733810256345     105.609385040000
      8546    6       89.231755794904      20.294961117714     104.050000000000
      8547    7       86.527763199912      21.856111969073     107.168770080000
      8548    8       87.429094061572      23.417262830442     105.609385040000
      8549    9       86.527763199912      21.856111969073     104.050000000000
      8550   10       89.231755794904      23.417262830442     107.168770080000
      8551   11       90.133086666575      21.856111969073     105.609385040000
      8552   12       89.231755794904      23.417262830442     104.050000000000
      8553    1       91.935748399907      12.489206840900     107.168770080000
      8554    2       92.837079261567      14.050357692259     105.609385040000
      8555    3       91.935748399907      12.489206840900     104.050000000000
      8556    4       94.639740994898      14.050357692259     107.168770080000
      8557    5       95.541071866570      12.489206840900     105.609385040000
      8558    6       94.639740994898      14.050357692259     104.050000000000
      8559    7       91.935748399907      15.611508553628     107.168770080000
      8560    8       92.837079261567      17.172659404987     105.609385040000
      8561    9       91.935748399907      15.611508553628     104.050000000000
      8562   10       94.639740994898      17.172659404987     107.168770080000
      8563   11       95.541071866570      15.611508553628     105.609385040000
      8564   12       94.639740994898      17.172659404987     104.050000000000
      8565    1       91.935748399907      18.733810256345     107.168770080000
      8566    2       92.837079261567      20.294961117714     105.609385040000
      8567    3       91.935748399907      18.733810256345     104.050000000000
      8568    4       94.639740994898      20.294961117714     107.168770080000
      8569    5       95.541071866570      18.733810256345     105.609385040000
      8570    6       94.639740994898      20.294961117714     104.050000000000
      8571    7       91.935748399907      21.856111969073     107.168770080000
      8572    8       92.837079261567      23.417262830442     105.609385040000
      8573    9       91.935748399907      21.856111969073     104.050000000000
      8574   10       94.639740994898      23.417262830442     107.168770080000
      8575   11       95.541071866570      21.856111969073     105.609385040000
      8576   12       94.639740994898      23.417262830442     104.050000000000
      8577    1       86.527763199912      24.978413681801     107.168770080000
      8578    2       87.429094061572      26.539564533159     105.609385040000
      8579    3       86.527763199912      24.978413681801     104.050000000000
      8580    4       89.231755794904      26.539564533159     107.168770080000
      8581    5       90.133086666575      24.978413681801     105.609385040000
      8582    6       89.231755794904      26.539564533159     104.050000000000
      8583    7       86.527763199912      28.100715394529     107.168770080000
      8584    8       87.429094061572      29.661866245887     105.609385040000
      8585    9       86.527763199912      28.100715394529     104.050000000000
      8586   10       89.231755794904      29.661866245887     107.168770080000
      8587   11       90.133086666575      28.100715394529     105.609385040000
      8588   12       89.231755794904      29.661866245887     104.050000000000
      8589    1       86.527763199912      31.223017097245     107.168770080000
      8590    2       87.429094061572      32.784167958615     105.609385040000
      8591    3       86.527763199912      31.223017097245     104.050000000000
      8592    4       89.231755794904      32.784167958615     107.168770080000
      8593    5       90.133086666575      31.223017097245     105.609385040000
      8594    6       89.231755794904      32.784167958615     104.050000000000
      8595    7       86.527763199912      34.345318809973     107.168770080000
      8596    8       87.429094061572      35.906469671343     105.609385040000
      8597    9       86.527763199912      34.345318809973     104.050000000000
      8598   10       89.231755794904      35.906469671343     107.168770080000
      8599   11       90.133086666575      34.345318809973     105.609385040000
      8600   12       89.231755794904      35.906469671343     104.050000000000
      8601    1       91.935748399907      24.978413681801     107.168770080000
      8602    2       92.837079261567      26.539564533159     105.609385040000
      8603    3       91.935748399907      24.978413681801     104.050000000000
      8604    4       94.639740994898      26.539564533159     107.168770080000
      8605    5       95.541071866570      24.978413681801     105.609385040000
      8606    6       94.639740994898      26.539564533159     104.050000000000
      8607    7       91.935748399907      28.100715394529     107.168770080000
      8608    8       92.837079261567      29.661866245887     105.609385040000
      8609    9       91.935748399907      28.100715394529     104.050000000000
      8610   10       94.639740994898      29.661866245887     107.168770080000
      8611   11       95.541071866570      28.100715394529     105.609385040000
      8612   12       94.639740994898      29.661866245887     104.050000000000
      8613    1       91.935748399907      31.223017097245     107.168770080000
      8614    2       92.837079261567      32.784167958615     105.609385040000
      8615    3       91.935748399907      31.223017097245     104.050000000000
      8616    4       94.639740994898      32.784167958615     107.168770080000
      8617    5       95.541071866570      31.223017097245     105.609385040000
      8618    6       94.639740994898      32.784167958615     104.050000000000
      8619    7       91.935748399907      34.345318809973     107.168770080000
      8620    8       92.837079261567      35.906469671343     105.609385040000
      8621    9       91.935748399907      34.345318809973     104.050000000000
      8622   10       94.639740994898      35.906469671343     107.168770080000
      8623   11       95.541071866570      34.345318809973     105.609385040000
      8624   12       94.639740994898      35.906469671343     104.050000000000
      8625    1       86.527763199912      37.467620522701     107.168770080000
      8626    2       87.429094061572      39.028771374059     105.609385040000
      8627    3       86.527763199912      37.467620522701     104.050000000000
      8628    4       89.231755794904      39.028771374059     107.168770080000
      8629    5       90.133086666575      37.467620522701     105.609385040000
      8630    6       89.231755794904      39.028771374059     104.050000000000
      8631    7       86.527763199912      40.589922235429     107.168770080000
      8632    8       87.429094061572      42.151073086787     105.609385040000
      8633    9       86.527763199912      40.589922235429     104.050000000000
      8634   10       89.231755794904      42.151073086787     107.168770080000
      8635   11       90.133086666575      40.589922235429     105.609385040000
      8636   12       89.231755794904      42.151073086787     104.050000000000
      8637    1       86.527763199912      43.712223938146     107.168770080000
      8638    2       87.429094061572      45.273374799515     105.609385040000
      8639    3       86.527763199912      43.712223938146     104.050000000000
      8640    4       89.231755794904      45.273374799515     107.168770080000
      8641    5       90.133086666575      43.712223938146     105.609385040000
      8642    6       89.231755794904      45.273374799515     104.050000000000
      8643    7       86.527763199912      46.834525650873     107.168770080000
      8644    8       87.429094061572      48.395676512243     105.609385040000
      8645    9       86.527763199912      46.834525650873     104.050000000000
      8646   10       89.231755794904      48.395676512243     107.168770080000
      8647   11       90.133086666575      46.834525650873     105.609385040000
      8648   12       89.231755794904      48.395676512243     104.050000000000
      8649    1       91.935748399907      37.467620522701     107.168770080000
      8650    2       92.837079261567      39.028771374059     105.609385040000
      8651    3       91.935748399907      37.467620522701     104.050000000000
      8652    4       94.639740994898      39.028771374059     107.168770080000
      8653    5       95.541071866570      37.467620522701     105.609385040000
      8654    6       94.639740994898      39.028771374059     104.050000000000
      8655    7       91.935748399907      40.589922235429     107.168770080000
      8656    8       92.837079261567      42.151073086787     105.609385040000
      8657    9       91.935748399907      40.589922235429     104.050000000000
      8658   10       94.639740994898      42.151073086787     107.168770080000
      8659   11       95.541071866570      40.589922235429     105.609385040000
      8660   12       94.639740994898      42.151073086787     104.050000000000
      8661    1       91.935748399907      43.712223938146     107.168770080000
      8662    2       92.837079261567      45.273374799515     105.609385040000
      8663    3       91.935748399907      43.712223938146     104.050000000000
      8664    4       94.639740994898      45.273374799515     107.168770080000
      8665    5       95.541071866570      43.712223938146     105.609385040000
      8666    6       94.639740994898      45.273374799515     104.050000000000
      8667    7       91.935748399907      46.834525650873     107.168770080000
      8668    8       92.837079261567      48.395676512243     105.609385040000
      8669    9       91.935748399907      46.834525650873     104.050000000000
      8670   10       94.639740994898      48.395676512243     107.168770080000
      8671   11       95.541071866570      46.834525650873     105.609385040000
      8672   12       94.639740994898      48.395676512243     104.050000000000
      8673    1       86.527763199912      49.956827363601     107.168770080000
      8674    2       87.429094061572      51.517978214960     105.609385040000
      8675    3       86.527763199912      49.956827363601     104.050000000000
      8676    4       89.231755794904      51.517978214960     107.168770080000
      8677    5       90.133086666575      49.956827363601     105.609385040000
      8678    6       89.231755794904      51.517978214960     104.050000000000
      8679    7       86.527763199912      53.079129076329     107.168770080000
      8680    8       87.429094061572      54.640279927688     105.609385040000
      8681    9       86.527763199912      53.079129076329     104.050000000000
      8682   10       89.231755794904      54.640279927688     107.168770080000
      8683   11       90.133086666575      53.079129076329     105.609385040000
      8684   12       89.231755794904      54.640279927688     104.050000000000
      8685    1       86.527763199912      56.201430779046     107.168770080000
      8686    2       87.429094061572      57.762581640415     105.609385040000
      8687    3       86.527763199912      56.201430779046     104.050000000000
      8688    4       89.231755794904      57.762581640415     107.168770080000
      8689    5       90.133086666575      56.201430779046     105.609385040000
      8690    6       89.231755794904      57.762581640415     104.050000000000
      8691    7       86.527763199912      59.323732491774     107.168770080000
      8692    8       87.429094061572      60.884883353143     105.609385040000
      8693    9       86.527763199912      59.323732491774     104.050000000000
      8694   10       89.231755794904      60.884883353143     107.168770080000
      8695   11       90.133086666575      59.323732491774     105.609385040000
      8696   12       89.231755794904      60.884883353143     104.050000000000
      8697    1       91.935748399907      49.956827363601     107.168770080000
      8698    2       92.837079261567      51.517978214960     105.609385040000
      8699    3       91.935748399907      49.956827363601     104.050000000000
      8700    4       94.639740994898      51.517978214960     107.168770080000
      8701    5       95.541071866570      49.956827363601     105.609385040000
      8702    6       94.639740994898      51.517978214960     104.050000000000
      8703    7       91.935748399907      53.079129076329     107.168770080000
      8704    8       92.837079261567      54.640279927688     105.609385040000
      8705    9       91.935748399907      53.079129076329     104.050000000000
      8706   10       94.639740994898      54.640279927688     107.168770080000
      8707   11       95.541071866570      53.079129076329     105.609385040000
      8708   12       94.639740994898      54.640279927688     104.050000000000
      8709    1       91.935748399907      56.201430779046     107.168770080000
      8710    2       92.837079261567      57.762581640415     105.609385040000
      8711    3       91.935748399907      56.201430779046     104.050000000000
      8712    4       94.639740994898      57.762581640415     107.168770080000
      8713    5       95.541071866570      56.201430779046     105.609385040000
      8714    6       94.639740994898      57.762581640415     104.050000000000
      8715    7       91.935748399907      59.323732491774     107.168770080000
      8716    8       92.837079261567      60.884883353143     105.609385040000
      8717    9       91.935748399907      59.323732491774     104.050000000000
      8718   10       94.639740994898      60.884883353143     107.168770080000
      8719   11       95.541071866570      59.323732491774     105.609385040000
      8720   12       94.639740994898      60.884883353143     104.050000000000
      8721    1       86.527763199912      62.446034204502     107.168770080000
      8722    2       87.429094061572      64.007185055860     105.609385040000
      8723    3       86.527763199912      62.446034204502     104.050000000000
      8724    4       89.231755794904      64.007185055860     107.168770080000
      8725    5       90.133086666575      62.446034204502     105.609385040000
      8726    6       89.231755794904      64.007185055860     104.050000000000
      8727    7       86.527763199912      65.568335917230     107.168770080000
      8728    8       87.429094061572      67.129486768588     105.609385040000
      8729    9       86.527763199912      65.568335917230     104.050000000000
      8730   10       89.231755794904      67.129486768588     107.168770080000
      8731   11       90.133086666575      65.568335917230     105.609385040000
      8732   12       89.231755794904      67.129486768588     104.050000000000
      8733    1       86.527763199912      68.690637619946     107.168770080000
      8734    2       87.429094061572      70.251788481316     105.609385040000
      8735    3       86.527763199912      68.690637619946     104.050000000000
      8736    4       89.231755794904      70.251788481316     107.168770080000
      8737    5       90.133086666575      68.690637619946     105.609385040000
      8738    6       89.231755794904      70.251788481316     104.050000000000
      8739    7       86.527763199912      71.812939332674     107.168770080000
      8740    8       87.429094061572      73.374090194044     105.609385040000
      8741    9       86.527763199912      71.812939332674     104.050000000000
      8742   10       89.231755794904      73.374090194044     107.168770080000
      8743   11       90.133086666575      71.812939332674     105.609385040000
      8744   12       89.231755794904      73.374090194044     104.050000000000
      8745    1       91.935748399907      62.446034204502     107.168770080000
      8746    2       92.837079261567      64.007185055860     105.609385040000
      8747    3       91.935748399907      62.446034204502     104.050000000000
      8748    4       94.639740994898      64.007185055860     107.168770080000
      8749    5       95.541071866570      62.446034204502     105.609385040000
      8750    6       94.639740994898      64.007185055860     104.050000000000
      8751    7       91.935748399907      65.568335917230     107.168770080000
      8752    8       92.837079261567      67.129486768588     105.609385040000
      8753    9       91.935748399907      65.568335917230     104.050000000000
      8754   10       94.639740994898      67.129486768588     107.168770080000
      8755   11       95.541071866570      65.568335917230     105.609385040000
      8756   12       94.639740994898      67.129486768588     104.050000000000
      8757    1       91.935748399907      68.690637619946     107.168770080000
      8758    2       92.837079261567      70.251788481316     105.609385040000
      8759    3       91.935748399907      68.690637619946     104.050000000000
      8760    4       94.639740994898      70.251788481316     107.168770080000
      8761    5       95.541071866570      68.690637619946     105.609385040000
      8762    6       94.639740994898      70.251788481316     104.050000000000
      8763    7       91.935748399907      71.812939332674     107.168770080000
      8764    8       92.837079261567      73.374090194044     105.609385040000
      8765    9       91.935748399907      71.812939332674     104.050000000000
      8766   10       94.639740994898      73.374090194044     107.168770080000
      8767   11       95.541071866570      71.812939332674     105.609385040000
      8768   12       94.639740994898      73.374090194044     104.050000000000
      8769    1       86.527763199912      74.935241045402     107.168770080000
      8770    2       87.429094061572      76.496391896760     105.609385040000
      8771    3       86.527763199912      74.935241045402     104.050000000000
      8772    4       89.231755794904      76.496391896760     107.168770080000
      8773    5       90.133086666575      74.935241045402     105.609385040000
      8774    6       89.231755794904      76.496391896760     104.050000000000
      8775    7       86.527763199912      78.057542758130     107.168770080000
      8776    8       87.429094061572      79.618693609488     105.609385040000
      8777    9       86.527763199912      78.057542758130     104.050000000000
      8778   10       89.231755794904      79.618693609488     107.168770080000
      8779   11       90.133086666575      78.057542758130     105.609385040000
      8780   12       89.231755794904      79.618693609488     104.050000000000
      8781    1       86.527763199912      81.179844460847     107.168770080000
      8782    2       87.429094061572      82.740995322216     105.609385040000
      8783    3       86.527763199912      81.179844460847     104.050000000000
      8784    4       89.231755794904      82.740995322216     107.168770080000
      8785    5       90.133086666575      81.179844460847     105.609385040000
      8786    6       89.231755794904      82.740995322216     104.050000000000
      8787    7       86.527763199912      84.302146173574     107.168770080000
      8788    8       87.429094061572      85.863297034944     105.609385040000
      8789    9       86.527763199912      84.302146173574     104.050000000000
      8790   10       89.231755794904      85.863297034944     107.168770080000
      8791   11       90.133086666575      84.302146173574     105.609385040000
      8792   12       89.231755794904      85.863297034944     104.050000000000
      8793    1       91.935748399907      74.935241045402     107.168770080000
      8794    2       92.837079261567      76.496391896760     105.609385040000
      8795    3       91.935748399907      74.935241045402     104.050000000000
      8796    4       94.639740994898      76.496391896760     107.168770080000
      8797    5       95.541071866570      74.935241045402     105.609385040000
      8798    6       94.639740994898      76.496391896760     104.050000000000
      8799    7       91.935748399907      78.057542758130     107.168770080000
      8800    8       92.837079261567      79.618693609488     105.609385040000
      8801    9       91.935748399907      78.057542758130     104.050000000000
      8802   10       94.639740994898      79.618693609488     107.168770080000
      8803   11       95.541071866570      78.057542758130     105.609385040000
      8804   12       94.639740994898      79.618693609488     104.050000000000
      8805    1       91.935748399907      81.179844460847     107.168770080000
      8806    2       92.837079261567      82.740995322216     105.609385040000
      8807    3       91.935748399907      81.179844460847     104.050000000000
      8808    4       94.639740994898      82.740995322216     107.168770080000
      8809    5       95.541071866570      81.179844460847     105.609385040000
      8810    6       94.639740994898      82.740995322216     104.050000000000
      8811    7       91.935748399907      84.302146173574     107.168770080000
      8812    8       92.837079261567      85.863297034944     105.609385040000
      8813    9       91.935748399907      84.302146173574     104.050000000000
      8814   10       94.639740994898      85.863297034944     107.168770080000
      8815   11       95.541071866570      84.302146173574     105.609385040000
      8816   12       94.639740994898      85.863297034944     104.050000000000
      8817    1       86.527763199912      87.424447886302     107.168770080000
      8818    2       87.429094061572      88.985598737661     105.609385040000
      8819    3       86.527763199912      87.424447886302     104.050000000000
      8820    4       89.231755794904      88.985598737661     107.168770080000
      8821    5       90.133086666575      87.424447886302     105.609385040000
      8822    6       89.231755794904      88.985598737661     104.050000000000
      8823    7       86.527763199912      90.546749599030     107.168770080000
      8824    8       87.429094061572      92.107900450389     105.609385040000
      8825    9       86.527763199912      90.546749599030     104.050000000000
      8826   10       89.231755794904      92.107900450389     107.168770080000
      8827   11       90.133086666575      90.546749599030     105.609385040000
      8828   12       89.231755794904      92.107900450389     104.050000000000
      8829    1       86.527763199912      93.669051301747     107.168770080000
      8830    2       87.429094061572      95.230202163116     105.609385040000
      8831    3       86.527763199912      93.669051301747     104.050000000000
      8832    4       89.231755794904      95.230202163116     107.168770080000
      8833    5       90.133086666575      93.669051301747     105.609385040000
      8834    6       89.231755794904      95.230202163116     104.050000000000
      8835    7       86.527763199912      96.791353014475     107.168770080000
      8836    8       87.429094061572      98.352503875844     105.609385040000
      8837    9       86.527763199912      96.791353014475     104.050000000000
      8838   10       89.231755794904      98.352503875844     107.168770080000
      8839   11       90.133086666575      96.791353014475     105.609385040000
      8840   12       89.231755794904      98.352503875844     104.050000000000
      8841    1       91.935748399907      87.424447886302     107.168770080000
      8842    2       92.837079261567      88.985598737661     105.609385040000
      8843    3       91.935748399907      87.424447886302     104.050000000000
      8844    4       94.639740994898      88.985598737661     107.168770080000
      8845    5       95.541071866570      87.424447886302     105.609385040000
      8846    6       94.639740994898      88.985598737661     104.050000000000
      8847    7       91.935748399907      90.546749599030     107.168770080000
      8848    8       92.837079261567      92.107900450389     105.609385040000
      8849    9       91.935748399907      90.546749599030     104.050000000000
      8850   10       94.639740994898      92.107900450389     107.168770080000
      8851   11       95.541071866570      90.546749599030     105.609385040000
      8852   12       94.639740994898      92.107900450389     104.050000000000
      8853    1       91.935748399907      93.669051301747     107.168770080000
      8854    2       92.837079261567      95.230202163116     105.609385040000
      8855    3       91.935748399907      93.669051301747     104.050000000000
      8856    4       94.639740994898      95.230202163116     107.168770080000
      8857    5       95.541071866570      93.669051301747     105.609385040000
      8858    6       94.639740994898      95.230202163116     104.050000000000
      8859    7       91.935748399907      96.791353014475     107.168770080000
      8860    8       92.837079261567      98.352503875844     105.609385040000
      8861    9       91.935748399907      96.791353014475     104.050000000000
      8862   10       94.639740994898      98.352503875844     107.168770080000
      8863   11       95.541071866570      96.791353014475     105.609385040000
      8864   12       94.639740994898      98.352503875844     104.050000000000
      8865    1       86.527763199912      99.913654727203     107.168770080000
      8866    2       87.429094061572     101.474805578561     105.609385040000
      8867    3       86.527763199912      99.913654727203     104.050000000000
      8868    4       89.231755794904     101.474805578561     107.168770080000
      8869    5       90.133086666575      99.913654727203     105.609385040000
      8870    6       89.231755794904     101.474805578561     104.050000000000
      8871    7       86.527763199912     103.035956439931     107.168770080000
      8872    8       87.429094061572     104.597107291289     105.609385040000
      8873    9       86.527763199912     103.035956439931     104.050000000000
      8874   10       89.231755794904     104.597107291289     107.168770080000
      8875   11       90.133086666575     103.035956439931     105.609385040000
      8876   12       89.231755794904     104.597107291289     104.050000000000
      8877    1       86.527763199912     106.158258142647     107.168770080000
      8878    2       87.429094061572     107.719409004017     105.609385040000
      8879    3       86.527763199912     106.158258142647     104.050000000000
      8880    4       89.231755794904     107.719409004017     107.168770080000
      8881    5       90.133086666575     106.158258142647     105.609385040000
      8882    6       89.231755794904     107.719409004017     104.050000000000
      8883    7       86.527763199912     109.280559855375     107.168770080000
      8884    8       87.429094061572     110.841710716745     105.609385040000
      8885    9       86.527763199912     109.280559855375     104.050000000000
      8886   10       89.231755794904     110.841710716745     107.168770080000
      8887   11       90.133086666575     109.280559855375     105.609385040000
      8888   12       89.231755794904     110.841710716745     104.050000000000
      8889    1       91.935748399907      99.913654727203     107.168770080000
      8890    2       92.837079261567     101.474805578561     105.609385040000
      8891    3       91.935748399907      99.913654727203     104.050000000000
      8892    4       94.639740994898     101.474805578561     107.168770080000
      8893    5       95.541071866570      99.913654727203     105.609385040000
      8894    6       94.639740994898     101.474805578561     104.050000000000
      8895    7       91.935748399907     103.035956439931     107.168770080000
      8896    8       92.837079261567     104.597107291289     105.609385040000
      8897    9       91.935748399907     103.035956439931     104.050000000000
      8898   10       94.639740994898     104.597107291289     107.168770080000
      8899   11       95.541071866570     103.035956439931     105.609385040000
      8900   12       94.639740994898     104.597107291289     104.050000000000
      8901    1       91.935748399907     106.158258142647     107.168770080000
      8902    2       92.837079261567     107.719409004017     105.609385040000
      8903    3       91.935748399907     106.158258142647     104.050000000000
      8904    4       94.639740994898     107.719409004017     107.168770080000
      8905    5       95.541071866570     106.158258142647     105.609385040000
      8906    6       94.639740994898     107.719409004017     104.050000000000
      8907    7       91.935748399907     109.280559855375     107.168770080000
      8908    8       92.837079261567     110.841710716745     105.609385040000
      8909    9       91.935748399907     109.280559855375     104.050000000000
      8910   10       94.639740994898     110.841710716745     107.168770080000
      8911   11       95.541071866570     109.280559855375     105.609385040000
      8912   12       94.639740994898     110.841710716745     104.050000000000
      8913    1       86.527763199912     112.402861568103     107.168770080000
      8914    2       87.429094061572     113.964012419461     105.609385040000
      8915    3       86.527763199912     112.402861568103     104.050000000000
      8916    4       89.231755794904     113.964012419461     107.168770080000
      8917    5       90.133086666575     112.402861568103     105.609385040000
      8918    6       89.231755794904     113.964012419461     104.050000000000
      8919    7       86.527763199912     115.525163280831     107.168770080000
      8920    8       87.429094061572     117.086314132189     105.609385040000
      8921    9       86.527763199912     115.525163280831     104.050000000000
      8922   10       89.231755794904     117.086314132189     107.168770080000
      8923   11       90.133086666575     115.525163280831     105.609385040000
      8924   12       89.231755794904     117.086314132189     104.050000000000
      8925    1       86.527763199912     118.647464983548     107.168770080000
      8926    2       87.429094061572     120.208615844917     105.609385040000
      8927    3       86.527763199912     118.647464983548     104.050000000000
      8928    4       89.231755794904     120.208615844917     107.168770080000
      8929    5       90.133086666575     118.647464983548     105.609385040000
      8930    6       89.231755794904     120.208615844917     104.050000000000
      8931    7       86.527763199912     121.769766696275     107.168770080000
      8932    8       87.429094061572     123.330917557645     105.609385040000
      8933    9       86.527763199912     121.769766696275     104.050000000000
      8934   10       89.231755794904     123.330917557645     107.168770080000
      8935   11       90.133086666575     121.769766696275     105.609385040000
      8936   12       89.231755794904     123.330917557645     104.050000000000
      8937    1       91.935748399907     112.402861568103     107.168770080000
      8938    2       92.837079261567     113.964012419461     105.609385040000
      8939    3       91.935748399907     112.402861568103     104.050000000000
      8940    4       94.639740994898     113.964012419461     107.168770080000
      8941    5       95.541071866570     112.402861568103     105.609385040000
      8942    6       94.639740994898     113.964012419461     104.050000000000
      8943    7       91.935748399907     115.525163280831     107.168770080000
      8944    8       92.837079261567     117.086314132189     105.609385040000
      8945    9       91.935748399907     115.525163280831     104.050000000000
      8946   10       94.639740994898     117.086314132189     107.168770080000
      8947   11       95.541071866570     115.525163280831     105.609385040000
      8948   12       94.639740994898     117.086314132189     104.050000000000
      8949    1       91.935748399907     118.647464983548     107.168770080000
      8950    2       92.837079261567     120.208615844917     105.609385040000
      8951    3       91.935748399907     118.647464983548     104.050000000000
      8952    4       94.639740994898     120.208615844917     107.168770080000
      8953    5       95.541071866570     118.647464983548     105.609385040000
      8954    6       94.639740994898     120.208615844917     104.050000000000
      8955    7       91.935748399907     121.769766696275     107.168770080000
      8956    8       92.837079261567     123.330917557645     105.609385040000
      8957    9       91.935748399907     121.769766696275     104.050000000000
      8958   10       94.639740994898     123.330917557645     107.168770080000
      8959   11       95.541071866570     121.769766696275     105.609385040000
      8960   12       94.639740994898     123.330917557645     104.050000000000
      8961    1       86.527763199912     124.892068409003     107.168770080000
      8962    2       87.429094061572     126.453219260362     105.609385040000
      8963    3       86.527763199912     124.892068409003     104.050000000000
      8964    4       89.231755794904     126.453219260362     107.168770080000
      8965    5       90.133086666575     124.892068409003     105.609385040000
      8966    6       89.231755794904     126.453219260362     104.050000000000
      8967    7       86.527763199912     128.014370121731     107.168770080000
      8968    8       87.429094061572     129.575520973090     105.609385040000
      8969    9       86.527763199912     128.014370121731     104.050000000000
      8970   10       89.231755794904     129.575520973090     107.168770080000
      8971   11       90.133086666575     128.014370121731     105.609385040000
      8972   12       89.231755794904     129.575520973090     104.050000000000
      8973    1       86.527763199912     131.136671824448     107.168770080000
      8974    2       87.429094061572     132.697822685817     105.609385040000
      8975    3       86.527763199912     131.136671824448     104.050000000000
      8976    4       89.231755794904     132.697822685817     107.168770080000
      8977    5       90.133086666575     131.136671824448     105.609385040000
      8978    6       89.231755794904     132.697822685817     104.050000000000
      8979    7       86.527763199912     134.258973537176     107.168770080000
      8980    8       87.429094061572     135.820124398545     105.609385040000
      8981    9       86.527763199912     134.258973537176     104.050000000000
      8982   10       89.231755794904     135.820124398545     107.168770080000
      8983   11       90.133086666575     134.258973537176     105.609385040000
      8984   12       89.231755794904     135.820124398545     104.050000000000
      8985    1       91.935748399907     124.892068409003     107.168770080000
      8986    2       92.837079261567     126.453219260362     105.609385040000
      8987    3       91.935748399907     124.892068409003     104.050000000000
      8988    4       94.639740994898     126.453219260362     107.168770080000
      8989    5       95.541071866570     124.892068409003     105.609385040000
      8990    6       94.639740994898     126.453219260362     104.050000000000
      8991    7       91.935748399907     128.014370121731     107.168770080000
      8992    8       92.837079261567     129.575520973090     105.609385040000
      8993    9       91.935748399907     128.014370121731     104.050000000000
      8994   10       94.639740994898     129.575520973090     107.168770080000
      8995   11       95.541071866570     128.014370121731     105.609385040000
      8996   12       94.639740994898     129.575520973090     104.050000000000
      8997    1       91.935748399907     131.136671824448     107.168770080000
      8998    2       92.837079261567     132.697822685817     105.609385040000
      8999    3       91.935748399907     131.136671824448     104.050000000000
      9000    4       94.639740994898     132.697822685817     107.168770080000
      9001    5       95.541071866570     131.136671824448     105.609385040000
      9002    6       94.639740994898     132.697822685817     104.050000000000
      9003    7       91.935748399907     134.258973537176     107.168770080000
      9004    8       92.837079261567     135.820124398545     105.609385040000
      9005    9       91.935748399907     134.258973537176     104.050000000000
      9006   10       94.639740994898     135.820124398545     107.168770080000
      9007   11       95.541071866570     134.258973537176     105.609385040000
      9008   12       94.639740994898     135.820124398545     104.050000000000
      9009    1       86.527763199912     137.381275249904     107.168770080000
      9010    2       87.429094061572     138.942426101262     105.609385040000
      9011    3       86.527763199912     137.381275249904     104.050000000000
      9012    4       89.231755794904     138.942426101262     107.168770080000
      9013    5       90.133086666575     137.381275249904     105.609385040000
      9014    6       89.231755794904     138.942426101262     104.050000000000
      9015    7       86.527763199912     140.503576962632     107.168770080000
      9016    8       87.429094061572     142.064727813990     105.609385040000
      9017    9       86.527763199912     140.503576962632     104.050000000000
      9018   10       89.231755794904     142.064727813990     107.168770080000
      9019   11       90.133086666575     140.503576962632     105.609385040000
      9020   12       89.231755794904     142.064727813990     104.050000000000
      9021    1       86.527763199912     143.625878665348     107.168770080000
      9022    2       87.429094061572     145.187029526718     105.609385040000
      9023    3       86.527763199912     143.625878665348     104.050000000000
      9024    4       89.231755794904     145.187029526718     107.168770080000
      9025    5       90.133086666575     143.625878665348     105.609385040000
      9026    6       89.231755794904     145.187029526718     104.050000000000
      9027    7       86.527763199912     146.748180378076     107.168770080000
      9028    8       87.429094061572     148.309331239446     105.609385040000
      9029    9       86.527763199912     146.748180378076     104.050000000000
      9030   10       89.231755794904     148.309331239446     107.168770080000
      9031   11       90.133086666575     146.748180378076     105.609385040000
      9032   12       89.231755794904     148.309331239446     104.050000000000
      9033    1       91.935748399907     137.381275249904     107.168770080000
      9034    2       92.837079261567     138.942426101262     105.609385040000
      9035    3       91.935748399907     137.381275249904     104.050000000000
      9036    4       94.639740994898     138.942426101262     107.168770080000
      9037    5       95.541071866570     137.381275249904     105.609385040000
      9038    6       94.639740994898     138.942426101262     104.050000000000
      9039    7       91.935748399907     140.503576962632     107.168770080000
      9040    8       92.837079261567     142.064727813990     105.609385040000
      9041    9       91.935748399907     140.503576962632     104.050000000000
      9042   10       94.639740994898     142.064727813990     107.168770080000
      9043   11       95.541071866570     140.503576962632     105.609385040000
      9044   12       94.639740994898     142.064727813990     104.050000000000
      9045    1       91.935748399907     143.625878665348     107.168770080000
      9046    2       92.837079261567     145.187029526718     105.609385040000
      9047    3       91.935748399907     143.625878665348     104.050000000000
      9048    4       94.639740994898     145.187029526718     107.168770080000
      9049    5       95.541071866570     143.625878665348     105.609385040000
      9050    6       94.639740994898     145.187029526718     104.050000000000
      9051    7       91.935748399907     146.748180378076     107.168770080000
      9052    8       92.837079261567     148.309331239446     105.609385040000
      9053    9       91.935748399907     146.748180378076     104.050000000000
      9054   10       94.639740994898     148.309331239446     107.168770080000
      9055   11       95.541071866570     146.748180378076     105.609385040000
      9056   12       94.639740994898     148.309331239446     104.050000000000
      9057    1       97.343733599901       0.000000000000     107.168770080000
      9058    2       98.245064461561       1.561150851358     105.609385040000
      9059    3       97.343733599901       0.000000000000     104.050000000000
      9060    4      100.047726194893       1.561150851358     107.168770080000
      9061    5      100.949057066564       0.000000000000     105.609385040000
      9062    6      100.047726194893       1.561150851358     104.050000000000
      9063    7       97.343733599901       3.122301712728     107.168770080000
      9064    8       98.245064461561       4.683452564086     105.609385040000
      9065    9       97.343733599901       3.122301712728     104.050000000000
      9066   10      100.047726194893       4.683452564086     107.168770080000
      9067   11      100.949057066564       3.122301712728     105.609385040000
      9068   12      100.047726194893       4.683452564086     104.050000000000
      9069    1       97.343733599901       6.244603415445     107.168770080000
      9070    2       98.245064461561       7.805754276814     105.609385040000
      9071    3       97.343733599901       6.244603415445     104.050000000000
      9072    4      100.047726194893       7.805754276814     107.168770080000
      9073    5      100.949057066564       6.244603415445     105.609385040000
      9074    6      100.047726194893       7.805754276814     104.050000000000
      9075    7       97.343733599901       9.366905128172     107.168770080000
      9076    8       98.245064461561      10.928055989542     105.609385040000
      9077    9       97.343733599901       9.366905128172     104.050000000000
      9078   10      100.047726194893      10.928055989542     107.168770080000
      9079   11      100.949057066564       9.366905128172     105.609385040000
      9080   12      100.047726194893      10.928055989542     104.050000000000
      9081    1      102.751718799896       0.000000000000     107.168770080000
      9082    2      103.653049661556       1.561150851358     105.609385040000
      9083    3      102.751718799896       0.000000000000     104.050000000000
      9084    4      105.455711394887       1.561150851358     107.168770080000
      9085    5      106.357042266559       0.000000000000     105.609385040000
      9086    6      105.455711394887       1.561150851358     104.050000000000
      9087    7      102.751718799896       3.122301712728     107.168770080000
      9088    8      103.653049661556       4.683452564086     105.609385040000
      9089    9      102.751718799896       3.122301712728     104.050000000000
      9090   10      105.455711394887       4.683452564086     107.168770080000
      9091   11      106.357042266559       3.122301712728     105.609385040000
      9092   12      105.455711394887       4.683452564086     104.050000000000
      9093    1      102.751718799896       6.244603415445     107.168770080000
      9094    2      103.653049661556       7.805754276814     105.609385040000
      9095    3      102.751718799896       6.244603415445     104.050000000000
      9096    4      105.455711394887       7.805754276814     107.168770080000
      9097    5      106.357042266559       6.244603415445     105.609385040000
      9098    6      105.455711394887       7.805754276814     104.050000000000
      9099    7      102.751718799896       9.366905128172     107.168770080000
      9100    8      103.653049661556      10.928055989542     105.609385040000
      9101    9      102.751718799896       9.366905128172     104.050000000000
      9102   10      105.455711394887      10.928055989542     107.168770080000
      9103   11      106.357042266559       9.366905128172     105.609385040000
      9104   12      105.455711394887      10.928055989542     104.050000000000
      9105    1       97.343733599901      12.489206840900     107.168770080000
      9106    2       98.245064461561      14.050357692259     105.609385040000
      9107    3       97.343733599901      12.489206840900     104.050000000000
      9108    4      100.047726194893      14.050357692259     107.168770080000
      9109    5      100.949057066564      12.489206840900     105.609385040000
      9110    6      100.047726194893      14.050357692259     104.050000000000
      9111    7       97.343733599901      15.611508553628     107.168770080000
      9112    8       98.245064461561      17.172659404987     105.609385040000
      9113    9       97.343733599901      15.611508553628     104.050000000000
      9114   10      100.047726194893      17.172659404987     107.168770080000
      9115   11      100.949057066564      15.611508553628     105.609385040000
      9116   12      100.047726194893      17.172659404987     104.050000000000
      9117    1       97.343733599901      18.733810256345     107.168770080000
      9118    2       98.245064461561      20.294961117714     105.609385040000
      9119    3       97.343733599901      18.733810256345     104.050000000000
      9120    4      100.047726194893      20.294961117714     107.168770080000
      9121    5      100.949057066564      18.733810256345     105.609385040000
      9122    6      100.047726194893      20.294961117714     104.050000000000
      9123    7       97.343733599901      21.856111969073     107.168770080000
      9124    8       98.245064461561      23.417262830442     105.609385040000
      9125    9       97.343733599901      21.856111969073     104.050000000000
      9126   10      100.047726194893      23.417262830442     107.168770080000
      9127   11      100.949057066564      21.856111969073     105.609385040000
      9128   12      100.047726194893      23.417262830442     104.050000000000
      9129    1      102.751718799896      12.489206840900     107.168770080000
      9130    2      103.653049661556      14.050357692259     105.609385040000
      9131    3      102.751718799896      12.489206840900     104.050000000000
      9132    4      105.455711394887      14.050357692259     107.168770080000
      9133    5      106.357042266559      12.489206840900     105.609385040000
      9134    6      105.455711394887      14.050357692259     104.050000000000
      9135    7      102.751718799896      15.611508553628     107.168770080000
      9136    8      103.653049661556      17.172659404987     105.609385040000
      9137    9      102.751718799896      15.611508553628     104.050000000000
      9138   10      105.455711394887      17.172659404987     107.168770080000
      9139   11      106.357042266559      15.611508553628     105.609385040000
      9140   12      105.455711394887      17.172659404987     104.050000000000
      9141    1      102.751718799896      18.733810256345     107.168770080000
      9142    2      103.653049661556      20.294961117714     105.609385040000
      9143    3      102.751718799896      18.733810256345     104.050000000000
      9144    4      105.455711394887      20.294961117714     107.168770080000
      9145    5      106.357042266559      18.733810256345     105.609385040000
      9146    6      105.455711394887      20.294961117714     104.050000000000
      9147    7      102.751718799896      21.856111969073     107.168770080000
      9148    8      103.653049661556      23.417262830442     105.609385040000
      9149    9      102.751718799896      21.856111969073     104.050000000000
      9150   10      105.455711394887      23.417262830442     107.168770080000
      9151   11      106.357042266559      21.856111969073     105.609385040000
      9152   12      105.455711394887      23.417262830442     104.050000000000
      9153    1       97.343733599901      24.978413681801     107.168770080000
      9154    2       98.245064461561      26.539564533159     105.609385040000
      9155    3       97.343733599901      24.978413681801     104.050000000000
      9156    4      100.047726194893      26.539564533159     107.168770080000
      9157    5      100.949057066564      24.978413681801     105.609385040000
      9158    6      100.047726194893      26.539564533159     104.050000000000
      9159    7       97.343733599901      28.100715394529     107.168770080000
      9160    8       98.245064461561      29.661866245887     105.609385040000
      9161    9       97.343733599901      28.100715394529     104.050000000000
      9162   10      100.047726194893      29.661866245887     107.168770080000
      9163   11      100.949057066564      28.100715394529     105.609385040000
      9164   12      100.047726194893      29.661866245887     104.050000000000
      9165    1       97.343733599901      31.223017097245     107.168770080000
      9166    2       98.245064461561      32.784167958615     105.609385040000
      9167    3       97.343733599901      31.223017097245     104.050000000000
      9168    4      100.047726194893      32.784167958615     107.168770080000
      9169    5      100.949057066564      31.223017097245     105.609385040000
      9170    6      100.047726194893      32.784167958615     104.050000000000
      9171    7       97.343733599901      34.345318809973     107.168770080000
      9172    8       98.245064461561      35.906469671343     105.609385040000
      9173    9       97.343733599901      34.345318809973     104.050000000000
      9174   10      100.047726194893      35.906469671343     107.168770080000
      9175   11      100.949057066564      34.345318809973     105.609385040000
      9176   12      100.047726194893      35.906469671343     104.050000000000
      9177    1      102.751718799896      24.978413681801     107.168770080000
      9178    2      103.653049661556      26.539564533159     105.609385040000
      9179    3      102.751718799896      24.978413681801     104.050000000000
      9180    4      105.455711394887      26.539564533159     107.168770080000
      9181    5      106.357042266559      24.978413681801     105.609385040000
      9182    6      105.455711394887      26.539564533159     104.050000000000
      9183    7      102.751718799896      28.100715394529     107.168770080000
      9184    8      103.653049661556      29.661866245887     105.609385040000
      9185    9      102.751718799896      28.100715394529     104.050000000000
      9186   10      105.455711394887      29.661866245887     107.168770080000
      9187   11      106.357042266559      28.100715394529     105.609385040000
      9188   12      105.455711394887      29.661866245887     104.050000000000
      9189    1      102.751718799896      31.223017097245     107.168770080000
      9190    2      103.653049661556      32.784167958615     105.609385040000
      9191    3      102.751718799896      31.223017097245     104.050000000000
      9192    4      105.455711394887      32.784167958615     107.168770080000
      9193    5      106.357042266559      31.223017097245     105.609385040000
      9194    6      105.455711394887      32.784167958615     104.050000000000
      9195    7      102.751718799896      34.345318809973     107.168770080000
      9196    8      103.653049661556      35.906469671343     105.609385040000
      9197    9      102.751718799896      34.345318809973     104.050000000000
      9198   10      105.455711394887      35.906469671343     107.168770080000
      9199   11      106.357042266559      34.345318809973     105.609385040000
      9200   12      105.455711394887      35.906469671343     104.050000000000
      9201    1       97.343733599901      37.467620522701     107.168770080000
      9202    2       98.245064461561      39.028771374059     105.609385040000
      9203    3       97.343733599901      37.467620522701     104.050000000000
      9204    4      100.047726194893      39.028771374059     107.168770080000
      9205    5      100.949057066564      37.467620522701     105.609385040000
      9206    6      100.047726194893      39.028771374059     104.050000000000
      9207    7       97.343733599901      40.589922235429     107.168770080000
      9208    8       98.245064461561      42.151073086787     105.609385040000
      9209    9       97.343733599901      40.589922235429     104.050000000000
      9210   10      100.047726194893      42.151073086787     107.168770080000
      9211   11      100.949057066564      40.589922235429     105.609385040000
      9212   12      100.047726194893      42.151073086787     104.050000000000
      9213    1       97.343733599901      43.712223938146     107.168770080000
      9214    2       98.245064461561      45.273374799515     105.609385040000
      9215    3       97.343733599901      43.712223938146     104.050000000000
      9216    4      100.047726194893      45.273374799515     107.168770080000
      9217    5      100.949057066564      43.712223938146     105.609385040000
      9218    6      100.047726194893      45.273374799515     104.050000000000
      9219    7       97.343733599901      46.834525650873     107.168770080000
      9220    8       98.245064461561      48.395676512243     105.609385040000
      9221    9       97.343733599901      46.834525650873     104.050000000000
      9222   10      100.047726194893      48.395676512243     107.168770080000
      9223   11      100.949057066564      46.834525650873     105.609385040000
      9224   12      100.047726194893      48.395676512243     104.050000000000
      9225    1      102.751718799896      37.467620522701     107.168770080000
      9226    2      103.653049661556      39.028771374059     105.609385040000
      9227    3      102.751718799896      37.467620522701     104.050000000000
      9228    4      105.455711394887      39.028771374059     107.168770080000
      9229    5      106.357042266559      37.467620522701     105.609385040000
      9230    6      105.455711394887      39.028771374059     104.050000000000
      9231    7      102.751718799896      40.589922235429     107.168770080000
      9232    8      103.653049661556      42.151073086787     105.609385040000
      9233    9      102.751718799896      40.589922235429     104.050000000000
      9234   10      105.455711394887      42.151073086787     107.168770080000
      9235   11      106.357042266559      40.589922235429     105.609385040000
      9236   12      105.455711394887      42.151073086787     104.050000000000
      9237    1      102.751718799896      43.712223938146     107.168770080000
      9238    2      103.653049661556      45.273374799515     105.609385040000
      9239    3      102.751718799896      43.712223938146     104.050000000000
      9240    4      105.455711394887      45.273374799515     107.168770080000
      9241    5      106.357042266559      43.712223938146     105.609385040000
      9242    6      105.455711394887      45.273374799515     104.050000000000
      9243    7      102.751718799896      46.834525650873     107.168770080000
      9244    8      103.653049661556      48.395676512243     105.609385040000
      9245    9      102.751718799896      46.834525650873     104.050000000000
      9246   10      105.455711394887      48.395676512243     107.168770080000
      9247   11      106.357042266559      46.834525650873     105.609385040000
      9248   12      105.455711394887      48.395676512243     104.050000000000
      9249    1       97.343733599901      49.956827363601     107.168770080000
      9250    2       98.245064461561      51.517978214960     105.609385040000
      9251    3       97.343733599901      49.956827363601     104.050000000000
      9252    4      100.047726194893      51.517978214960     107.168770080000
      9253    5      100.949057066564      49.956827363601     105.609385040000
      9254    6      100.047726194893      51.517978214960     104.050000000000
      9255    7       97.343733599901      53.079129076329     107.168770080000
      9256    8       98.245064461561      54.640279927688     105.609385040000
      9257    9       97.343733599901      53.079129076329     104.050000000000
      9258   10      100.047726194893      54.640279927688     107.168770080000
      9259   11      100.949057066564      53.079129076329     105.609385040000
      9260   12      100.047726194893      54.640279927688     104.050000000000
      9261    1       97.343733599901      56.201430779046     107.168770080000
      9262    2       98.245064461561      57.762581640415     105.609385040000
      9263    3       97.343733599901      56.201430779046     104.050000000000
      9264    4      100.047726194893      57.762581640415     107.168770080000
      9265    5      100.949057066564      56.201430779046     105.609385040000
      9266    6      100.047726194893      57.762581640415     104.050000000000
      9267    7       97.343733599901      59.323732491774     107.168770080000
      9268    8       98.245064461561      60.884883353143     105.609385040000
      9269    9       97.343733599901      59.323732491774     104.050000000000
      9270   10      100.047726194893      60.884883353143     107.168770080000
      9271   11      100.949057066564      59.323732491774     105.609385040000
      9272   12      100.047726194893      60.884883353143     104.050000000000
      9273    1      102.751718799896      49.956827363601     107.168770080000
      9274    2      103.653049661556      51.517978214960     105.609385040000
      9275    3      102.751718799896      49.956827363601     104.050000000000
      9276    4      105.455711394887      51.517978214960     107.168770080000
      9277    5      106.357042266559      49.956827363601     105.609385040000
      9278    6      105.455711394887      51.517978214960     104.050000000000
      9279    7      102.751718799896      53.079129076329     107.168770080000
      9280    8      103.653049661556      54.640279927688     105.609385040000
      9281    9      102.751718799896      53.079129076329     104.050000000000
      9282   10      105.455711394887      54.640279927688     107.168770080000
      9283   11      106.357042266559      53.079129076329     105.609385040000
      9284   12      105.455711394887      54.640279927688     104.050000000000
      9285    1      102.751718799896      56.201430779046     107.168770080000
      9286    2      103.653049661556      57.762581640415     105.609385040000
      9287    3      102.751718799896      56.201430779046     104.050000000000
      9288    4      105.455711394887      57.762581640415     107.168770080000
      9289    5      106.357042266559      56.201430779046     105.609385040000
      9290    6      105.455711394887      57.762581640415     104.050000000000
      9291    7      102.751718799896      59.323732491774     107.168770080000
      9292    8      103.653049661556      60.884883353143     105.609385040000
      9293    9      102.751718799896      59.323732491774     104.050000000000
      9294   10      105.455711394887      60.884883353143     107.168770080000
      9295   11      106.357042266559      59.323732491774     105.609385040000
      9296   12      105.455711394887      60.884883353143     104.050000000000
      9297    1       97.343733599901      62.446034204502     107.168770080000
      9298    2       98.245064461561      64.007185055860     105.609385040000
      9299    3       97.343733599901      62.446034204502     104.050000000000
      9300    4      100.047726194893      64.007185055860     107.168770080000
      9301    5      100.949057066564      62.446034204502     105.609385040000
      9302    6      100.047726194893      64.007185055860     104.050000000000
      9303    7       97.343733599901      65.568335917230     107.168770080000
      9304    8       98.245064461561      67.129486768588     105.609385040000
      9305    9       97.343733599901      65.568335917230     104.050000000000
      9306   10      100.047726194893      67.129486768588     107.168770080000
      9307   11      100.949057066564      65.568335917230     105.609385040000
      9308   12      100.047726194893      67.129486768588     104.050000000000
      9309    1       97.343733599901      68.690637619946     107.168770080000
      9310    2       98.245064461561      70.251788481316     105.609385040000
      9311    3       97.343733599901      68.690637619946     104.050000000000
      9312    4      100.047726194893      70.251788481316     107.168770080000
      9313    5      100.949057066564      68.690637619946     105.609385040000
      9314    6      100.047726194893      70.251788481316     104.050000000000
      9315    7       97.343733599901      71.812939332674     107.168770080000
      9316    8       98.245064461561      73.374090194044     105.609385040000
      9317    9       97.343733599901      71.812939332674     104.050000000000
      9318   10      100.047726194893      73.374090194044     107.168770080000
      9319   11      100.949057066564      71.812939332674     105.609385040000
      9320   12      100.047726194893      73.374090194044     104.050000000000
      9321    1      102.751718799896      62.446034204502     107.168770080000
      9322    2      103.653049661556      64.007185055860     105.609385040000
      9323    3      102.751718799896      62.446034204502     104.050000000000
      9324    4      105.455711394887      64.007185055860     107.168770080000
      9325    5      106.357042266559      62.446034204502     105.609385040000
      9326    6      105.455711394887      64.007185055860     104.050000000000
      9327    7      102.751718799896      65.568335917230     107.168770080000
      9328    8      103.653049661556      67.129486768588     105.609385040000
      9329    9      102.751718799896      65.568335917230     104.050000000000
      9330   10      105.455711394887      67.129486768588     107.168770080000
      9331   11      106.357042266559      65.568335917230     105.609385040000
      9332   12      105.455711394887      67.129486768588     104.050000000000
      9333    1      102.751718799896      68.690637619946     107.168770080000
      9334    2      103.653049661556      70.251788481316     105.609385040000
      9335    3      102.751718799896      68.690637619946     104.050000000000
      9336    4      105.455711394887      70.251788481316     107.168770080000
      9337    5      106.357042266559      68.690637619946     105.609385040000
      9338    6      105.455711394887      70.251788481316     104.050000000000
      9339    7      102.751718799896      71.812939332674     107.168770080000
      9340    8      103.653049661556      73.374090194044     105.609385040000
      9341    9      102.751718799896      71.812939332674     104.050000000000
      9342   10      105.455711394887      73.374090194044     107.168770080000
      9343   11      106.357042266559      71.812939332674     105.609385040000
      9344   12      105.455711394887      73.374090194044     104.050000000000
      9345    1       97.343733599901      74.935241045402     107.168770080000
      9346    2       98.245064461561      76.496391896760     105.609385040000
      9347    3       97.343733599901      74.935241045402     104.050000000000
      9348    4      100.047726194893      76.496391896760     107.168770080000
      9349    5      100.949057066564      74.935241045402     105.609385040000
      9350    6      100.047726194893      76.496391896760     104.050000000000
      9351    7       97.343733599901      78.057542758130     107.168770080000
      9352    8       98.245064461561      79.618693609488     105.609385040000
      9353    9       97.343733599901      78.057542758130     104.050000000000
      9354   10      100.047726194893      79.618693609488     107.168770080000
      9355   11      100.949057066564      78.057542758130     105.609385040000
      9356   12      100.047726194893      79.618693609488     104.050000000000
      9357    1       97.343733599901      81.179844460847     107.168770080000
      9358    2       98.245064461561      82.740995322216     105.609385040000
      9359    3       97.343733599901      81.179844460847     104.050000000000
      9360    4      100.047726194893      82.740995322216     107.168770080000
      9361    5      100.949057066564      81.179844460847     105.609385040000
      9362    6      100.047726194893      82.740995322216     104.050000000000
      9363    7       97.343733599901      84.302146173574     107.168770080000
      9364    8       98.245064461561      85.863297034944     105.609385040000
      9365    9       97.343733599901      84.302146173574     104.050000000000
      9366   10      100.047726194893      85.863297034944     107.168770080000
      9367   11      100.949057066564      84.302146173574     105.609385040000
      9368   12      100.047726194893      85.863297034944     104.050000000000
      9369    1      102.751718799896      74.935241045402     107.168770080000
      9370    2      103.653049661556      76.496391896760     105.609385040000
      9371    3      102.751718799896      74.935241045402     104.050000000000
      9372    4      105.455711394887      76.496391896760     107.168770080000
      9373    5      106.357042266559      74.935241045402     105.609385040000
      9374    6      105.455711394887      76.496391896760     104.050000000000
      9375    7      102.751718799896      78.057542758130     107.168770080000
      9376    8      103.653049661556      79.618693609488     105.609385040000
      9377    9      102.751718799896      78.057542758130     104.050000000000
      9378   10      105.455711394887      79.618693609488     107.168770080000
      9379   11      106.357042266559      78.057542758130     105.609385040000
      9380   12      105.455711394887      79.618693609488     104.050000000000
      9381    1      102.751718799896      81.179844460847     107.168770080000
      9382    2      103.653049661556      82.740995322216     105.609385040000
      9383    3      102.751718799896      81.179844460847     104.050000000000
      9384    4      105.455711394887      82.740995322216     107.168770080000
      9385    5      106.357042266559      81.179844460847     105.609385040000
      9386    6      105.455711394887      82.740995322216     104.050000000000
      9387    7      102.751718799896      84.302146173574     107.168770080000
      9388    8      103.653049661556      85.863297034944     105.609385040000
      9389    9      102.751718799896      84.302146173574     104.050000000000
      9390   10      105.455711394887      85.863297034944     107.168770080000
      9391   11      106.357042266559      84.302146173574     105.609385040000
      9392   12      105.455711394887      85.863297034944     104.050000000000
      9393    1       97.343733599901      87.424447886302     107.168770080000
      9394    2       98.245064461561      88.985598737661     105.609385040000
      9395    3       97.343733599901      87.424447886302     104.050000000000
      9396    4      100.047726194893      88.985598737661     107.168770080000
      9397    5      100.949057066564      87.424447886302     105.609385040000
      9398    6      100.047726194893      88.985598737661     104.050000000000
      9399    7       97.343733599901      90.546749599030     107.168770080000
      9400    8       98.245064461561      92.107900450389     105.609385040000
      9401    9       97.343733599901      90.546749599030     104.050000000000
      9402   10      100.047726194893      92.107900450389     107.168770080000
      9403   11      100.949057066564      90.546749599030     105.609385040000
      9404   12      100.047726194893      92.107900450389     104.050000000000
      9405    1       97.343733599901      93.669051301747     107.168770080000
      9406    2       98.245064461561      95.230202163116     105.609385040000
      9407    3       97.343733599901      93.669051301747     104.050000000000
      9408    4      100.047726194893      95.230202163116     107.168770080000
      9409    5      100.949057066564      93.669051301747     105.609385040000
      9410    6      100.047726194893      95.230202163116     104.050000000000
      9411    7       97.343733599901      96.791353014475     107.168770080000
      9412    8       98.245064461561      98.352503875844     105.609385040000
      9413    9       97.343733599901      96.791353014475     104.050000000000
      9414   10      100.047726194893      98.352503875844     107.168770080000
      9415   11      100.949057066564      96.791353014475     105.609385040000
      9416   12      100.047726194893      98.352503875844     104.050000000000
      9417    1      102.751718799896      87.424447886302     107.168770080000
      9418    2      103.653049661556      88.985598737661     105.609385040000
      9419    3      102.751718799896      87.424447886302     104.050000000000
      9420    4      105.455711394887      88.985598737661     107.168770080000
      9421    5      106.357042266559      87.424447886302     105.609385040000
      9422    6      105.455711394887      88.985598737661     104.050000000000
      9423    7      102.751718799896      90.546749599030     107.168770080000
      9424    8      103.653049661556      92.107900450389     105.609385040000
      9425    9      102.751718799896      90.546749599030     104.050000000000
      9426   10      105.455711394887      92.107900450389     107.168770080000
      9427   11      106.357042266559      90.546749599030     105.609385040000
      9428   12      105.455711394887      92.107900450389     104.050000000000
      9429    1      102.751718799896      93.669051301747     107.168770080000
      9430    2      103.653049661556      95.230202163116     105.609385040000
      9431    3      102.751718799896      93.669051301747     104.050000000000
      9432    4      105.455711394887      95.230202163116     107.168770080000
      9433    5      106.357042266559      93.669051301747     105.609385040000
      9434    6      105.455711394887      95.230202163116     104.050000000000
      9435    7      102.751718799896      96.791353014475     107.168770080000
      9436    8      103.653049661556      98.352503875844     105.609385040000
      9437    9      102.751718799896      96.791353014475     104.050000000000
      9438   10      105.455711394887      98.352503875844     107.168770080000
      9439   11      106.357042266559      96.791353014475     105.609385040000
      9440   12      105.455711394887      98.352503875844     104.050000000000
      9441    1       97.343733599901      99.913654727203     107.168770080000
      9442    2       98.245064461561     101.474805578561     105.609385040000
      9443    3       97.343733599901      99.913654727203     104.050000000000
      9444    4      100.047726194893     101.474805578561     107.168770080000
      9445    5      100.949057066564      99.913654727203     105.609385040000
      9446    6      100.047726194893     101.474805578561     104.050000000000
      9447    7       97.343733599901     103.035956439931     107.168770080000
      9448    8       98.245064461561     104.597107291289     105.609385040000
      9449    9       97.343733599901     103.035956439931     104.050000000000
      9450   10      100.047726194893     104.597107291289     107.168770080000
      9451   11      100.949057066564     103.035956439931     105.609385040000
      9452   12      100.047726194893     104.597107291289     104.050000000000
      9453    1       97.343733599901     106.158258142647     107.168770080000
      9454    2       98.245064461561     107.719409004017     105.609385040000
      9455    3       97.343733599901     106.158258142647     104.050000000000
      9456    4      100.047726194893     107.719409004017     107.168770080000
      9457    5      100.949057066564     106.158258142647     105.609385040000
      9458    6      100.047726194893     107.719409004017     104.050000000000
      9459    7       97.343733599901     109.280559855375     107.168770080000
      9460    8       98.245064461561     110.841710716745     105.609385040000
      9461    9       97.343733599901     109.280559855375     104.050000000000
      9462   10      100.047726194893     110.841710716745     107.168770080000
      9463   11      100.949057066564     109.280559855375     105.609385040000
      9464   12      100.047726194893     110.841710716745     104.050000000000
      9465    1      102.751718799896      99.913654727203     107.168770080000
      9466    2      103.653049661556     101.474805578561     105.609385040000
      9467    3      102.751718799896      99.913654727203     104.050000000000
      9468    4      105.455711394887     101.474805578561     107.168770080000
      9469    5      106.357042266559      99.913654727203     105.609385040000
      9470    6      105.455711394887     101.474805578561     104.050000000000
      9471    7      102.751718799896     103.035956439931     107.168770080000
      9472    8      103.653049661556     104.597107291289     105.609385040000
      9473    9      102.751718799896     103.035956439931     104.050000000000
      9474   10      105.455711394887     104.597107291289     107.168770080000
      9475   11      106.357042266559     103.035956439931     105.609385040000
      9476   12      105.455711394887     104.597107291289     104.050000000000
      9477    1      102.751718799896     106.158258142647     107.168770080000
      9478    2      103.653049661556     107.719409004017     105.609385040000
      9479    3      102.751718799896     106.158258142647     104.050000000000
      9480    4      105.455711394887     107.719409004017     107.168770080000
      9481    5      106.357042266559     106.158258142647     105.609385040000
      9482    6      105.455711394887     107.719409004017     104.050000000000
      9483    7      102.751718799896     109.280559855375     107.168770080000
      9484    8      103.653049661556     110.841710716745     105.609385040000
      9485    9      102.751718799896     109.280559855375     104.050000000000
      9486   10      105.455711394887     110.841710716745     107.168770080000
      9487   11      106.357042266559     109.280559855375     105.609385040000
      9488   12      105.455711394887     110.841710716745     104.050000000000
      9489    1       97.343733599901     112.402861568103     107.168770080000
      9490    2       98.245064461561     113.964012419461     105.609385040000
      9491    3       97.343733599901     112.402861568103     104.050000000000
      9492    4      100.047726194893     113.964012419461     107.168770080000
      9493    5      100.949057066564     112.402861568103     105.609385040000
      9494    6      100.047726194893     113.964012419461     104.050000000000
      9495    7       97.343733599901     115.525163280831     107.168770080000
      9496    8       98.245064461561     117.086314132189     105.609385040000
      9497    9       97.343733599901     115.525163280831     104.050000000000
      9498   10      100.047726194893     117.086314132189     107.168770080000
      9499   11      100.949057066564     115.525163280831     105.609385040000
      9500   12      100.047726194893     117.086314132189     104.050000000000
      9501    1       97.343733599901     118.647464983548     107.168770080000
      9502    2       98.245064461561     120.208615844917     105.609385040000
      9503    3       97.343733599901     118.647464983548     104.050000000000
      9504    4      100.047726194893     120.208615844917     107.168770080000
      9505    5      100.949057066564     118.647464983548     105.609385040000
      9506    6      100.047726194893     120.208615844917     104.050000000000
      9507    7       97.343733599901     121.769766696275     107.168770080000
      9508    8       98.245064461561     123.330917557645     105.609385040000
      9509    9       97.343733599901     121.769766696275     104.050000000000
      9510   10      100.047726194893     123.330917557645     107.168770080000
      9511   11      100.949057066564     121.769766696275     105.609385040000
      9512   12      100.047726194893     123.330917557645     104.050000000000
      9513    1      102.751718799896     112.402861568103     107.168770080000
      9514    2      103.653049661556     113.964012419461     105.609385040000
      9515    3      102.751718799896     112.402861568103     104.050000000000
      9516    4      105.455711394887     113.964012419461     107.168770080000
      9517    5      106.357042266559     112.402861568103     105.609385040000
      9518    6      105.455711394887     113.964012419461     104.050000000000
      9519    7      102.751718799896     115.525163280831     107.168770080000
      9520    8      103.653049661556     117.086314132189     105.609385040000
      9521    9      102.751718799896     115.525163280831     104.050000000000
      9522   10      105.455711394887     117.086314132189     107.168770080000
      9523   11      106.357042266559     115.525163280831     105.609385040000
      9524   12      105.455711394887     117.086314132189     104.050000000000
      9525    1      102.751718799896     118.647464983548     107.168770080000
      9526    2      103.653049661556     120.208615844917     105.609385040000
      9527    3      102.751718799896     118.647464983548     104.050000000000
      9528    4      105.455711394887     120.208615844917     107.168770080000
      9529    5      106.357042266559     118.647464983548     105.609385040000
      9530    6      105.455711394887     120.208615844917     104.050000000000
      9531    7      102.751718799896     121.769766696275     107.168770080000
      9532    8      103.653049661556     123.330917557645     105.609385040000
      9533    9      102.751718799896     121.769766696275     104.050000000000
      9534   10      105.455711394887     123.330917557645     107.168770080000
      9535   11      106.357042266559     121.769766696275     105.609385040000
      9536   12      105.455711394887     123.330917557645     104.050000000000
      9537    1       97.343733599901     124.892068409003     107.168770080000
      9538    2       98.245064461561     126.453219260362     105.609385040000
      9539    3       97.343733599901     124.892068409003     104.050000000000
      9540    4      100.047726194893     126.453219260362     107.168770080000
      9541    5      100.949057066564     124.892068409003     105.609385040000
      9542    6      100.047726194893     126.453219260362     104.050000000000
      9543    7       97.343733599901     128.014370121731     107.168770080000
      9544    8       98.245064461561     129.575520973090     105.609385040000
      9545    9       97.343733599901     128.014370121731     104.050000000000
      9546   10      100.047726194893     129.575520973090     107.168770080000
      9547   11      100.949057066564     128.014370121731     105.609385040000
      9548   12      100.047726194893     129.575520973090     104.050000000000
      9549    1       97.343733599901     131.136671824448     107.168770080000
      9550    2       98.245064461561     132.697822685817     105.609385040000
      9551    3       97.343733599901     131.136671824448     104.050000000000
      9552    4      100.047726194893     132.697822685817     107.168770080000
      9553    5      100.949057066564     131.136671824448     105.609385040000
      9554    6      100.047726194893     132.697822685817     104.050000000000
      9555    7       97.343733599901     134.258973537176     107.168770080000
      9556    8       98.245064461561     135.820124398545     105.609385040000
      9557    9       97.343733599901     134.258973537176     104.050000000000
      9558   10      100.047726194893     135.820124398545     107.168770080000
      9559   11      100.949057066564     134.258973537176     105.609385040000
      9560   12      100.047726194893     135.820124398545     104.050000000000
      9561    1      102.751718799896     124.892068409003     107.168770080000
      9562    2      103.653049661556     126.453219260362     105.609385040000
      9563    3      102.751718799896     124.892068409003     104.050000000000
      9564    4      105.455711394887     126.453219260362     107.168770080000
      9565    5      106.357042266559     124.892068409003     105.609385040000
      9566    6      105.455711394887     126.453219260362     104.050000000000
      9567    7      102.751718799896     128.014370121731     107.168770080000
      9568    8      103.653049661556     129.575520973090     105.609385040000
      9569    9      102.751718799896     128.014370121731     104.050000000000
      9570   10      105.455711394887     129.575520973090     107.168770080000
      9571   11      106.357042266559     128.014370121731     105.609385040000
      9572   12      105.455711394887     129.575520973090     104.050000000000
      9573    1      102.751718799896     131.136671824448     107.168770080000
      9574    2      103.653049661556     132.697822685817     105.609385040000
      9575    3      102.751718799896     131.136671824448     104.050000000000
      9576    4      105.455711394887     132.697822685817     107.168770080000
      9577    5      106.357042266559     131.136671824448     105.609385040000
      9578    6      105.455711394887     132.697822685817     104.050000000000
      9579    7      102.751718799896     134.258973537176     107.168770080000
      9580    8      103.653049661556     135.820124398545     105.609385040000
      9581    9      102.751718799896     134.258973537176     104.050000000000
      9582   10      105.455711394887     135.820124398545     107.168770080000
      9583   11      106.357042266559     134.258973537176     105.609385040000
      9584   12      105.455711394887     135.820124398545     104.050000000000
      9585    1       97.343733599901     137.381275249904     107.168770080000
      9586    2       98.245064461561     138.942426101262     105.609385040000
      9587    3       97.343733599901     137.381275249904     104.050000000000
      9588    4      100.047726194893     138.942426101262     107.168770080000
      9589    5      100.949057066564     137.381275249904     105.609385040000
      9590    6      100.047726194893     138.942426101262     104.050000000000
      9591    7       97.343733599901     140.503576962632     107.168770080000
      9592    8       98.245064461561     142.064727813990     105.609385040000
      9593    9       97.343733599901     140.503576962632     104.050000000000
      9594   10      100.047726194893     142.064727813990     107.168770080000
      9595   11      100.949057066564     140.503576962632     105.609385040000
      9596   12      100.047726194893     142.064727813990     104.050000000000
      9597    1       97.343733599901     143.625878665348     107.168770080000
      9598    2       98.245064461561     145.187029526718     105.609385040000
      9599    3       97.343733599901     143.625878665348     104.050000000000
      9600    4      100.047726194893     145.187029526718     107.168770080000
      9601    5      100.949057066564     143.625878665348     105.609385040000
      9602    6      100.047726194893     145.187029526718     104.050000000000
      9603    7       97.343733599901     146.748180378076     107.168770080000
      9604    8       98.245064461561     148.309331239446     105.609385040000
      9605    9       97.343733599901     146.748180378076     104.050000000000
      9606   10      100.047726194893     148.309331239446     107.168770080000
      9607   11      100.949057066564     146.748180378076     105.609385040000
      9608   12      100.047726194893     148.309331239446     104.050000000000
      9609    1      102.751718799896     137.381275249904     107.168770080000
      9610    2      103.653049661556     138.942426101262     105.609385040000
      9611    3      102.751718799896     137.381275249904     104.050000000000
      9612    4      105.455711394887     138.942426101262     107.168770080000
      9613    5      106.357042266559     137.381275249904     105.609385040000
      9614    6      105.455711394887     138.942426101262     104.050000000000
      9615    7      102.751718799896     140.503576962632     107.168770080000
      9616    8      103.653049661556     142.064727813990     105.609385040000
      9617    9      102.751718799896     140.503576962632     104.050000000000
      9618   10      105.455711394887     142.064727813990     107.168770080000
      9619   11      106.357042266559     140.503576962632     105.609385040000
      9620   12      105.455711394887     142.064727813990     104.050000000000
      9621    1      102.751718799896     143.625878665348     107.168770080000
      9622    2      103.653049661556     145.187029526718     105.609385040000
      9623    3      102.751718799896     143.625878665348     104.050000000000
      9624    4      105.455711394887     145.187029526718     107.168770080000
      9625    5      106.357042266559     143.625878665348     105.609385040000
      9626    6      105.455711394887     145.187029526718     104.050000000000
      9627    7      102.751718799896     146.748180378076     107.168770080000
      9628    8      103.653049661556     148.309331239446     105.609385040000
      9629    9      102.751718799896     146.748180378076     104.050000000000
      9630   10      105.455711394887     148.309331239446     107.168770080000
      9631   11      106.357042266559     146.748180378076     105.609385040000
      9632   12      105.455711394887     148.309331239446     104.050000000000
      9633    1      108.159703999890       0.000000000000     107.168770080000
      9634    2      109.061034861551       1.561150851358     105.609385040000
      9635    3      108.159703999890       0.000000000000     104.050000000000
      9636    4      110.863696594882       1.561150851358     107.168770080000
      9637    5      111.765027466553       0.000000000000     105.609385040000
      9638    6      110.863696594882       1.561150851358     104.050000000000
      9639    7      108.159703999890       3.122301712728     107.168770080000
      9640    8      109.061034861551       4.683452564086     105.609385040000
      9641    9      108.159703999890       3.122301712728     104.050000000000
      9642   10      110.863696594882       4.683452564086     107.168770080000
      9643   11      111.765027466553       3.122301712728     105.609385040000
      9644   12      110.863696594882       4.683452564086     104.050000000000
      9645    1      108.159703999890       6.244603415445     107.168770080000
      9646    2      109.061034861551       7.805754276814     105.609385040000
      9647    3      108.159703999890       6.244603415445     104.050000000000
      9648    4      110.863696594882       7.805754276814     107.168770080000
      9649    5      111.765027466553       6.244603415445     105.609385040000
      9650    6      110.863696594882       7.805754276814     104.050000000000
      9651    7      108.159703999890       9.366905128172     107.168770080000
      9652    8      109.061034861551      10.928055989542     105.609385040000
      9653    9      108.159703999890       9.366905128172     104.050000000000
      9654   10      110.863696594882      10.928055989542     107.168770080000
      9655   11      111.765027466553       9.366905128172     105.609385040000
      9656   12      110.863696594882      10.928055989542     104.050000000000
      9657    1      113.567689199885       0.000000000000     107.168770080000
      9658    2      114.469020061545       1.561150851358     105.609385040000
      9659    3      113.567689199885       0.000000000000     104.050000000000
      9660    4      116.271681794877       1.561150851358     107.168770080000
      9661    5      117.173012666548       0.000000000000     105.609385040000
      9662    6      116.271681794877       1.561150851358     104.050000000000
      9663    7      113.567689199885       3.122301712728     107.168770080000
      9664    8      114.469020061545       4.683452564086     105.609385040000
      9665    9      113.567689199885       3.122301712728     104.050000000000
      9666   10      116.271681794877       4.683452564086     107.168770080000
      9667   11      117.173012666548       3.122301712728     105.609385040000
      9668   12      116.271681794877       4.683452564086     104.050000000000
      9669    1      113.567689199885       6.244603415445     107.168770080000
      9670    2      114.469020061545       7.805754276814     105.609385040000
      9671    3      113.567689199885       6.244603415445     104.050000000000
      9672    4      116.271681794877       7.805754276814     107.168770080000
      9673    5      117.173012666548       6.244603415445     105.609385040000
      9674    6      116.271681794877       7.805754276814     104.050000000000
      9675    7      113.567689199885       9.366905128172     107.168770080000
      9676    8      114.469020061545      10.928055989542     105.609385040000
      9677    9      113.567689199885       9.366905128172     104.050000000000
      9678   10      116.271681794877      10.928055989542     107.168770080000
      9679   11      117.173012666548       9.366905128172     105.609385040000
      9680   12      116.271681794877      10.928055989542     104.050000000000
      9681    1      108.159703999890      12.489206840900     107.168770080000
      9682    2      109.061034861551      14.050357692259     105.609385040000
      9683    3      108.159703999890      12.489206840900     104.050000000000
      9684    4      110.863696594882      14.050357692259     107.168770080000
      9685    5      111.765027466553      12.489206840900     105.609385040000
      9686    6      110.863696594882      14.050357692259     104.050000000000
      9687    7      108.159703999890      15.611508553628     107.168770080000
      9688    8      109.061034861551      17.172659404987     105.609385040000
      9689    9      108.159703999890      15.611508553628     104.050000000000
      9690   10      110.863696594882      17.172659404987     107.168770080000
      9691   11      111.765027466553      15.611508553628     105.609385040000
      9692   12      110.863696594882      17.172659404987     104.050000000000
      9693    1      108.159703999890      18.733810256345     107.168770080000
      9694    2      109.061034861551      20.294961117714     105.609385040000
      9695    3      108.159703999890      18.733810256345     104.050000000000
      9696    4      110.863696594882      20.294961117714     107.168770080000
      9697    5      111.765027466553      18.733810256345     105.609385040000
      9698    6      110.863696594882      20.294961117714     104.050000000000
      9699    7      108.159703999890      21.856111969073     107.168770080000
      9700    8      109.061034861551      23.417262830442     105.609385040000
      9701    9      108.159703999890      21.856111969073     104.050000000000
      9702   10      110.863696594882      23.417262830442     107.168770080000
      9703   11      111.765027466553      21.856111969073     105.609385040000
      9704   12      110.863696594882      23.417262830442     104.050000000000
      9705    1      113.567689199885      12.489206840900     107.168770080000
      9706    2      114.469020061545      14.050357692259     105.609385040000
      9707    3      113.567689199885      12.489206840900     104.050000000000
      9708    4      116.271681794877      14.050357692259     107.168770080000
      9709    5      117.173012666548      12.489206840900     105.609385040000
      9710    6      116.271681794877      14.050357692259     104.050000000000
      9711    7      113.567689199885      15.611508553628     107.168770080000
      9712    8      114.469020061545      17.172659404987     105.609385040000
      9713    9      113.567689199885      15.611508553628     104.050000000000
      9714   10      116.271681794877      17.172659404987     107.168770080000
      9715   11      117.173012666548      15.611508553628     105.609385040000
      9716   12      116.271681794877      17.172659404987     104.050000000000
      9717    1      113.567689199885      18.733810256345     107.168770080000
      9718    2      114.469020061545      20.294961117714     105.609385040000
      9719    3      113.567689199885      18.733810256345     104.050000000000
      9720    4      116.271681794877      20.294961117714     107.168770080000
      9721    5      117.173012666548      18.733810256345     105.609385040000
      9722    6      116.271681794877      20.294961117714     104.050000000000
      9723    7      113.567689199885      21.856111969073     107.168770080000
      9724    8      114.469020061545      23.417262830442     105.609385040000
      9725    9      113.567689199885      21.856111969073     104.050000000000
      9726   10      116.271681794877      23.417262830442     107.168770080000
      9727   11      117.173012666548      21.856111969073     105.609385040000
      9728   12      116.271681794877      23.417262830442     104.050000000000
      9729    1      108.159703999890      24.978413681801     107.168770080000
      9730    2      109.061034861551      26.539564533159     105.609385040000
      9731    3      108.159703999890      24.978413681801     104.050000000000
      9732    4      110.863696594882      26.539564533159     107.168770080000
      9733    5      111.765027466553      24.978413681801     105.609385040000
      9734    6      110.863696594882      26.539564533159     104.050000000000
      9735    7      108.159703999890      28.100715394529     107.168770080000
      9736    8      109.061034861551      29.661866245887     105.609385040000
      9737    9      108.159703999890      28.100715394529     104.050000000000
      9738   10      110.863696594882      29.661866245887     107.168770080000
      9739   11      111.765027466553      28.100715394529     105.609385040000
      9740   12      110.863696594882      29.661866245887     104.050000000000
      9741    1      108.159703999890      31.223017097245     107.168770080000
      9742    2      109.061034861551      32.784167958615     105.609385040000
      9743    3      108.159703999890      31.223017097245     104.050000000000
      9744    4      110.863696594882      32.784167958615     107.168770080000
      9745    5      111.765027466553      31.223017097245     105.609385040000
      9746    6      110.863696594882      32.784167958615     104.050000000000
      9747    7      108.159703999890      34.345318809973     107.168770080000
      9748    8      109.061034861551      35.906469671343     105.609385040000
      9749    9      108.159703999890      34.345318809973     104.050000000000
      9750   10      110.863696594882      35.906469671343     107.168770080000
      9751   11      111.765027466553      34.345318809973     105.609385040000
      9752   12      110.863696594882      35.906469671343     104.050000000000
      9753    1      113.567689199885      24.978413681801     107.168770080000
      9754    2      114.469020061545      26.539564533159     105.609385040000
      9755    3      113.567689199885      24.978413681801     104.050000000000
      9756    4      116.271681794877      26.539564533159     107.168770080000
      9757    5      117.173012666548      24.978413681801     105.609385040000
      9758    6      116.271681794877      26.539564533159     104.050000000000
      9759    7      113.567689199885      28.100715394529     107.168770080000
      9760    8      114.469020061545      29.661866245887     105.609385040000
      9761    9      113.567689199885      28.100715394529     104.050000000000
      9762   10      116.271681794877      29.661866245887     107.168770080000
      9763   11      117.173012666548      28.100715394529     105.609385040000
      9764   12      116.271681794877      29.661866245887     104.050000000000
      9765    1      113.567689199885      31.223017097245     107.168770080000
      9766    2      114.469020061545      32.784167958615     105.609385040000
      9767    3      113.567689199885      31.223017097245     104.050000000000
      9768    4      116.271681794877      32.784167958615     107.168770080000
      9769    5      117.173012666548      31.223017097245     105.609385040000
      9770    6      116.271681794877      32.784167958615     104.050000000000
      9771    7      113.567689199885      34.345318809973     107.168770080000
      9772    8      114.469020061545      35.906469671343     105.609385040000
      9773    9      113.567689199885      34.345318809973     104.050000000000
      9774   10      116.271681794877      35.906469671343     107.168770080000
      9775   11      117.173012666548      34.345318809973     105.609385040000
      9776   12      116.271681794877      35.906469671343     104.050000000000
      9777    1      108.159703999890      37.467620522701     107.168770080000
      9778    2      109.061034861551      39.028771374059     105.609385040000
      9779    3      108.159703999890      37.467620522701     104.050000000000
      9780    4      110.863696594882      39.028771374059     107.168770080000
      9781    5      111.765027466553      37.467620522701     105.609385040000
      9782    6      110.863696594882      39.028771374059     104.050000000000
      9783    7      108.159703999890      40.589922235429     107.168770080000
      9784    8      109.061034861551      42.151073086787     105.609385040000
      9785    9      108.159703999890      40.589922235429     104.050000000000
      9786   10      110.863696594882      42.151073086787     107.168770080000
      9787   11      111.765027466553      40.589922235429     105.609385040000
      9788   12      110.863696594882      42.151073086787     104.050000000000
      9789    1      108.159703999890      43.712223938146     107.168770080000
      9790    2      109.061034861551      45.273374799515     105.609385040000
      9791    3      108.159703999890      43.712223938146     104.050000000000
      9792    4      110.863696594882      45.273374799515     107.168770080000
      9793    5      111.765027466553      43.712223938146     105.609385040000
      9794    6      110.863696594882      45.273374799515     104.050000000000
      9795    7      108.159703999890      46.834525650873     107.168770080000
      9796    8      109.061034861551      48.395676512243     105.609385040000
      9797    9      108.159703999890      46.834525650873     104.050000000000
      9798   10      110.863696594882      48.395676512243     107.168770080000
      9799   11      111.765027466553      46.834525650873     105.609385040000
      9800   12      110.863696594882      48.395676512243     104.050000000000
      9801    1      113.567689199885      37.467620522701     107.168770080000
      9802    2      114.469020061545      39.028771374059     105.609385040000
      9803    3      113.567689199885      37.467620522701     104.050000000000
      9804    4      116.271681794877      39.028771374059     107.168770080000
      9805    5      117.173012666548      37.467620522701     105.609385040000
      9806    6      116.271681794877      39.028771374059     104.050000000000
      9807    7      113.567689199885      40.589922235429     107.168770080000
      9808    8      114.469020061545      42.151073086787     105.609385040000
      9809    9      113.567689199885      40.589922235429     104.050000000000
      9810   10      116.271681794877      42.151073086787     107.168770080000
      9811   11      117.173012666548      40.589922235429     105.609385040000
      9812   12      116.271681794877      42.151073086787     104.050000000000
      9813    1      113.567689199885      43.712223938146     107.168770080000
      9814    2      114.469020061545      45.273374799515     105.609385040000
      9815    3      113.567689199885      43.712223938146     104.050000000000
      9816    4      116.271681794877      45.273374799515     107.168770080000
      9817    5      117.173012666548      43.712223938146     105.609385040000
      9818    6      116.271681794877      45.273374799515     104.050000000000
      9819    7      113.567689199885      46.834525650873     107.168770080000
      9820    8      114.469020061545      48.395676512243     105.609385040000
      9821    9      113.567689199885      46.834525650873     104.050000000000
      9822   10      116.271681794877      48.395676512243     107.168770080000
      9823   11      117.173012666548      46.834525650873     105.609385040000
      9824   12      116.271681794877      48.395676512243     104.050000000000
      9825    1      108.159703999890      49.956827363601     107.168770080000
      9826    2      109.061034861551      51.517978214960     105.609385040000
      9827    3      108.159703999890      49.956827363601     104.050000000000
      9828    4      110.863696594882      51.517978214960     107.168770080000
      9829    5      111.765027466553      49.956827363601     105.609385040000
      9830    6      110.863696594882      51.517978214960     104.050000000000
      9831    7      108.159703999890      53.079129076329     107.168770080000
      9832    8      109.061034861551      54.640279927688     105.609385040000
      9833    9      108.159703999890      53.079129076329     104.050000000000
      9834   10      110.863696594882      54.640279927688     107.168770080000
      9835   11      111.765027466553      53.079129076329     105.609385040000
      9836   12      110.863696594882      54.640279927688     104.050000000000
      9837    1      108.159703999890      56.201430779046     107.168770080000
      9838    2      109.061034861551      57.762581640415     105.609385040000
      9839    3      108.159703999890      56.201430779046     104.050000000000
      9840    4      110.863696594882      57.762581640415     107.168770080000
      9841    5      111.765027466553      56.201430779046     105.609385040000
      9842    6      110.863696594882      57.762581640415     104.050000000000
      9843    7      108.159703999890      59.323732491774     107.168770080000
      9844    8      109.061034861551      60.884883353143     105.609385040000
      9845    9      108.159703999890      59.323732491774     104.050000000000
      9846   10      110.863696594882      60.884883353143     107.168770080000
      9847   11      111.765027466553      59.323732491774     105.609385040000
      9848   12      110.863696594882      60.884883353143     104.050000000000
      9849    1      113.567689199885      49.956827363601     107.168770080000
      9850    2      114.469020061545      51.517978214960     105.609385040000
      9851    3      113.567689199885      49.956827363601     104.050000000000
      9852    4      116.271681794877      51.517978214960     107.168770080000
      9853    5      117.173012666548      49.956827363601     105.609385040000
      9854    6      116.271681794877      51.517978214960     104.050000000000
      9855    7      113.567689199885      53.079129076329     107.168770080000
      9856    8      114.469020061545      54.640279927688     105.609385040000
      9857    9      113.567689199885      53.079129076329     104.050000000000
      9858   10      116.271681794877      54.640279927688     107.168770080000
      9859   11      117.173012666548      53.079129076329     105.609385040000
      9860   12      116.271681794877      54.640279927688     104.050000000000
      9861    1      113.567689199885      56.201430779046     107.168770080000
      9862    2      114.469020061545      57.762581640415     105.609385040000
      9863    3      113.567689199885      56.201430779046     104.050000000000
      9864    4      116.271681794877      57.762581640415     107.168770080000
      9865    5      117.173012666548      56.201430779046     105.609385040000
      9866    6      116.271681794877      57.762581640415     104.050000000000
      9867    7      113.567689199885      59.323732491774     107.168770080000
      9868    8      114.469020061545      60.884883353143     105.609385040000
      9869    9      113.567689199885      59.323732491774     104.050000000000
      9870   10      116.271681794877      60.884883353143     107.168770080000
      9871   11      117.173012666548      59.323732491774     105.609385040000
      9872   12      116.271681794877      60.884883353143     104.050000000000
      9873    1      108.159703999890      62.446034204502     107.168770080000
      9874    2      109.061034861551      64.007185055860     105.609385040000
      9875    3      108.159703999890      62.446034204502     104.050000000000
      9876    4      110.863696594882      64.007185055860     107.168770080000
      9877    5      111.765027466553      62.446034204502     105.609385040000
      9878    6      110.863696594882      64.007185055860     104.050000000000
      9879    7      108.159703999890      65.568335917230     107.168770080000
      9880    8      109.061034861551      67.129486768588     105.609385040000
      9881    9      108.159703999890      65.568335917230     104.050000000000
      9882   10      110.863696594882      67.129486768588     107.168770080000
      9883   11      111.765027466553      65.568335917230     105.609385040000
      9884   12      110.863696594882      67.129486768588     104.050000000000
      9885    1      108.159703999890      68.690637619946     107.168770080000
      9886    2      109.061034861551      70.251788481316     105.609385040000
      9887    3      108.159703999890      68.690637619946     104.050000000000
      9888    4      110.863696594882      70.251788481316     107.168770080000
      9889    5      111.765027466553      68.690637619946     105.609385040000
      9890    6      110.863696594882      70.251788481316     104.050000000000
      9891    7      108.159703999890      71.812939332674     107.168770080000
      9892    8      109.061034861551      73.374090194044     105.609385040000
      9893    9      108.159703999890      71.812939332674     104.050000000000
      9894   10      110.863696594882      73.374090194044     107.168770080000
      9895   11      111.765027466553      71.812939332674     105.609385040000
      9896   12      110.863696594882      73.374090194044     104.050000000000
      9897    1      113.567689199885      62.446034204502     107.168770080000
      9898    2      114.469020061545      64.007185055860     105.609385040000
      9899    3      113.567689199885      62.446034204502     104.050000000000
      9900    4      116.271681794877      64.007185055860     107.168770080000
      9901    5      117.173012666548      62.446034204502     105.609385040000
      9902    6      116.271681794877      64.007185055860     104.050000000000
      9903    7      113.567689199885      65.568335917230     107.168770080000
      9904    8      114.469020061545      67.129486768588     105.609385040000
      9905    9      113.567689199885      65.568335917230     104.050000000000
      9906   10      116.271681794877      67.129486768588     107.168770080000
      9907   11      117.173012666548      65.568335917230     105.609385040000
      9908   12      116.271681794877      67.129486768588     104.050000000000
      9909    1      113.567689199885      68.690637619946     107.168770080000
      9910    2      114.469020061545      70.251788481316     105.609385040000
      9911    3      113.567689199885      68.690637619946     104.050000000000
      9912    4      116.271681794877      70.251788481316     107.168770080000
      9913    5      117.173012666548      68.690637619946     105.609385040000
      9914    6      116.271681794877      70.251788481316     104.050000000000
      9915    7      113.567689199885      71.812939332674     107.168770080000
      9916    8      114.469020061545      73.374090194044     105.609385040000
      9917    9      113.567689199885      71.812939332674     104.050000000000
      9918   10      116.271681794877      73.374090194044     107.168770080000
      9919   11      117.173012666548      71.812939332674     105.609385040000
      9920   12      116.271681794877      73.374090194044     104.050000000000
      9921    1      108.159703999890      74.935241045402     107.168770080000
      9922    2      109.061034861551      76.496391896760     105.609385040000
      9923    3      108.159703999890      74.935241045402     104.050000000000
      9924    4      110.863696594882      76.496391896760     107.168770080000
      9925    5      111.765027466553      74.935241045402     105.609385040000
      9926    6      110.863696594882      76.496391896760     104.050000000000
      9927    7      108.159703999890      78.057542758130     107.168770080000
      9928    8      109.061034861551      79.618693609488     105.609385040000
      9929    9      108.159703999890      78.057542758130     104.050000000000
      9930   10      110.863696594882      79.618693609488     107.168770080000
      9931   11      111.765027466553      78.057542758130     105.609385040000
      9932   12      110.863696594882      79.618693609488     104.050000000000
      9933    1      108.159703999890      81.179844460847     107.168770080000
      9934    2      109.061034861551      82.740995322216     105.609385040000
      9935    3      108.159703999890      81.179844460847     104.050000000000
      9936    4      110.863696594882      82.740995322216     107.168770080000
      9937    5      111.765027466553      81.179844460847     105.609385040000
      9938    6      110.863696594882      82.740995322216     104.050000000000
      9939    7      108.159703999890      84.302146173574     107.168770080000
      9940    8      109.061034861551      85.863297034944     105.609385040000
      9941    9      108.159703999890      84.302146173574     104.050000000000
      9942   10      110.863696594882      85.863297034944     107.168770080000
      9943   11      111.765027466553      84.302146173574     105.609385040000
      9944   12      110.863696594882      85.863297034944     104.050000000000
      9945    1      113.567689199885      74.935241045402     107.168770080000
      9946    2      114.469020061545      76.496391896760     105.609385040000
      9947    3      113.567689199885      74.935241045402     104.050000000000
      9948    4      116.271681794877      76.496391896760     107.168770080000
      9949    5      117.173012666548      74.935241045402     105.609385040000
      9950    6      116.271681794877      76.496391896760     104.050000000000
      9951    7      113.567689199885      78.057542758130     107.168770080000
      9952    8      114.469020061545      79.618693609488     105.609385040000
      9953    9      113.567689199885      78.057542758130     104.050000000000
      9954   10      116.271681794877      79.618693609488     107.168770080000
      9955   11      117.173012666548      78.057542758130     105.609385040000
      9956   12      116.271681794877      79.618693609488     104.050000000000
      9957    1      113.567689199885      81.179844460847     107.168770080000
      9958    2      114.469020061545      82.740995322216     105.609385040000
      9959    3      113.567689199885      81.179844460847     104.050000000000
      9960    4      116.271681794877      82.740995322216     107.168770080000
      9961    5      117.173012666548      81.179844460847     105.609385040000
      9962    6      116.271681794877      82.740995322216     104.050000000000
      9963    7      113.567689199885      84.302146173574     107.168770080000
      9964    8      114.469020061545      85.863297034944     105.609385040000
      9965    9      113.567689199885      84.302146173574     104.050000000000
      9966   10      116.271681794877      85.863297034944     107.168770080000
      9967   11      117.173012666548      84.302146173574     105.609385040000
      9968   12      116.271681794877      85.863297034944     104.050000000000
      9969    1      108.159703999890      87.424447886302     107.168770080000
      9970    2      109.061034861551      88.985598737661     105.609385040000
      9971    3      108.159703999890      87.424447886302     104.050000000000
      9972    4      110.863696594882      88.985598737661     107.168770080000
      9973    5      111.765027466553      87.424447886302     105.609385040000
      9974    6      110.863696594882      88.985598737661     104.050000000000
      9975    7      108.159703999890      90.546749599030     107.168770080000
      9976    8      109.061034861551      92.107900450389     105.609385040000
      9977    9      108.159703999890      90.546749599030     104.050000000000
      9978   10      110.863696594882      92.107900450389     107.168770080000
      9979   11      111.765027466553      90.546749599030     105.609385040000
      9980   12      110.863696594882      92.107900450389     104.050000000000
      9981    1      108.159703999890      93.669051301747     107.168770080000
      9982    2      109.061034861551      95.230202163116     105.609385040000
      9983    3      108.159703999890      93.669051301747     104.050000000000
      9984    4      110.863696594882      95.230202163116     107.168770080000
      9985    5      111.765027466553      93.669051301747     105.609385040000
      9986    6      110.863696594882      95.230202163116     104.050000000000
      9987    7      108.159703999890      96.791353014475     107.168770080000
      9988    8      109.061034861551      98.352503875844     105.609385040000
      9989    9      108.159703999890      96.791353014475     104.050000000000
      9990   10      110.863696594882      98.352503875844     107.168770080000
      9991   11      111.765027466553      96.791353014475     105.609385040000
      9992   12      110.863696594882      98.352503875844     104.050000000000
      9993    1      113.567689199885      87.424447886302     107.168770080000
      9994    2      114.469020061545      88.985598737661     105.609385040000
      9995    3      113.567689199885      87.424447886302     104.050000000000
      9996    4      116.271681794877      88.985598737661     107.168770080000
      9997    5      117.173012666548      87.424447886302     105.609385040000
      9998    6      116.271681794877      88.985598737661     104.050000000000
      9999    7      113.567689199885      90.546749599030     107.168770080000
     10000    8      114.469020061545      92.107900450389     105.609385040000
     10001    9      113.567689199885      90.546749599030     104.050000000000
     10002   10      116.271681794877      92.107900450389     107.168770080000
     10003   11      117.173012666548      90.546749599030     105.609385040000
     10004   12      116.271681794877      92.107900450389     104.050000000000
     10005    1      113.567689199885      93.669051301747     107.168770080000
     10006    2      114.469020061545      95.230202163116     105.609385040000
     10007    3      113.567689199885      93.669051301747     104.050000000000
     10008    4      116.271681794877      95.230202163116     107.168770080000
     10009    5      117.173012666548      93.669051301747     105.609385040000
     10010    6      116.271681794877      95.230202163116     104.050000000000
     10011    7      113.567689199885      96.791353014475     107.168770080000
     10012    8      114.469020061545      98.352503875844     105.609385040000
     10013    9      113.567689199885      96.791353014475     104.050000000000
     10014   10      116.271681794877      98.352503875844     107.168770080000
     10015   11      117.173012666548      96.791353014475     105.609385040000
     10016   12      116.271681794877      98.352503875844     104.050000000000
     10017    1      108.159703999890      99.913654727203     107.168770080000
     10018    2      109.061034861551     101.474805578561     105.609385040000
     10019    3      108.159703999890      99.913654727203     104.050000000000
     10020    4      110.863696594882     101.474805578561     107.168770080000
     10021    5      111.765027466553      99.913654727203     105.609385040000
     10022    6      110.863696594882     101.474805578561     104.050000000000
     10023    7      108.159703999890     103.035956439931     107.168770080000
     10024    8      109.061034861551     104.597107291289     105.609385040000
     10025    9      108.159703999890     103.035956439931     104.050000000000
     10026   10      110.863696594882     104.597107291289     107.168770080000
     10027   11      111.765027466553     103.035956439931     105.609385040000
     10028   12      110.863696594882     104.597107291289     104.050000000000
     10029    1      108.159703999890     106.158258142647     107.168770080000
     10030    2      109.061034861551     107.719409004017     105.609385040000
     10031    3      108.159703999890     106.158258142647     104.050000000000
     10032    4      110.863696594882     107.719409004017     107.168770080000
     10033    5      111.765027466553     106.158258142647     105.609385040000
     10034    6      110.863696594882     107.719409004017     104.050000000000
     10035    7      108.159703999890     109.280559855375     107.168770080000
     10036    8      109.061034861551     110.841710716745     105.609385040000
     10037    9      108.159703999890     109.280559855375     104.050000000000
     10038   10      110.863696594882     110.841710716745     107.168770080000
     10039   11      111.765027466553     109.280559855375     105.609385040000
     10040   12      110.863696594882     110.841710716745     104.050000000000
     10041    1      113.567689199885      99.913654727203     107.168770080000
     10042    2      114.469020061545     101.474805578561     105.609385040000
     10043    3      113.567689199885      99.913654727203     104.050000000000
     10044    4      116.271681794877     101.474805578561     107.168770080000
     10045    5      117.173012666548      99.913654727203     105.609385040000
     10046    6      116.271681794877     101.474805578561     104.050000000000
     10047    7      113.567689199885     103.035956439931     107.168770080000
     10048    8      114.469020061545     104.597107291289     105.609385040000
     10049    9      113.567689199885     103.035956439931     104.050000000000
     10050   10      116.271681794877     104.597107291289     107.168770080000
     10051   11      117.173012666548     103.035956439931     105.609385040000
     10052   12      116.271681794877     104.597107291289     104.050000000000
     10053    1      113.567689199885     106.158258142647     107.168770080000
     10054    2      114.469020061545     107.719409004017     105.609385040000
     10055    3      113.567689199885     106.158258142647     104.050000000000
     10056    4      116.271681794877     107.719409004017     107.168770080000
     10057    5      117.173012666548     106.158258142647     105.609385040000
     10058    6      116.271681794877     107.719409004017     104.050000000000
     10059    7      113.567689199885     109.280559855375     107.168770080000
     10060    8      114.469020061545     110.841710716745     105.609385040000
     10061    9      113.567689199885     109.280559855375     104.050000000000
     10062   10      116.271681794877     110.841710716745     107.168770080000
     10063   11      117.173012666548     109.280559855375     105.609385040000
     10064   12      116.271681794877     110.841710716745     104.050000000000
     10065    1      108.159703999890     112.402861568103     107.168770080000
     10066    2      109.061034861551     113.964012419461     105.609385040000
     10067    3      108.159703999890     112.402861568103     104.050000000000
     10068    4      110.863696594882     113.964012419461     107.168770080000
     10069    5      111.765027466553     112.402861568103     105.609385040000
     10070    6      110.863696594882     113.964012419461     104.050000000000
     10071    7      108.159703999890     115.525163280831     107.168770080000
     10072    8      109.061034861551     117.086314132189     105.609385040000
     10073    9      108.159703999890     115.525163280831     104.050000000000
     10074   10      110.863696594882     117.086314132189     107.168770080000
     10075   11      111.765027466553     115.525163280831     105.609385040000
     10076   12      110.863696594882     117.086314132189     104.050000000000
     10077    1      108.159703999890     118.647464983548     107.168770080000
     10078    2      109.061034861551     120.208615844917     105.609385040000
     10079    3      108.159703999890     118.647464983548     104.050000000000
     10080    4      110.863696594882     120.208615844917     107.168770080000
     10081    5      111.765027466553     118.647464983548     105.609385040000
     10082    6      110.863696594882     120.208615844917     104.050000000000
     10083    7      108.159703999890     121.769766696275     107.168770080000
     10084    8      109.061034861551     123.330917557645     105.609385040000
     10085    9      108.159703999890     121.769766696275     104.050000000000
     10086   10      110.863696594882     123.330917557645     107.168770080000
     10087   11      111.765027466553     121.769766696275     105.609385040000
     10088   12      110.863696594882     123.330917557645     104.050000000000
     10089    1      113.567689199885     112.402861568103     107.168770080000
     10090    2      114.469020061545     113.964012419461     105.609385040000
     10091    3      113.567689199885     112.402861568103     104.050000000000
     10092    4      116.271681794877     113.964012419461     107.168770080000
     10093    5      117.173012666548     112.402861568103     105.609385040000
     10094    6      116.271681794877     113.964012419461     104.050000000000
     10095    7      113.567689199885     115.525163280831     107.168770080000
     10096    8      114.469020061545     117.086314132189     105.609385040000
     10097    9      113.567689199885     115.525163280831     104.050000000000
     10098   10      116.271681794877     117.086314132189     107.168770080000
     10099   11      117.173012666548     115.525163280831     105.609385040000
     10100   12      116.271681794877     117.086314132189     104.050000000000
     10101    1      113.567689199885     118.647464983548     107.168770080000
     10102    2      114.469020061545     120.208615844917     105.609385040000
     10103    3      113.567689199885     118.647464983548     104.050000000000
     10104    4      116.271681794877     120.208615844917     107.168770080000
     10105    5      117.173012666548     118.647464983548     105.609385040000
     10106    6      116.271681794877     120.208615844917     104.050000000000
     10107    7      113.567689199885     121.769766696275     107.168770080000
     10108    8      114.469020061545     123.330917557645     105.609385040000
     10109    9      113.567689199885     121.769766696275     104.050000000000
     10110   10      116.271681794877     123.330917557645     107.168770080000
     10111   11      117.173012666548     121.769766696275     105.609385040000
     10112   12      116.271681794877     123.330917557645     104.050000000000
     10113    1      108.159703999890     124.892068409003     107.168770080000
     10114    2      109.061034861551     126.453219260362     105.609385040000
     10115    3      108.159703999890     124.892068409003     104.050000000000
     10116    4      110.863696594882     126.453219260362     107.168770080000
     10117    5      111.765027466553     124.892068409003     105.609385040000
     10118    6      110.863696594882     126.453219260362     104.050000000000
     10119    7      108.159703999890     128.014370121731     107.168770080000
     10120    8      109.061034861551     129.575520973090     105.609385040000
     10121    9      108.159703999890     128.014370121731     104.050000000000
     10122   10      110.863696594882     129.575520973090     107.168770080000
     10123   11      111.765027466553     128.014370121731     105.609385040000
     10124   12      110.863696594882     129.575520973090     104.050000000000
     10125    1      108.159703999890     131.136671824448     107.168770080000
     10126    2      109.061034861551     132.697822685817     105.609385040000
     10127    3      108.159703999890     131.136671824448     104.050000000000
     10128    4      110.863696594882     132.697822685817     107.168770080000
     10129    5      111.765027466553     131.136671824448     105.609385040000
     10130    6      110.863696594882     132.697822685817     104.050000000000
     10131    7      108.159703999890     134.258973537176     107.168770080000
     10132    8      109.061034861551     135.820124398545     105.609385040000
     10133    9      108.159703999890     134.258973537176     104.050000000000
     10134   10      110.863696594882     135.820124398545     107.168770080000
     10135   11      111.765027466553     134.258973537176     105.609385040000
     10136   12      110.863696594882     135.820124398545     104.050000000000
     10137    1      113.567689199885     124.892068409003     107.168770080000
     10138    2      114.469020061545     126.453219260362     105.609385040000
     10139    3      113.567689199885     124.892068409003     104.050000000000
     10140    4      116.271681794877     126.453219260362     107.168770080000
     10141    5      117.173012666548     124.892068409003     105.609385040000
     10142    6      116.271681794877     126.453219260362     104.050000000000
     10143    7      113.567689199885     128.014370121731     107.168770080000
     10144    8      114.469020061545     129.575520973090     105.609385040000
     10145    9      113.567689199885     128.014370121731     104.050000000000
     10146   10      116.271681794877     129.575520973090     107.168770080000
     10147   11      117.173012666548     128.014370121731     105.609385040000
     10148   12      116.271681794877     129.575520973090     104.050000000000
     10149    1      113.567689199885     131.136671824448     107.168770080000
     10150    2      114.469020061545     132.697822685817     105.609385040000
     10151    3      113.567689199885     131.136671824448     104.050000000000
     10152    4      116.271681794877     132.697822685817     107.168770080000
     10153    5      117.173012666548     131.136671824448     105.609385040000
     10154    6      116.271681794877     132.697822685817     104.050000000000
     10155    7      113.567689199885     134.258973537176     107.168770080000
     10156    8      114.469020061545     135.820124398545     105.609385040000
     10157    9      113.567689199885     134.258973537176     104.050000000000
     10158   10      116.271681794877     135.820124398545     107.168770080000
     10159   11      117.173012666548     134.258973537176     105.609385040000
     10160   12      116.271681794877     135.820124398545     104.050000000000
     10161    1      108.159703999890     137.381275249904     107.168770080000
     10162    2      109.061034861551     138.942426101262     105.609385040000
     10163    3      108.159703999890     137.381275249904     104.050000000000
     10164    4      110.863696594882     138.942426101262     107.168770080000
     10165    5      111.765027466553     137.381275249904     105.609385040000
     10166    6      110.863696594882     138.942426101262     104.050000000000
     10167    7      108.159703999890     140.503576962632     107.168770080000
     10168    8      109.061034861551     142.064727813990     105.609385040000
     10169    9      108.159703999890     140.503576962632     104.050000000000
     10170   10      110.863696594882     142.064727813990     107.168770080000
     10171   11      111.765027466553     140.503576962632     105.609385040000
     10172   12      110.863696594882     142.064727813990     104.050000000000
     10173    1      108.159703999890     143.625878665348     107.168770080000
     10174    2      109.061034861551     145.187029526718     105.609385040000
     10175    3      108.159703999890     143.625878665348     104.050000000000
     10176    4      110.863696594882     145.187029526718     107.168770080000
     10177    5      111.765027466553     143.625878665348     105.609385040000
     10178    6      110.863696594882     145.187029526718     104.050000000000
     10179    7      108.159703999890     146.748180378076     107.168770080000
     10180    8      109.061034861551     148.309331239446     105.609385040000
     10181    9      108.159703999890     146.748180378076     104.050000000000
     10182   10      110.863696594882     148.309331239446     107.168770080000
     10183   11      111.765027466553     146.748180378076     105.609385040000
     10184   12      110.863696594882     148.309331239446     104.050000000000
     10185    1      113.567689199885     137.381275249904     107.168770080000
     10186    2      114.469020061545     138.942426101262     105.609385040000
     10187    3      113.567689199885     137.381275249904     104.050000000000
     10188    4      116.271681794877     138.942426101262     107.168770080000
     10189    5      117.173012666548     137.381275249904     105.609385040000
     10190    6      116.271681794877     138.942426101262     104.050000000000
     10191    7      113.567689199885     140.503576962632     107.168770080000
     10192    8      114.469020061545     142.064727813990     105.609385040000
     10193    9      113.567689199885     140.503576962632     104.050000000000
     10194   10      116.271681794877     142.064727813990     107.168770080000
     10195   11      117.173012666548     140.503576962632     105.609385040000
     10196   12      116.271681794877     142.064727813990     104.050000000000
     10197    1      113.567689199885     143.625878665348     107.168770080000
     10198    2      114.469020061545     145.187029526718     105.609385040000
     10199    3      113.567689199885     143.625878665348     104.050000000000
     10200    4      116.271681794877     145.187029526718     107.168770080000
     10201    5      117.173012666548     143.625878665348     105.609385040000
     10202    6      116.271681794877     145.187029526718     104.050000000000
     10203    7      113.567689199885     146.748180378076     107.168770080000
     10204    8      114.469020061545     148.309331239446     105.609385040000
     10205    9      113.567689199885     146.748180378076     104.050000000000
     10206   10      116.271681794877     148.309331239446     107.168770080000
     10207   11      117.173012666548     146.748180378076     105.609385040000
     10208   12      116.271681794877     148.309331239446     104.050000000000
     10209    1      118.975674399879       0.000000000000     107.168770080000
     10210    2      119.877005261540       1.561150851358     105.609385040000
     10211    3      118.975674399879       0.000000000000     104.050000000000
     10212    4      121.679666994871       1.561150851358     107.168770080000
     10213    5      122.580997866542       0.000000000000     105.609385040000
     10214    6      121.679666994871       1.561150851358     104.050000000000
     10215    7      118.975674399879       3.122301712728     107.168770080000
     10216    8      119.877005261540       4.683452564086     105.609385040000
     10217    9      118.975674399879       3.122301712728     104.050000000000
     10218   10      121.679666994871       4.683452564086     107.168770080000
     10219   11      122.580997866542       3.122301712728     105.609385040000
     10220   12      121.679666994871       4.683452564086     104.050000000000
     10221    1      118.975674399879       6.244603415445     107.168770080000
     10222    2      119.877005261540       7.805754276814     105.609385040000
     10223    3      118.975674399879       6.244603415445     104.050000000000
     10224    4      121.679666994871       7.805754276814     107.168770080000
     10225    5      122.580997866542       6.244603415445     105.609385040000
     10226    6      121.679666994871       7.805754276814     104.050000000000
     10227    7      118.975674399879       9.366905128172     107.168770080000
     10228    8      119.877005261540      10.928055989542     105.609385040000
     10229    9      118.975674399879       9.366905128172     104.050000000000
     10230   10      121.679666994871      10.928055989542     107.168770080000
     10231   11      122.580997866542       9.366905128172     105.609385040000
     10232   12      121.679666994871      10.928055989542     104.050000000000
     10233    1      124.383659599874       0.000000000000     107.168770080000
     10234    2      125.284990461534       1.561150851358     105.609385040000
     10235    3      124.383659599874       0.000000000000     104.050000000000
     10236    4      127.087652194866       1.561150851358     107.168770080000
     10237    5      127.988983066537       0.000000000000     105.609385040000
     10238    6      127.087652194866       1.561150851358     104.050000000000
     10239    7      124.383659599874       3.122301712728     107.168770080000
     10240    8      125.284990461534       4.683452564086     105.609385040000
     10241    9      124.383659599874       3.122301712728     104.050000000000
     10242   10      127.087652194866       4.683452564086     107.168770080000
     10243   11      127.988983066537       3.122301712728     105.609385040000
     10244   12      127.087652194866       4.683452564086     104.050000000000
     10245    1      124.383659599874       6.244603415445     107.168770080000
     10246    2      125.284990461534       7.805754276814     105.609385040000
     10247    3      124.383659599874       6.244603415445     104.050000000000
     10248    4      127.087652194866       7.805754276814     107.168770080000
     10249    5      127.988983066537       6.244603415445     105.609385040000
     10250    6      127.087652194866       7.805754276814     104.050000000000
     10251    7      124.383659599874       9.366905128172     107.168770080000
     10252    8      125.284990461534      10.928055989542     105.609385040000
     10253    9      124.383659599874       9.366905128172     104.050000000000
     10254   10      127.087652194866      10.928055989542     107.168770080000
     10255   11      127.988983066537       9.366905128172     105.609385040000
     10256   12      127.087652194866      10.928055989542     104.050000000000
     10257    1      118.975674399879      12.489206840900     107.168770080000
     10258    2      119.877005261540      14.050357692259     105.609385040000
     10259    3      118.975674399879      12.489206840900     104.050000000000
     10260    4      121.679666994871      14.050357692259     107.168770080000
     10261    5      122.580997866542      12.489206840900     105.609385040000
     10262    6      121.679666994871      14.050357692259     104.050000000000
     10263    7      118.975674399879      15.611508553628     107.168770080000
     10264    8      119.877005261540      17.172659404987     105.609385040000
     10265    9      118.975674399879      15.611508553628     104.050000000000
     10266   10      121.679666994871      17.172659404987     107.168770080000
     10267   11      122.580997866542      15.611508553628     105.609385040000
     10268   12      121.679666994871      17.172659404987     104.050000000000
     10269    1      118.975674399879      18.733810256345     107.168770080000
     10270    2      119.877005261540      20.294961117714     105.609385040000
     10271    3      118.975674399879      18.733810256345     104.050000000000
     10272    4      121.679666994871      20.294961117714     107.168770080000
     10273    5      122.580997866542      18.733810256345     105.609385040000
     10274    6      121.679666994871      20.294961117714     104.050000000000
     10275    7      118.975674399879      21.856111969073     107.168770080000
     10276    8      119.877005261540      23.417262830442     105.609385040000
     10277    9      118.975674399879      21.856111969073     104.050000000000
     10278   10      121.679666994871      23.417262830442     107.168770080000
     10279   11      122.580997866542      21.856111969073     105.609385040000
     10280   12      121.679666994871      23.417262830442     104.050000000000
     10281    1      124.383659599874      12.489206840900     107.168770080000
     10282    2      125.284990461534      14.050357692259     105.609385040000
     10283    3      124.383659599874      12.489206840900     104.050000000000
     10284    4      127.087652194866      14.050357692259     107.168770080000
     10285    5      127.988983066537      12.489206840900     105.609385040000
     10286    6      127.087652194866      14.050357692259     104.050000000000
     10287    7      124.383659599874      15.611508553628     107.168770080000
     10288    8      125.284990461534      17.172659404987     105.609385040000
     10289    9      124.383659599874      15.611508553628     104.050000000000
     10290   10      127.087652194866      17.172659404987     107.168770080000
     10291   11      127.988983066537      15.611508553628     105.609385040000
     10292   12      127.087652194866      17.172659404987     104.050000000000
     10293    1      124.383659599874      18.733810256345     107.168770080000
     10294    2      125.284990461534      20.294961117714     105.609385040000
     10295    3      124.383659599874      18.733810256345     104.050000000000
     10296    4      127.087652194866      20.294961117714     107.168770080000
     10297    5      127.988983066537      18.733810256345     105.609385040000
     10298    6      127.087652194866      20.294961117714     104.050000000000
     10299    7      124.383659599874      21.856111969073     107.168770080000
     10300    8      125.284990461534      23.417262830442     105.609385040000
     10301    9      124.383659599874      21.856111969073     104.050000000000
     10302   10      127.087652194866      23.417262830442     107.168770080000
     10303   11      127.988983066537      21.856111969073     105.609385040000
     10304   12      127.087652194866      23.417262830442     104.050000000000
     10305    1      118.975674399879      24.978413681801     107.168770080000
     10306    2      119.877005261540      26.539564533159     105.609385040000
     10307    3      118.975674399879      24.978413681801     104.050000000000
     10308    4      121.679666994871      26.539564533159     107.168770080000
     10309    5      122.580997866542      24.978413681801     105.609385040000
     10310    6      121.679666994871      26.539564533159     104.050000000000
     10311    7      118.975674399879      28.100715394529     107.168770080000
     10312    8      119.877005261540      29.661866245887     105.609385040000
     10313    9      118.975674399879      28.100715394529     104.050000000000
     10314   10      121.679666994871      29.661866245887     107.168770080000
     10315   11      122.580997866542      28.100715394529     105.609385040000
     10316   12      121.679666994871      29.661866245887     104.050000000000
     10317    1      118.975674399879      31.223017097245     107.168770080000
     10318    2      119.877005261540      32.784167958615     105.609385040000
     10319    3      118.975674399879      31.223017097245     104.050000000000
     10320    4      121.679666994871      32.784167958615     107.168770080000
     10321    5      122.580997866542      31.223017097245     105.609385040000
     10322    6      121.679666994871      32.784167958615     104.050000000000
     10323    7      118.975674399879      34.345318809973     107.168770080000
     10324    8      119.877005261540      35.906469671343     105.609385040000
     10325    9      118.975674399879      34.345318809973     104.050000000000
     10326   10      121.679666994871      35.906469671343     107.168770080000
     10327   11      122.580997866542      34.345318809973     105.609385040000
     10328   12      121.679666994871      35.906469671343     104.050000000000
     10329    1      124.383659599874      24.978413681801     107.168770080000
     10330    2      125.284990461534      26.539564533159     105.609385040000
     10331    3      124.383659599874      24.978413681801     104.050000000000
     10332    4      127.087652194866      26.539564533159     107.168770080000
     10333    5      127.988983066537      24.978413681801     105.609385040000
     10334    6      127.087652194866      26.539564533159     104.050000000000
     10335    7      124.383659599874      28.100715394529     107.168770080000
     10336    8      125.284990461534      29.661866245887     105.609385040000
     10337    9      124.383659599874      28.100715394529     104.050000000000
     10338   10      127.087652194866      29.661866245887     107.168770080000
     10339   11      127.988983066537      28.100715394529     105.609385040000
     10340   12      127.087652194866      29.661866245887     104.050000000000
     10341    1      124.383659599874      31.223017097245     107.168770080000
     10342    2      125.284990461534      32.784167958615     105.609385040000
     10343    3      124.383659599874      31.223017097245     104.050000000000
     10344    4      127.087652194866      32.784167958615     107.168770080000
     10345    5      127.988983066537      31.223017097245     105.609385040000
     10346    6      127.087652194866      32.784167958615     104.050000000000
     10347    7      124.383659599874      34.345318809973     107.168770080000
     10348    8      125.284990461534      35.906469671343     105.609385040000
     10349    9      124.383659599874      34.345318809973     104.050000000000
     10350   10      127.087652194866      35.906469671343     107.168770080000
     10351   11      127.988983066537      34.345318809973     105.609385040000
     10352   12      127.087652194866      35.906469671343     104.050000000000
     10353    1      118.975674399879      37.467620522701     107.168770080000
     10354    2      119.877005261540      39.028771374059     105.609385040000
     10355    3      118.975674399879      37.467620522701     104.050000000000
     10356    4      121.679666994871      39.028771374059     107.168770080000
     10357    5      122.580997866542      37.467620522701     105.609385040000
     10358    6      121.679666994871      39.028771374059     104.050000000000
     10359    7      118.975674399879      40.589922235429     107.168770080000
     10360    8      119.877005261540      42.151073086787     105.609385040000
     10361    9      118.975674399879      40.589922235429     104.050000000000
     10362   10      121.679666994871      42.151073086787     107.168770080000
     10363   11      122.580997866542      40.589922235429     105.609385040000
     10364   12      121.679666994871      42.151073086787     104.050000000000
     10365    1      118.975674399879      43.712223938146     107.168770080000
     10366    2      119.877005261540      45.273374799515     105.609385040000
     10367    3      118.975674399879      43.712223938146     104.050000000000
     10368    4      121.679666994871      45.273374799515     107.168770080000
     10369    5      122.580997866542      43.712223938146     105.609385040000
     10370    6      121.679666994871      45.273374799515     104.050000000000
     10371    7      118.975674399879      46.834525650873     107.168770080000
     10372    8      119.877005261540      48.395676512243     105.609385040000
     10373    9      118.975674399879      46.834525650873     104.050000000000
     10374   10      121.679666994871      48.395676512243     107.168770080000
     10375   11      122.580997866542      46.834525650873     105.609385040000
     10376   12      121.679666994871      48.395676512243     104.050000000000
     10377    1      124.383659599874      37.467620522701     107.168770080000
     10378    2      125.284990461534      39.028771374059     105.609385040000
     10379    3      124.383659599874      37.467620522701     104.050000000000
     10380    4      127.087652194866      39.028771374059     107.168770080000
     10381    5      127.988983066537      37.467620522701     105.609385040000
     10382    6      127.087652194866      39.028771374059     104.050000000000
     10383    7      124.383659599874      40.589922235429     107.168770080000
     10384    8      125.284990461534      42.151073086787     105.609385040000
     10385    9      124.383659599874      40.589922235429     104.050000000000
     10386   10      127.087652194866      42.151073086787     107.168770080000
     10387   11      127.988983066537      40.589922235429     105.609385040000
     10388   12      127.087652194866      42.151073086787     104.050000000000
     10389    1      124.383659599874      43.712223938146     107.168770080000
     10390    2      125.284990461534      45.273374799515     105.609385040000
     10391    3      124.383659599874      43.712223938146     104.050000000000
     10392    4      127.087652194866      45.273374799515     107.168770080000
     10393    5      127.988983066537      43.712223938146     105.609385040000
     10394    6      127.087652194866      45.273374799515     104.050000000000
     10395    7      124.383659599874      46.834525650873     107.168770080000
     10396    8      125.284990461534      48.395676512243     105.609385040000
     10397    9      124.383659599874      46.834525650873     104.050000000000
     10398   10      127.087652194866      48.395676512243     107.168770080000
     10399   11      127.988983066537      46.834525650873     105.609385040000
     10400   12      127.087652194866      48.395676512243     104.050000000000
     10401    1      118.975674399879      49.956827363601     107.168770080000
     10402    2      119.877005261540      51.517978214960     105.609385040000
     10403    3      118.975674399879      49.956827363601     104.050000000000
     10404    4      121.679666994871      51.517978214960     107.168770080000
     10405    5      122.580997866542      49.956827363601     105.609385040000
     10406    6      121.679666994871      51.517978214960     104.050000000000
     10407    7      118.975674399879      53.079129076329     107.168770080000
     10408    8      119.877005261540      54.640279927688     105.609385040000
     10409    9      118.975674399879      53.079129076329     104.050000000000
     10410   10      121.679666994871      54.640279927688     107.168770080000
     10411   11      122.580997866542      53.079129076329     105.609385040000
     10412   12      121.679666994871      54.640279927688     104.050000000000
     10413    1      118.975674399879      56.201430779046     107.168770080000
     10414    2      119.877005261540      57.762581640415     105.609385040000
     10415    3      118.975674399879      56.201430779046     104.050000000000
     10416    4      121.679666994871      57.762581640415     107.168770080000
     10417    5      122.580997866542      56.201430779046     105.609385040000
     10418    6      121.679666994871      57.762581640415     104.050000000000
     10419    7      118.975674399879      59.323732491774     107.168770080000
     10420    8      119.877005261540      60.884883353143     105.609385040000
     10421    9      118.975674399879      59.323732491774     104.050000000000
     10422   10      121.679666994871      60.884883353143     107.168770080000
     10423   11      122.580997866542      59.323732491774     105.609385040000
     10424   12      121.679666994871      60.884883353143     104.050000000000
     10425    1      124.383659599874      49.956827363601     107.168770080000
     10426    2      125.284990461534      51.517978214960     105.609385040000
     10427    3      124.383659599874      49.956827363601     104.050000000000
     10428    4      127.087652194866      51.517978214960     107.168770080000
     10429    5      127.988983066537      49.956827363601     105.609385040000
     10430    6      127.087652194866      51.517978214960     104.050000000000
     10431    7      124.383659599874      53.079129076329     107.168770080000
     10432    8      125.284990461534      54.640279927688     105.609385040000
     10433    9      124.383659599874      53.079129076329     104.050000000000
     10434   10      127.087652194866      54.640279927688     107.168770080000
     10435   11      127.988983066537      53.079129076329     105.609385040000
     10436   12      127.087652194866      54.640279927688     104.050000000000
     10437    1      124.383659599874      56.201430779046     107.168770080000
     10438    2      125.284990461534      57.762581640415     105.609385040000
     10439    3      124.383659599874      56.201430779046     104.050000000000
     10440    4      127.087652194866      57.762581640415     107.168770080000
     10441    5      127.988983066537      56.201430779046     105.609385040000
     10442    6      127.087652194866      57.762581640415     104.050000000000
     10443    7      124.383659599874      59.323732491774     107.168770080000
     10444    8      125.284990461534      60.884883353143     105.609385040000
     10445    9      124.383659599874      59.323732491774     104.050000000000
     10446   10      127.087652194866      60.884883353143     107.168770080000
     10447   11      127.988983066537      59.323732491774     105.609385040000
     10448   12      127.087652194866      60.884883353143     104.050000000000
     10449    1      118.975674399879      62.446034204502     107.168770080000
     10450    2      119.877005261540      64.007185055860     105.609385040000
     10451    3      118.975674399879      62.446034204502     104.050000000000
     10452    4      121.679666994871      64.007185055860     107.168770080000
     10453    5      122.580997866542      62.446034204502     105.609385040000
     10454    6      121.679666994871      64.007185055860     104.050000000000
     10455    7      118.975674399879      65.568335917230     107.168770080000
     10456    8      119.877005261540      67.129486768588     105.609385040000
     10457    9      118.975674399879      65.568335917230     104.050000000000
     10458   10      121.679666994871      67.129486768588     107.168770080000
     10459   11      122.580997866542      65.568335917230     105.609385040000
     10460   12      121.679666994871      67.129486768588     104.050000000000
     10461    1      118.975674399879      68.690637619946     107.168770080000
     10462    2      119.877005261540      70.251788481316     105.609385040000
     10463    3      118.975674399879      68.690637619946     104.050000000000
     10464    4      121.679666994871      70.251788481316     107.168770080000
     10465    5      122.580997866542      68.690637619946     105.609385040000
     10466    6      121.679666994871      70.251788481316     104.050000000000
     10467    7      118.975674399879      71.812939332674     107.168770080000
     10468    8      119.877005261540      73.374090194044     105.609385040000
     10469    9      118.975674399879      71.812939332674     104.050000000000
     10470   10      121.679666994871      73.374090194044     107.168770080000
     10471   11      122.580997866542      71.812939332674     105.609385040000
     10472   12      121.679666994871      73.374090194044     104.050000000000
     10473    1      124.383659599874      62.446034204502     107.168770080000
     10474    2      125.284990461534      64.007185055860     105.609385040000
     10475    3      124.383659599874      62.446034204502     104.050000000000
     10476    4      127.087652194866      64.007185055860     107.168770080000
     10477    5      127.988983066537      62.446034204502     105.609385040000
     10478    6      127.087652194866      64.007185055860     104.050000000000
     10479    7      124.383659599874      65.568335917230     107.168770080000
     10480    8      125.284990461534      67.129486768588     105.609385040000
     10481    9      124.383659599874      65.568335917230     104.050000000000
     10482   10      127.087652194866      67.129486768588     107.168770080000
     10483   11      127.988983066537      65.568335917230     105.609385040000
     10484   12      127.087652194866      67.129486768588     104.050000000000
     10485    1      124.383659599874      68.690637619946     107.168770080000
     10486    2      125.284990461534      70.251788481316     105.609385040000
     10487    3      124.383659599874      68.690637619946     104.050000000000
     10488    4      127.087652194866      70.251788481316     107.168770080000
     10489    5      127.988983066537      68.690637619946     105.609385040000
     10490    6      127.087652194866      70.251788481316     104.050000000000
     10491    7      124.383659599874      71.812939332674     107.168770080000
     10492    8      125.284990461534      73.374090194044     105.609385040000
     10493    9      124.383659599874      71.812939332674     104.050000000000
     10494   10      127.087652194866      73.374090194044     107.168770080000
     10495   11      127.988983066537      71.812939332674     105.609385040000
     10496   12      127.087652194866      73.374090194044     104.050000000000
     10497    1      118.975674399879      74.935241045402     107.168770080000
     10498    2      119.877005261540      76.496391896760     105.609385040000
     10499    3      118.975674399879      74.935241045402     104.050000000000
     10500    4      121.679666994871      76.496391896760     107.168770080000
     10501    5      122.580997866542      74.935241045402     105.609385040000
     10502    6      121.679666994871      76.496391896760     104.050000000000
     10503    7      118.975674399879      78.057542758130     107.168770080000
     10504    8      119.877005261540      79.618693609488     105.609385040000
     10505    9      118.975674399879      78.057542758130     104.050000000000
     10506   10      121.679666994871      79.618693609488     107.168770080000
     10507   11      122.580997866542      78.057542758130     105.609385040000
     10508   12      121.679666994871      79.618693609488     104.050000000000
     10509    1      118.975674399879      81.179844460847     107.168770080000
     10510    2      119.877005261540      82.740995322216     105.609385040000
     10511    3      118.975674399879      81.179844460847     104.050000000000
     10512    4      121.679666994871      82.740995322216     107.168770080000
     10513    5      122.580997866542      81.179844460847     105.609385040000
     10514    6      121.679666994871      82.740995322216     104.050000000000
     10515    7      118.975674399879      84.302146173574     107.168770080000
     10516    8      119.877005261540      85.863297034944     105.609385040000
     10517    9      118.975674399879      84.302146173574     104.050000000000
     10518   10      121.679666994871      85.863297034944     107.168770080000
     10519   11      122.580997866542      84.302146173574     105.609385040000
     10520   12      121.679666994871      85.863297034944     104.050000000000
     10521    1      124.383659599874      74.935241045402     107.168770080000
     10522    2      125.284990461534      76.496391896760     105.609385040000
     10523    3      124.383659599874      74.935241045402     104.050000000000
     10524    4      127.087652194866      76.496391896760     107.168770080000
     10525    5      127.988983066537      74.935241045402     105.609385040000
     10526    6      127.087652194866      76.496391896760     104.050000000000
     10527    7      124.383659599874      78.057542758130     107.168770080000
     10528    8      125.284990461534      79.618693609488     105.609385040000
     10529    9      124.383659599874      78.057542758130     104.050000000000
     10530   10      127.087652194866      79.618693609488     107.168770080000
     10531   11      127.988983066537      78.057542758130     105.609385040000
     10532   12      127.087652194866      79.618693609488     104.050000000000
     10533    1      124.383659599874      81.179844460847     107.168770080000
     10534    2      125.284990461534      82.740995322216     105.609385040000
     10535    3      124.383659599874      81.179844460847     104.050000000000
     10536    4      127.087652194866      82.740995322216     107.168770080000
     10537    5      127.988983066537      81.179844460847     105.609385040000
     10538    6      127.087652194866      82.740995322216     104.050000000000
     10539    7      124.383659599874      84.302146173574     107.168770080000
     10540    8      125.284990461534      85.863297034944     105.609385040000
     10541    9      124.383659599874      84.302146173574     104.050000000000
     10542   10      127.087652194866      85.863297034944     107.168770080000
     10543   11      127.988983066537      84.302146173574     105.609385040000
     10544   12      127.087652194866      85.863297034944     104.050000000000
     10545    1      118.975674399879      87.424447886302     107.168770080000
     10546    2      119.877005261540      88.985598737661     105.609385040000
     10547    3      118.975674399879      87.424447886302     104.050000000000
     10548    4      121.679666994871      88.985598737661     107.168770080000
     10549    5      122.580997866542      87.424447886302     105.609385040000
     10550    6      121.679666994871      88.985598737661     104.050000000000
     10551    7      118.975674399879      90.546749599030     107.168770080000
     10552    8      119.877005261540      92.107900450389     105.609385040000
     10553    9      118.975674399879      90.546749599030     104.050000000000
     10554   10      121.679666994871      92.107900450389     107.168770080000
     10555   11      122.580997866542      90.546749599030     105.609385040000
     10556   12      121.679666994871      92.107900450389     104.050000000000
     10557    1      118.975674399879      93.669051301747     107.168770080000
     10558    2      119.877005261540      95.230202163116     105.609385040000
     10559    3      118.975674399879      93.669051301747     104.050000000000
     10560    4      121.679666994871      95.230202163116     107.168770080000
     10561    5      122.580997866542      93.669051301747     105.609385040000
     10562    6      121.679666994871      95.230202163116     104.050000000000
     10563    7      118.975674399879      96.791353014475     107.168770080000
     10564    8      119.877005261540      98.352503875844     105.609385040000
     10565    9      118.975674399879      96.791353014475     104.050000000000
     10566   10      121.679666994871      98.352503875844     107.168770080000
     10567   11      122.580997866542      96.791353014475     105.609385040000
     10568   12      121.679666994871      98.352503875844     104.050000000000
     10569    1      124.383659599874      87.424447886302     107.168770080000
     10570    2      125.284990461534      88.985598737661     105.609385040000
     10571    3      124.383659599874      87.424447886302     104.050000000000
     10572    4      127.087652194866      88.985598737661     107.168770080000
     10573    5      127.988983066537      87.424447886302     105.609385040000
     10574    6      127.087652194866      88.985598737661     104.050000000000
     10575    7      124.383659599874      90.546749599030     107.168770080000
     10576    8      125.284990461534      92.107900450389     105.609385040000
     10577    9      124.383659599874      90.546749599030     104.050000000000
     10578   10      127.087652194866      92.107900450389     107.168770080000
     10579   11      127.988983066537      90.546749599030     105.609385040000
     10580   12      127.087652194866      92.107900450389     104.050000000000
     10581    1      124.383659599874      93.669051301747     107.168770080000
     10582    2      125.284990461534      95.230202163116     105.609385040000
     10583    3      124.383659599874      93.669051301747     104.050000000000
     10584    4      127.087652194866      95.230202163116     107.168770080000
     10585    5      127.988983066537      93.669051301747     105.609385040000
     10586    6      127.087652194866      95.230202163116     104.050000000000
     10587    7      124.383659599874      96.791353014475     107.168770080000
     10588    8      125.284990461534      98.352503875844     105.609385040000
     10589    9      124.383659599874      96.791353014475     104.050000000000
     10590   10      127.087652194866      98.352503875844     107.168770080000
     10591   11      127.988983066537      96.791353014475     105.609385040000
     10592   12      127.087652194866      98.352503875844     104.050000000000
     10593    1      118.975674399879      99.913654727203     107.168770080000
     10594    2      119.877005261540     101.474805578561     105.609385040000
     10595    3      118.975674399879      99.913654727203     104.050000000000
     10596    4      121.679666994871     101.474805578561     107.168770080000
     10597    5      122.580997866542      99.913654727203     105.609385040000
     10598    6      121.679666994871     101.474805578561     104.050000000000
     10599    7      118.975674399879     103.035956439931     107.168770080000
     10600    8      119.877005261540     104.597107291289     105.609385040000
     10601    9      118.975674399879     103.035956439931     104.050000000000
     10602   10      121.679666994871     104.597107291289     107.168770080000
     10603   11      122.580997866542     103.035956439931     105.609385040000
     10604   12      121.679666994871     104.597107291289     104.050000000000
     10605    1      118.975674399879     106.158258142647     107.168770080000
     10606    2      119.877005261540     107.719409004017     105.609385040000
     10607    3      118.975674399879     106.158258142647     104.050000000000
     10608    4      121.679666994871     107.719409004017     107.168770080000
     10609    5      122.580997866542     106.158258142647     105.609385040000
     10610    6      121.679666994871     107.719409004017     104.050000000000
     10611    7      118.975674399879     109.280559855375     107.168770080000
     10612    8      119.877005261540     110.841710716745     105.609385040000
     10613    9      118.975674399879     109.280559855375     104.050000000000
     10614   10      121.679666994871     110.841710716745     107.168770080000
     10615   11      122.580997866542     109.280559855375     105.609385040000
     10616   12      121.679666994871     110.841710716745     104.050000000000
     10617    1      124.383659599874      99.913654727203     107.168770080000
     10618    2      125.284990461534     101.474805578561     105.609385040000
     10619    3      124.383659599874      99.913654727203     104.050000000000
     10620    4      127.087652194866     101.474805578561     107.168770080000
     10621    5      127.988983066537      99.913654727203     105.609385040000
     10622    6      127.087652194866     101.474805578561     104.050000000000
     10623    7      124.383659599874     103.035956439931     107.168770080000
     10624    8      125.284990461534     104.597107291289     105.609385040000
     10625    9      124.383659599874     103.035956439931     104.050000000000
     10626   10      127.087652194866     104.597107291289     107.168770080000
     10627   11      127.988983066537     103.035956439931     105.609385040000
     10628   12      127.087652194866     104.597107291289     104.050000000000
     10629    1      124.383659599874     106.158258142647     107.168770080000
     10630    2      125.284990461534     107.719409004017     105.609385040000
     10631    3      124.383659599874     106.158258142647     104.050000000000
     10632    4      127.087652194866     107.719409004017     107.168770080000
     10633    5      127.988983066537     106.158258142647     105.609385040000
     10634    6      127.087652194866     107.719409004017     104.050000000000
     10635    7      124.383659599874     109.280559855375     107.168770080000
     10636    8      125.284990461534     110.841710716745     105.609385040000
     10637    9      124.383659599874     109.280559855375     104.050000000000
     10638   10      127.087652194866     110.841710716745     107.168770080000
     10639   11      127.988983066537     109.280559855375     105.609385040000
     10640   12      127.087652194866     110.841710716745     104.050000000000
     10641    1      118.975674399879     112.402861568103     107.168770080000
     10642    2      119.877005261540     113.964012419461     105.609385040000
     10643    3      118.975674399879     112.402861568103     104.050000000000
     10644    4      121.679666994871     113.964012419461     107.168770080000
     10645    5      122.580997866542     112.402861568103     105.609385040000
     10646    6      121.679666994871     113.964012419461     104.050000000000
     10647    7      118.975674399879     115.525163280831     107.168770080000
     10648    8      119.877005261540     117.086314132189     105.609385040000
     10649    9      118.975674399879     115.525163280831     104.050000000000
     10650   10      121.679666994871     117.086314132189     107.168770080000
     10651   11      122.580997866542     115.525163280831     105.609385040000
     10652   12      121.679666994871     117.086314132189     104.050000000000
     10653    1      118.975674399879     118.647464983548     107.168770080000
     10654    2      119.877005261540     120.208615844917     105.609385040000
     10655    3      118.975674399879     118.647464983548     104.050000000000
     10656    4      121.679666994871     120.208615844917     107.168770080000
     10657    5      122.580997866542     118.647464983548     105.609385040000
     10658    6      121.679666994871     120.208615844917     104.050000000000
     10659    7      118.975674399879     121.769766696275     107.168770080000
     10660    8      119.877005261540     123.330917557645     105.609385040000
     10661    9      118.975674399879     121.769766696275     104.050000000000
     10662   10      121.679666994871     123.330917557645     107.168770080000
     10663   11      122.580997866542     121.769766696275     105.609385040000
     10664   12      121.679666994871     123.330917557645     104.050000000000
     10665    1      124.383659599874     112.402861568103     107.168770080000
     10666    2      125.284990461534     113.964012419461     105.609385040000
     10667    3      124.383659599874     112.402861568103     104.050000000000
     10668    4      127.087652194866     113.964012419461     107.168770080000
     10669    5      127.988983066537     112.402861568103     105.609385040000
     10670    6      127.087652194866     113.964012419461     104.050000000000
     10671    7      124.383659599874     115.525163280831     107.168770080000
     10672    8      125.284990461534     117.086314132189     105.609385040000
     10673    9      124.383659599874     115.525163280831     104.050000000000
     10674   10      127.087652194866     117.086314132189     107.168770080000
     10675   11      127.988983066537     115.525163280831     105.609385040000
     10676   12      127.087652194866     117.086314132189     104.050000000000
     10677    1      124.383659599874     118.647464983548     107.168770080000
     10678    2      125.284990461534     120.208615844917     105.609385040000
     10679    3      124.383659599874     118.647464983548     104.050000000000
     10680    4      127.087652194866     120.208615844917     107.168770080000
     10681    5      127.988983066537     118.647464983548     105.609385040000
     10682    6      127.087652194866     120.208615844917     104.050000000000
     10683    7      124.383659599874     121.769766696275     107.168770080000
     10684    8      125.284990461534     123.330917557645     105.609385040000
     10685    9      124.383659599874     121.769766696275     104.050000000000
     10686   10      127.087652194866     123.330917557645     107.168770080000
     10687   11      127.988983066537     121.769766696275     105.609385040000
     10688   12      127.087652194866     123.330917557645     104.050000000000
     10689    1      118.975674399879     124.892068409003     107.168770080000
     10690    2      119.877005261540     126.453219260362     105.609385040000
     10691    3      118.975674399879     124.892068409003     104.050000000000
     10692    4      121.679666994871     126.453219260362     107.168770080000
     10693    5      122.580997866542     124.892068409003     105.609385040000
     10694    6      121.679666994871     126.453219260362     104.050000000000
     10695    7      118.975674399879     128.014370121731     107.168770080000
     10696    8      119.877005261540     129.575520973090     105.609385040000
     10697    9      118.975674399879     128.014370121731     104.050000000000
     10698   10      121.679666994871     129.575520973090     107.168770080000
     10699   11      122.580997866542     128.014370121731     105.609385040000
     10700   12      121.679666994871     129.575520973090     104.050000000000
     10701    1      118.975674399879     131.136671824448     107.168770080000
     10702    2      119.877005261540     132.697822685817     105.609385040000
     10703    3      118.975674399879     131.136671824448     104.050000000000
     10704    4      121.679666994871     132.697822685817     107.168770080000
     10705    5      122.580997866542     131.136671824448     105.609385040000
     10706    6      121.679666994871     132.697822685817     104.050000000000
     10707    7      118.975674399879     134.258973537176     107.168770080000
     10708    8      119.877005261540     135.820124398545     105.609385040000
     10709    9      118.975674399879     134.258973537176     104.050000000000
     10710   10      121.679666994871     135.820124398545     107.168770080000
     10711   11      122.580997866542     134.258973537176     105.609385040000
     10712   12      121.679666994871     135.820124398545     104.050000000000
     10713    1      124.383659599874     124.892068409003     107.168770080000
     10714    2      125.284990461534     126.453219260362     105.609385040000
     10715    3      124.383659599874     124.892068409003     104.050000000000
     10716    4      127.087652194866     126.453219260362     107.168770080000
     10717    5      127.988983066537     124.892068409003     105.609385040000
     10718    6      127.087652194866     126.453219260362     104.050000000000
     10719    7      124.383659599874     128.014370121731     107.168770080000
     10720    8      125.284990461534     129.575520973090     105.609385040000
     10721    9      124.383659599874     128.014370121731     104.050000000000
     10722   10      127.087652194866     129.575520973090     107.168770080000
     10723   11      127.988983066537     128.014370121731     105.609385040000
     10724   12      127.087652194866     129.575520973090     104.050000000000
     10725    1      124.383659599874     131.136671824448     107.168770080000
     10726    2      125.284990461534     132.697822685817     105.609385040000
     10727    3      124.383659599874     131.136671824448     104.050000000000
     10728    4      127.087652194866     132.697822685817     107.168770080000
     10729    5      127.988983066537     131.136671824448     105.609385040000
     10730    6      127.087652194866     132.697822685817     104.050000000000
     10731    7      124.383659599874     134.258973537176     107.168770080000
     10732    8      125.284990461534     135.820124398545     105.609385040000
     10733    9      124.383659599874     134.258973537176     104.050000000000
     10734   10      127.087652194866     135.820124398545     107.168770080000
     10735   11      127.988983066537     134.258973537176     105.609385040000
     10736   12      127.087652194866     135.820124398545     104.050000000000
     10737    1      118.975674399879     137.381275249904     107.168770080000
     10738    2      119.877005261540     138.942426101262     105.609385040000
     10739    3      118.975674399879     137.381275249904     104.050000000000
     10740    4      121.679666994871     138.942426101262     107.168770080000
     10741    5      122.580997866542     137.381275249904     105.609385040000
     10742    6      121.679666994871     138.942426101262     104.050000000000
     10743    7      118.975674399879     140.503576962632     107.168770080000
     10744    8      119.877005261540     142.064727813990     105.609385040000
     10745    9      118.975674399879     140.503576962632     104.050000000000
     10746   10      121.679666994871     142.064727813990     107.168770080000
     10747   11      122.580997866542     140.503576962632     105.609385040000
     10748   12      121.679666994871     142.064727813990     104.050000000000
     10749    1      118.975674399879     143.625878665348     107.168770080000
     10750    2      119.877005261540     145.187029526718     105.609385040000
     10751    3      118.975674399879     143.625878665348     104.050000000000
     10752    4      121.679666994871     145.187029526718     107.168770080000
     10753    5      122.580997866542     143.625878665348     105.609385040000
     10754    6      121.679666994871     145.187029526718     104.050000000000
     10755    7      118.975674399879     146.748180378076     107.168770080000
     10756    8      119.877005261540     148.309331239446     105.609385040000
     10757    9      118.975674399879     146.748180378076     104.050000000000
     10758   10      121.679666994871     148.309331239446     107.168770080000
     10759   11      122.580997866542     146.748180378076     105.609385040000
     10760   12      121.679666994871     148.309331239446     104.050000000000
     10761    1      124.383659599874     137.381275249904     107.168770080000
     10762    2      125.284990461534     138.942426101262     105.609385040000
     10763    3      124.383659599874     137.381275249904     104.050000000000
     10764    4      127.087652194866     138.942426101262     107.168770080000
     10765    5      127.988983066537     137.381275249904     105.609385040000
     10766    6      127.087652194866     138.942426101262     104.050000000000
     10767    7      124.383659599874     140.503576962632     107.168770080000
     10768    8      125.284990461534     142.064727813990     105.609385040000
     10769    9      124.383659599874     140.503576962632     104.050000000000
     10770   10      127.087652194866     142.064727813990     107.168770080000
     10771   11      127.988983066537     140.503576962632     105.609385040000
     10772   12      127.087652194866     142.064727813990     104.050000000000
     10773    1      124.383659599874     143.625878665348     107.168770080000
     10774    2      125.284990461534     145.187029526718     105.609385040000
     10775    3      124.383659599874     143.625878665348     104.050000000000
     10776    4      127.087652194866     145.187029526718     107.168770080000
     10777    5      127.988983066537     143.625878665348     105.609385040000
     10778    6      127.087652194866     145.187029526718     104.050000000000
     10779    7      124.383659599874     146.748180378076     107.168770080000
     10780    8      125.284990461534     148.309331239446     105.609385040000
     10781    9      124.383659599874     146.748180378076     104.050000000000
     10782   10      127.087652194866     148.309331239446     107.168770080000
     10783   11      127.988983066537     146.748180378076     105.609385040000
     10784   12      127.087652194866     148.309331239446     104.050000000000
