 # h-AlN(top)/h-MoS2(bottom) bilayer, 3.7 A interlayer gap, 20 nm total z vacuum
  
       10784  atoms
          14  atom types
 
      0.000000000000     129.791644799868  xlo xhi
      0.000000000000     149.870482090804  ylo yhi
      0.000000000000     206.818770080000  zlo zhi
 
Masses
 
            1   32.06000000             # S
            2   95.96000000             # Mo
            3   32.06000000             # S
            4   32.06000000             # S
            5   95.96000000             # Mo
            6   32.06000000             # S
            7   32.06000000             # S
            8   95.96000000             # Mo
            9   32.06000000             # S
           10   32.06000000             # S
           11   95.96000000             # Mo
           12   32.06000000             # S
           13   26.98153860             # Al
           14   14.00700000             # N
 
Atoms # atomic
 
         1    3        0.000000000000       0.000000000000     100.000000000000
         2    1        0.000000000000       0.000000000000     103.118770080000
         3    9        0.000000000000       3.122301712728     100.000000000000
         4    7        0.000000000000       3.122301712728     103.118770080000
         5    2        0.901330861660       1.561150851358     101.559385040000
         6    8        0.901330861660       4.683452564086     101.559385040000
         7    6        2.703992594992       1.561150851358     100.000000000000
         8    4        2.703992594992       1.561150851358     103.118770080000
         9   12        2.703992594992       4.683452564086     100.000000000000
        10   10        2.703992594992       4.683452564086     103.118770080000
        11    5        3.605323466663       0.000000000000     101.559385040000
        12   11        3.605323466663       3.122301712728     101.559385040000
        13    3        0.000000000000       6.244603420450     100.000000000000
        14    1        0.000000000000       6.244603420450     103.118770080000
        15    9        0.000000000000       9.366905133178     100.000000000000
        16    7        0.000000000000       9.366905133178     103.118770080000
        17    2        0.901330861660       7.805754271808     101.559385040000
        18    8        0.901330861660      10.928055984536     101.559385040000
        19    6        2.703992594992       7.805754271808     100.000000000000
        20    4        2.703992594992       7.805754271808     103.118770080000
        21   12        2.703992594992      10.928055984536     100.000000000000
        22   10        2.703992594992      10.928055984536     103.118770080000
        23    5        3.605323466663       6.244603420450     101.559385040000
        24   11        3.605323466663       9.366905133178     101.559385040000
        25    3        0.000000000000      12.489206840900     100.000000000000
        26    1        0.000000000000      12.489206840900     103.118770080000
        27    9        0.000000000000      15.611508553628     100.000000000000
        28    7        0.000000000000      15.611508553628     103.118770080000
        29    2        0.901330861660      14.050357692259     101.559385040000
        30    8        0.901330861660      17.172659404987     101.559385040000
        31    6        2.703992594992      14.050357692259     100.000000000000
        32    4        2.703992594992      14.050357692259     103.118770080000
        33   12        2.703992594992      17.172659404987     100.000000000000
        34   10        2.703992594992      17.172659404987     103.118770080000
        35    5        3.605323466663      12.489206840900     101.559385040000
        36   11        3.605323466663      15.611508553628     101.559385040000
        37    3        0.000000000000      18.733810261350     100.000000000000
        38    1        0.000000000000      18.733810261350     103.118770080000
        39    9        0.000000000000      21.856111974078     100.000000000000
        40    7        0.000000000000      21.856111974078     103.118770080000
        41    2        0.901330861660      20.294961112709     101.559385040000
        42    8        0.901330861660      23.417262825437     101.559385040000
        43    6        2.703992594992      20.294961112709     100.000000000000
        44    4        2.703992594992      20.294961112709     103.118770080000
        45   12        2.703992594992      23.417262825437     100.000000000000
        46   10        2.703992594992      23.417262825437     103.118770080000
        47    5        3.605323466663      18.733810261350     101.559385040000
        48   11        3.605323466663      21.856111974078     101.559385040000
        49    3        0.000000000000      24.978413681801     100.000000000000
        50    1        0.000000000000      24.978413681801     103.118770080000
        51    9        0.000000000000      28.100715394529     100.000000000000
        52    7        0.000000000000      28.100715394529     103.118770080000
        53    2        0.901330861660      26.539564533159     101.559385040000
        54    8        0.901330861660      29.661866245887     101.559385040000
        55    6        2.703992594992      26.539564533159     100.000000000000
        56    4        2.703992594992      26.539564533159     103.118770080000
        57   12        2.703992594992      29.661866245887     100.000000000000
        58   10        2.703992594992      29.661866245887     103.118770080000
        59    5        3.605323466663      24.978413681801     101.559385040000
        60   11        3.605323466663      28.100715394529     101.559385040000
        61    3        0.000000000000      31.223017102251     100.000000000000
        62    1        0.000000000000      31.223017102251     103.118770080000
        63    9        0.000000000000      34.345318814979     100.000000000000
        64    7        0.000000000000      34.345318814979     103.118770080000
        65    2        0.901330861660      32.784167953609     101.559385040000
        66    8        0.901330861660      35.906469666337     101.559385040000
        67    6        2.703992594992      32.784167953609     100.000000000000
        68    4        2.703992594992      32.784167953609     103.118770080000
        69   12        2.703992594992      35.906469666337     100.000000000000
        70   10        2.703992594992      35.906469666337     103.118770080000
        71    5        3.605323466663      31.223017102251     101.559385040000
        72   11        3.605323466663      34.345318814979     101.559385040000
        73    3        5.407985199995       0.000000000000     100.000000000000
        74    1        5.407985199995       0.000000000000     103.118770080000
        75    9        5.407985199995       3.122301712728     100.000000000000
        76    7        5.407985199995       3.122301712728     103.118770080000
        77    2        6.309316061655       1.561150851358     101.559385040000
        78    8        6.309316061655       4.683452564086     101.559385040000
        79    6        8.111977794986       1.561150851358     100.000000000000
        80    4        8.111977794986       1.561150851358     103.118770080000
        81   12        8.111977794986       4.683452564086     100.000000000000
        82   10        8.111977794986       4.683452564086     103.118770080000
        83    5        9.013308666658       0.000000000000     101.559385040000
        84   11        9.013308666658       3.122301712728     101.559385040000
        85    3        5.407985199995       6.244603420450     100.000000000000
        86    1        5.407985199995       6.244603420450     103.118770080000
        87    9        5.407985199995       9.366905133178     100.000000000000
        88    7        5.407985199995       9.366905133178     103.118770080000
        89    2        6.309316061655       7.805754271808     101.559385040000
        90    8        6.309316061655      10.928055984536     101.559385040000
        91    6        8.111977794986       7.805754271808     100.000000000000
        92    4        8.111977794986       7.805754271808     103.118770080000
        93   12        8.111977794986      10.928055984536     100.000000000000
        94   10        8.111977794986      10.928055984536     103.118770080000
        95    5        9.013308666658       6.244603420450     101.559385040000
        96   11        9.013308666658       9.366905133178     101.559385040000
        97    3        5.407985199995      12.489206840900     100.000000000000
        98    1        5.407985199995      12.489206840900     103.118770080000
        99    9        5.407985199995      15.611508553628     100.000000000000
       100    7        5.407985199995      15.611508553628     103.118770080000
       101    2        6.309316061655      14.050357692259     101.559385040000
       102    8        6.309316061655      17.172659404987     101.559385040000
       103    6        8.111977794986      14.050357692259     100.000000000000
       104    4        8.111977794986      14.050357692259     103.118770080000
       105   12        8.111977794986      17.172659404987     100.000000000000
       106   10        8.111977794986      17.172659404987     103.118770080000
       107    5        9.013308666658      12.489206840900     101.559385040000
       108   11        9.013308666658      15.611508553628     101.559385040000
       109    3        5.407985199995      18.733810261350     100.000000000000
       110    1        5.407985199995      18.733810261350     103.118770080000
       111    9        5.407985199995      21.856111974078     100.000000000000
       112    7        5.407985199995      21.856111974078     103.118770080000
       113    2        6.309316061655      20.294961112709     101.559385040000
       114    8        6.309316061655      23.417262825437     101.559385040000
       115    6        8.111977794986      20.294961112709     100.000000000000
       116    4        8.111977794986      20.294961112709     103.118770080000
       117   12        8.111977794986      23.417262825437     100.000000000000
       118   10        8.111977794986      23.417262825437     103.118770080000
       119    5        9.013308666658      18.733810261350     101.559385040000
       120   11        9.013308666658      21.856111974078     101.559385040000
       121    3        5.407985199995      24.978413681801     100.000000000000
       122    1        5.407985199995      24.978413681801     103.118770080000
       123    9        5.407985199995      28.100715394529     100.000000000000
       124    7        5.407985199995      28.100715394529     103.118770080000
       125    2        6.309316061655      26.539564533159     101.559385040000
       126    8        6.309316061655      29.661866245887     101.559385040000
       127    6        8.111977794986      26.539564533159     100.000000000000
       128    4        8.111977794986      26.539564533159     103.118770080000
       129   12        8.111977794986      29.661866245887     100.000000000000
       130   10        8.111977794986      29.661866245887     103.118770080000
       131    5        9.013308666658      24.978413681801     101.559385040000
       132   11        9.013308666658      28.100715394529     101.559385040000
       133    3        5.407985199995      31.223017102251     100.000000000000
       134    1        5.407985199995      31.223017102251     103.118770080000
       135    9        5.407985199995      34.345318814979     100.000000000000
       136    7        5.407985199995      34.345318814979     103.118770080000
       137    2        6.309316061655      32.784167953609     101.559385040000
       138    8        6.309316061655      35.906469666337     101.559385040000
       139    6        8.111977794986      32.784167953609     100.000000000000
       140    4        8.111977794986      32.784167953609     103.118770080000
       141   12        8.111977794986      35.906469666337     100.000000000000
       142   10        8.111977794986      35.906469666337     103.118770080000
       143    5        9.013308666658      31.223017102251     101.559385040000
       144   11        9.013308666658      34.345318814979     101.559385040000
       145    3       10.815970399989       0.000000000000     100.000000000000
       146    1       10.815970399989       0.000000000000     103.118770080000
       147    9       10.815970399989       3.122301712728     100.000000000000
       148    7       10.815970399989       3.122301712728     103.118770080000
       149    2       11.717301261649       1.561150851358     101.559385040000
       150    8       11.717301261649       4.683452564086     101.559385040000
       151    6       13.519962994981       1.561150851358     100.000000000000
       152    4       13.519962994981       1.561150851358     103.118770080000
       153   12       13.519962994981       4.683452564086     100.000000000000
       154   10       13.519962994981       4.683452564086     103.118770080000
       155    5       14.421293866652       0.000000000000     101.559385040000
       156   11       14.421293866652       3.122301712728     101.559385040000
       157    3       10.815970399989       6.244603420450     100.000000000000
       158    1       10.815970399989       6.244603420450     103.118770080000
       159    9       10.815970399989       9.366905133178     100.000000000000
       160    7       10.815970399989       9.366905133178     103.118770080000
       161    2       11.717301261649       7.805754271808     101.559385040000
       162    8       11.717301261649      10.928055984536     101.559385040000
       163    6       13.519962994981       7.805754271808     100.000000000000
       164    4       13.519962994981       7.805754271808     103.118770080000
       165   12       13.519962994981      10.928055984536     100.000000000000
       166   10       13.519962994981      10.928055984536     103.118770080000
       167    5       14.421293866652       6.244603420450     101.559385040000
       168   11       14.421293866652       9.366905133178     101.559385040000
       169    3       10.815970399989      12.489206840900     100.000000000000
       170    1       10.815970399989      12.489206840900     103.118770080000
       171    9       10.815970399989      15.611508553628     100.000000000000
       172    7       10.815970399989      15.611508553628     103.118770080000
       173    2       11.717301261649      14.050357692259     101.559385040000
       174    8       11.717301261649      17.172659404987     101.559385040000
       175    6       13.519962994981      14.050357692259     100.000000000000
       176    4       13.519962994981      14.050357692259     103.118770080000
       177   12       13.519962994981      17.172659404987     100.000000000000
       178   10       13.519962994981      17.172659404987     103.118770080000
       179    5       14.421293866652      12.489206840900     101.559385040000
       180   11       14.421293866652      15.611508553628     101.559385040000
       181    3       10.815970399989      18.733810261350     100.000000000000
       182    1       10.815970399989      18.733810261350     103.118770080000
       183    9       10.815970399989      21.856111974078     100.000000000000
       184    7       10.815970399989      21.856111974078     103.118770080000
       185    2       11.717301261649      20.294961112709     101.559385040000
       186    8       11.717301261649      23.417262825437     101.559385040000
       187    6       13.519962994981      20.294961112709     100.000000000000
       188    4       13.519962994981      20.294961112709     103.118770080000
       189   12       13.519962994981      23.417262825437     100.000000000000
       190   10       13.519962994981      23.417262825437     103.118770080000
       191    5       14.421293866652      18.733810261350     101.559385040000
       192   11       14.421293866652      21.856111974078     101.559385040000
       193    3       10.815970399989      24.978413681801     100.000000000000
       194    1       10.815970399989      24.978413681801     103.118770080000
       195    9       10.815970399989      28.100715394529     100.000000000000
       196    7       10.815970399989      28.100715394529     103.118770080000
       197    2       11.717301261649      26.539564533159     101.559385040000
       198    8       11.717301261649      29.661866245887     101.559385040000
       199    6       13.519962994981      26.539564533159     100.000000000000
       200    4       13.519962994981      26.539564533159     103.118770080000
       201   12       13.519962994981      29.661866245887     100.000000000000
       202   10       13.519962994981      29.661866245887     103.118770080000
       203    5       14.421293866652      24.978413681801     101.559385040000
       204   11       14.421293866652      28.100715394529     101.559385040000
       205    3       10.815970399989      31.223017102251     100.000000000000
       206    1       10.815970399989      31.223017102251     103.118770080000
       207    9       10.815970399989      34.345318814979     100.000000000000
       208    7       10.815970399989      34.345318814979     103.118770080000
       209    2       11.717301261649      32.784167953609     101.559385040000
       210    8       11.717301261649      35.906469666337     101.559385040000
       211    6       13.519962994981      32.784167953609     100.000000000000
       212    4       13.519962994981      32.784167953609     103.118770080000
       213   12       13.519962994981      35.906469666337     100.000000000000
       214   10       13.519962994981      35.906469666337     103.118770080000
       215    5       14.421293866652      31.223017102251     101.559385040000
       216   11       14.421293866652      34.345318814979     101.559385040000
       217    3       16.223955599984       0.000000000000     100.000000000000
       218    1       16.223955599984       0.000000000000     103.118770080000
       219    9       16.223955599984       3.122301712728     100.000000000000
       220    7       16.223955599984       3.122301712728     103.118770080000
       221    2       17.125286461644       1.561150851358     101.559385040000
       222    8       17.125286461644       4.683452564086     101.559385040000
       223    6       18.927948194975       1.561150851358     100.000000000000
       224    4       18.927948194975       1.561150851358     103.118770080000
       225   12       18.927948194975       4.683452564086     100.000000000000
       226   10       18.927948194975       4.683452564086     103.118770080000
       227    5       19.829279066647       0.000000000000     101.559385040000
       228   11       19.829279066647       3.122301712728     101.559385040000
       229    3       16.223955599984       6.244603420450     100.000000000000
       230    1       16.223955599984       6.244603420450     103.118770080000
       231    9       16.223955599984       9.366905133178     100.000000000000
       232    7       16.223955599984       9.366905133178     103.118770080000
       233    2       17.125286461644       7.805754271808     101.559385040000
       234    8       17.125286461644      10.928055984536     101.559385040000
       235    6       18.927948194975       7.805754271808     100.000000000000
       236    4       18.927948194975       7.805754271808     103.118770080000
       237   12       18.927948194975      10.928055984536     100.000000000000
       238   10       18.927948194975      10.928055984536     103.118770080000
       239    5       19.829279066647       6.244603420450     101.559385040000
       240   11       19.829279066647       9.366905133178     101.559385040000
       241    3       16.223955599984      12.489206840900     100.000000000000
       242    1       16.223955599984      12.489206840900     103.118770080000
       243    9       16.223955599984      15.611508553628     100.000000000000
       244    7       16.223955599984      15.611508553628     103.118770080000
       245    2       17.125286461644      14.050357692259     101.559385040000
       246    8       17.125286461644      17.172659404987     101.559385040000
       247    6       18.927948194975      14.050357692259     100.000000000000
       248    4       18.927948194975      14.050357692259     103.118770080000
       249   12       18.927948194975      17.172659404987     100.000000000000
       250   10       18.927948194975      17.172659404987     103.118770080000
       251    5       19.829279066647      12.489206840900     101.559385040000
       252   11       19.829279066647      15.611508553628     101.559385040000
       253    3       16.223955599984      18.733810261350     100.000000000000
       254    1       16.223955599984      18.733810261350     103.118770080000
       255    9       16.223955599984      21.856111974078     100.000000000000
       256    7       16.223955599984      21.856111974078     103.118770080000
       257    2       17.125286461644      20.294961112709     101.559385040000
       258    8       17.125286461644      23.417262825437     101.559385040000
       259    6       18.927948194975      20.294961112709     100.000000000000
       260    4       18.927948194975      20.294961112709     103.118770080000
       261   12       18.927948194975      23.417262825437     100.000000000000
       262   10       18.927948194975      23.417262825437     103.118770080000
       263    5       19.829279066647      18.733810261350     101.559385040000
       264   11       19.829279066647      21.856111974078     101.559385040000
       265    3       16.223955599984      24.978413681801     100.000000000000
       266    1       16.223955599984      24.978413681801     103.118770080000
       267    9       16.223955599984      28.100715394529     100.000000000000
       268    7       16.223955599984      28.100715394529     103.118770080000
       269    2       17.125286461644      26.539564533159     101.559385040000
       270    8       17.125286461644      29.661866245887     101.559385040000
       271    6       18.927948194975      26.539564533159     100.000000000000
       272    4       18.927948194975      26.539564533159     103.118770080000
       273   12       18.927948194975      29.661866245887     100.000000000000
       274   10       18.927948194975      29.661866245887     103.118770080000
       275    5       19.829279066647      24.978413681801     101.559385040000
       276   11       19.829279066647      28.100715394529     101.559385040000
       277    3       16.223955599984      31.223017102251     100.000000000000
       278    1       16.223955599984      31.223017102251     103.118770080000
       279    9       16.223955599984      34.345318814979     100.000000000000
       280    7       16.223955599984      34.345318814979     103.118770080000
       281    2       17.125286461644      32.784167953609     101.559385040000
       282    8       17.125286461644      35.906469666337     101.559385040000
       283    6       18.927948194975      32.784167953609     100.000000000000
       284    4       18.927948194975      32.784167953609     103.118770080000
       285   12       18.927948194975      35.906469666337     100.000000000000
       286   10       18.927948194975      35.906469666337     103.118770080000
       287    5       19.829279066647      31.223017102251     101.559385040000
       288   11       19.829279066647      34.345318814979     101.559385040000
       289    3       21.631940799978       0.000000000000     100.000000000000
       290    1       21.631940799978       0.000000000000     103.118770080000
       291    9       21.631940799978       3.122301712728     100.000000000000
       292    7       21.631940799978       3.122301712728     103.118770080000
       293    2       22.533271661638       1.561150851358     101.559385040000
       294    8       22.533271661638       4.683452564086     101.559385040000
       295    6       24.335933394970       1.561150851358     100.000000000000
       296    4       24.335933394970       1.561150851358     103.118770080000
       297   12       24.335933394970       4.683452564086     100.000000000000
       298   10       24.335933394970       4.683452564086     103.118770080000
       299    5       25.237264266641       0.000000000000     101.559385040000
       300   11       25.237264266641       3.122301712728     101.559385040000
       301    3       21.631940799978       6.244603420450     100.000000000000
       302    1       21.631940799978       6.244603420450     103.118770080000
       303    9       21.631940799978       9.366905133178     100.000000000000
       304    7       21.631940799978       9.366905133178     103.118770080000
       305    2       22.533271661638       7.805754271808     101.559385040000
       306    8       22.533271661638      10.928055984536     101.559385040000
       307    6       24.335933394970       7.805754271808     100.000000000000
       308    4       24.335933394970       7.805754271808     103.118770080000
       309   12       24.335933394970      10.928055984536     100.000000000000
       310   10       24.335933394970      10.928055984536     103.118770080000
       311    5       25.237264266641       6.244603420450     101.559385040000
       312   11       25.237264266641       9.366905133178     101.559385040000
       313    3       21.631940799978      12.489206840900     100.000000000000
       314    1       21.631940799978      12.489206840900     103.118770080000
       315    9       21.631940799978      15.611508553628     100.000000000000
       316    7       21.631940799978      15.611508553628     103.118770080000
       317    2       22.533271661638      14.050357692259     101.559385040000
       318    8       22.533271661638      17.172659404987     101.559385040000
       319    6       24.335933394970      14.050357692259     100.000000000000
       320    4       24.335933394970      14.050357692259     103.118770080000
       321   12       24.335933394970      17.172659404987     100.000000000000
       322   10       24.335933394970      17.172659404987     103.118770080000
       323    5       25.237264266641      12.489206840900     101.559385040000
       324   11       25.237264266641      15.611508553628     101.559385040000
       325    3       21.631940799978      18.733810261350     100.000000000000
       326    1       21.631940799978      18.733810261350     103.118770080000
       327    9       21.631940799978      21.856111974078     100.000000000000
       328    7       21.631940799978      21.856111974078     103.118770080000
       329    2       22.533271661638      20.294961112709     101.559385040000
       330    8       22.533271661638      23.417262825437     101.559385040000
       331    6       24.335933394970      20.294961112709     100.000000000000
       332    4       24.335933394970      20.294961112709     103.118770080000
       333   12       24.335933394970      23.417262825437     100.000000000000
       334   10       24.335933394970      23.417262825437     103.118770080000
       335    5       25.237264266641      18.733810261350     101.559385040000
       336   11       25.237264266641      21.856111974078     101.559385040000
       337    3       21.631940799978      24.978413681801     100.000000000000
       338    1       21.631940799978      24.978413681801     103.118770080000
       339    9       21.631940799978      28.100715394529     100.000000000000
       340    7       21.631940799978      28.100715394529     103.118770080000
       341    2       22.533271661638      26.539564533159     101.559385040000
       342    8       22.533271661638      29.661866245887     101.559385040000
       343    6       24.335933394970      26.539564533159     100.000000000000
       344    4       24.335933394970      26.539564533159     103.118770080000
       345   12       24.335933394970      29.661866245887     100.000000000000
       346   10       24.335933394970      29.661866245887     103.118770080000
       347    5       25.237264266641      24.978413681801     101.559385040000
       348   11       25.237264266641      28.100715394529     101.559385040000
       349    3       21.631940799978      31.223017102251     100.000000000000
       350    1       21.631940799978      31.223017102251     103.118770080000
       351    9       21.631940799978      34.345318814979     100.000000000000
       352    7       21.631940799978      34.345318814979     103.118770080000
       353    2       22.533271661638      32.784167953609     101.559385040000
       354    8       22.533271661638      35.906469666337     101.559385040000
       355    6       24.335933394970      32.784167953609     100.000000000000
       356    4       24.335933394970      32.784167953609     103.118770080000
       357   12       24.335933394970      35.906469666337     100.000000000000
       358   10       24.335933394970      35.906469666337     103.118770080000
       359    5       25.237264266641      31.223017102251     101.559385040000
       360   11       25.237264266641      34.345318814979     101.559385040000
       361    3       27.039925999973       0.000000000000     100.000000000000
       362    1       27.039925999973       0.000000000000     103.118770080000
       363    9       27.039925999973       3.122301712728     100.000000000000
       364    7       27.039925999973       3.122301712728     103.118770080000
       365    2       27.941256861633       1.561150851358     101.559385040000
       366    8       27.941256861633       4.683452564086     101.559385040000
       367    6       29.743918594964       1.561150851358     100.000000000000
       368    4       29.743918594964       1.561150851358     103.118770080000
       369   12       29.743918594964       4.683452564086     100.000000000000
       370   10       29.743918594964       4.683452564086     103.118770080000
       371    5       30.645249466636       0.000000000000     101.559385040000
       372   11       30.645249466636       3.122301712728     101.559385040000
       373    3       27.039925999973       6.244603420450     100.000000000000
       374    1       27.039925999973       6.244603420450     103.118770080000
       375    9       27.039925999973       9.366905133178     100.000000000000
       376    7       27.039925999973       9.366905133178     103.118770080000
       377    2       27.941256861633       7.805754271808     101.559385040000
       378    8       27.941256861633      10.928055984536     101.559385040000
       379    6       29.743918594964       7.805754271808     100.000000000000
       380    4       29.743918594964       7.805754271808     103.118770080000
       381   12       29.743918594964      10.928055984536     100.000000000000
       382   10       29.743918594964      10.928055984536     103.118770080000
       383    5       30.645249466636       6.244603420450     101.559385040000
       384   11       30.645249466636       9.366905133178     101.559385040000
       385    3       27.039925999973      12.489206840900     100.000000000000
       386    1       27.039925999973      12.489206840900     103.118770080000
       387    9       27.039925999973      15.611508553628     100.000000000000
       388    7       27.039925999973      15.611508553628     103.118770080000
       389    2       27.941256861633      14.050357692259     101.559385040000
       390    8       27.941256861633      17.172659404987     101.559385040000
       391    6       29.743918594964      14.050357692259     100.000000000000
       392    4       29.743918594964      14.050357692259     103.118770080000
       393   12       29.743918594964      17.172659404987     100.000000000000
       394   10       29.743918594964      17.172659404987     103.118770080000
       395    5       30.645249466636      12.489206840900     101.559385040000
       396   11       30.645249466636      15.611508553628     101.559385040000
       397    3       27.039925999973      18.733810261350     100.000000000000
       398    1       27.039925999973      18.733810261350     103.118770080000
       399    9       27.039925999973      21.856111974078     100.000000000000
       400    7       27.039925999973      21.856111974078     103.118770080000
       401    2       27.941256861633      20.294961112709     101.559385040000
       402    8       27.941256861633      23.417262825437     101.559385040000
       403    6       29.743918594964      20.294961112709     100.000000000000
       404    4       29.743918594964      20.294961112709     103.118770080000
       405   12       29.743918594964      23.417262825437     100.000000000000
       406   10       29.743918594964      23.417262825437     103.118770080000
       407    5       30.645249466636      18.733810261350     101.559385040000
       408   11       30.645249466636      21.856111974078     101.559385040000
       409    3       27.039925999973      24.978413681801     100.000000000000
       410    1       27.039925999973      24.978413681801     103.118770080000
       411    9       27.039925999973      28.100715394529     100.000000000000
       412    7       27.039925999973      28.100715394529     103.118770080000
       413    2       27.941256861633      26.539564533159     101.559385040000
       414    8       27.941256861633      29.661866245887     101.559385040000
       415    6       29.743918594964      26.539564533159     100.000000000000
       416    4       29.743918594964      26.539564533159     103.118770080000
       417   12       29.743918594964      29.661866245887     100.000000000000
       418   10       29.743918594964      29.661866245887     103.118770080000
       419    5       30.645249466636      24.978413681801     101.559385040000
       420   11       30.645249466636      28.100715394529     101.559385040000
       421    3       27.039925999973      31.223017102251     100.000000000000
       422    1       27.039925999973      31.223017102251     103.118770080000
       423    9       27.039925999973      34.345318814979     100.000000000000
       424    7       27.039925999973      34.345318814979     103.118770080000
       425    2       27.941256861633      32.784167953609     101.559385040000
       426    8       27.941256861633      35.906469666337     101.559385040000
       427    6       29.743918594964      32.784167953609     100.000000000000
       428    4       29.743918594964      32.784167953609     103.118770080000
       429   12       29.743918594964      35.906469666337     100.000000000000
       430   10       29.743918594964      35.906469666337     103.118770080000
       431    5       30.645249466636      31.223017102251     101.559385040000
       432   11       30.645249466636      34.345318814979     101.559385040000
       433    3       32.447911199967       0.000000000000     100.000000000000
       434    1       32.447911199967       0.000000000000     103.118770080000
       435    9       32.447911199967       3.122301712728     100.000000000000
       436    7       32.447911199967       3.122301712728     103.118770080000
       437    2       33.349242061627       1.561150851358     101.559385040000
       438    8       33.349242061627       4.683452564086     101.559385040000
       439    6       35.151903794959       1.561150851358     100.000000000000
       440    4       35.151903794959       1.561150851358     103.118770080000
       441   12       35.151903794959       4.683452564086     100.000000000000
       442   10       35.151903794959       4.683452564086     103.118770080000
       443    5       36.053234666630       0.000000000000     101.559385040000
       444   11       36.053234666630       3.122301712728     101.559385040000
       445    3       32.447911199967       6.244603420450     100.000000000000
       446    1       32.447911199967       6.244603420450     103.118770080000
       447    9       32.447911199967       9.366905133178     100.000000000000
       448    7       32.447911199967       9.366905133178     103.118770080000
       449    2       33.349242061627       7.805754271808     101.559385040000
       450    8       33.349242061627      10.928055984536     101.559385040000
       451    6       35.151903794959       7.805754271808     100.000000000000
       452    4       35.151903794959       7.805754271808     103.118770080000
       453   12       35.151903794959      10.928055984536     100.000000000000
       454   10       35.151903794959      10.928055984536     103.118770080000
       455    5       36.053234666630       6.244603420450     101.559385040000
       456   11       36.053234666630       9.366905133178     101.559385040000
       457    3       32.447911199967      12.489206840900     100.000000000000
       458    1       32.447911199967      12.489206840900     103.118770080000
       459    9       32.447911199967      15.611508553628     100.000000000000
       460    7       32.447911199967      15.611508553628     103.118770080000
       461    2       33.349242061627      14.050357692259     101.559385040000
       462    8       33.349242061627      17.172659404987     101.559385040000
       463    6       35.151903794959      14.050357692259     100.000000000000
       464    4       35.151903794959      14.050357692259     103.118770080000
       465   12       35.151903794959      17.172659404987     100.000000000000
       466   10       35.151903794959      17.172659404987     103.118770080000
       467    5       36.053234666630      12.489206840900     101.559385040000
       468   11       36.053234666630      15.611508553628     101.559385040000
       469    3       32.447911199967      18.733810261350     100.000000000000
       470    1       32.447911199967      18.733810261350     103.118770080000
       471    9       32.447911199967      21.856111974078     100.000000000000
       472    7       32.447911199967      21.856111974078     103.118770080000
       473    2       33.349242061627      20.294961112709     101.559385040000
       474    8       33.349242061627      23.417262825437     101.559385040000
       475    6       35.151903794959      20.294961112709     100.000000000000
       476    4       35.151903794959      20.294961112709     103.118770080000
       477   12       35.151903794959      23.417262825437     100.000000000000
       478   10       35.151903794959      23.417262825437     103.118770080000
       479    5       36.053234666630      18.733810261350     101.559385040000
       480   11       36.053234666630      21.856111974078     101.559385040000
       481    3       32.447911199967      24.978413681801     100.000000000000
       482    1       32.447911199967      24.978413681801     103.118770080000
       483    9       32.447911199967      28.100715394529     100.000000000000
       484    7       32.447911199967      28.100715394529     103.118770080000
       485    2       33.349242061627      26.539564533159     101.559385040000
       486    8       33.349242061627      29.661866245887     101.559385040000
       487    6       35.151903794959      26.539564533159     100.000000000000
       488    4       35.151903794959      26.539564533159     103.118770080000
       489   12       35.151903794959      29.661866245887     100.000000000000
       490   10       35.151903794959      29.661866245887     103.118770080000
       491    5       36.053234666630      24.978413681801     101.559385040000
       492   11       36.053234666630      28.100715394529     101.559385040000
       493    3       32.447911199967      31.223017102251     100.000000000000
       494    1       32.447911199967      31.223017102251     103.118770080000
       495    9       32.447911199967      34.345318814979     100.000000000000
       496    7       32.447911199967      34.345318814979     103.118770080000
       497    2       33.349242061627      32.784167953609     101.559385040000
       498    8       33.349242061627      35.906469666337     101.559385040000
       499    6       35.151903794959      32.784167953609     100.000000000000
       500    4       35.151903794959      32.784167953609     103.118770080000
       501   12       35.151903794959      35.906469666337     100.000000000000
       502   10       35.151903794959      35.906469666337     103.118770080000
       503    5       36.053234666630      31.223017102251     101.559385040000
       504   11       36.053234666630      34.345318814979     101.559385040000
       505    3       37.855896399962       0.000000000000     100.000000000000
       506    1       37.855896399962       0.000000000000     103.118770080000
       507    9       37.855896399962       3.122301712728     100.000000000000
       508    7       37.855896399962       3.122301712728     103.118770080000
       509    2       38.757227261622       1.561150851358     101.559385040000
       510    8       38.757227261622       4.683452564086     101.559385040000
       511    6       40.559888994953       1.561150851358     100.000000000000
       512    4       40.559888994953       1.561150851358     103.118770080000
       513   12       40.559888994953       4.683452564086     100.000000000000
       514   10       40.559888994953       4.683452564086     103.118770080000
       515    5       41.461219866625       0.000000000000     101.559385040000
       516   11       41.461219866625       3.122301712728     101.559385040000
       517    3       37.855896399962       6.244603420450     100.000000000000
       518    1       37.855896399962       6.244603420450     103.118770080000
       519    9       37.855896399962       9.366905133178     100.000000000000
       520    7       37.855896399962       9.366905133178     103.118770080000
       521    2       38.757227261622       7.805754271808     101.559385040000
       522    8       38.757227261622      10.928055984536     101.559385040000
       523    6       40.559888994953       7.805754271808     100.000000000000
       524    4       40.559888994953       7.805754271808     103.118770080000
       525   12       40.559888994953      10.928055984536     100.000000000000
       526   10       40.559888994953      10.928055984536     103.118770080000
       527    5       41.461219866625       6.244603420450     101.559385040000
       528   11       41.461219866625       9.366905133178     101.559385040000
       529    3       37.855896399962      12.489206840900     100.000000000000
       530    1       37.855896399962      12.489206840900     103.118770080000
       531    9       37.855896399962      15.611508553628     100.000000000000
       532    7       37.855896399962      15.611508553628     103.118770080000
       533    2       38.757227261622      14.050357692259     101.559385040000
       534    8       38.757227261622      17.172659404987     101.559385040000
       535    6       40.559888994953      14.050357692259     100.000000000000
       536    4       40.559888994953      14.050357692259     103.118770080000
       537   12       40.559888994953      17.172659404987     100.000000000000
       538   10       40.559888994953      17.172659404987     103.118770080000
       539    5       41.461219866625      12.489206840900     101.559385040000
       540   11       41.461219866625      15.611508553628     101.559385040000
       541    3       37.855896399962      18.733810261350     100.000000000000
       542    1       37.855896399962      18.733810261350     103.118770080000
       543    9       37.855896399962      21.856111974078     100.000000000000
       544    7       37.855896399962      21.856111974078     103.118770080000
       545    2       38.757227261622      20.294961112709     101.559385040000
       546    8       38.757227261622      23.417262825437     101.559385040000
       547    6       40.559888994953      20.294961112709     100.000000000000
       548    4       40.559888994953      20.294961112709     103.118770080000
       549   12       40.559888994953      23.417262825437     100.000000000000
       550   10       40.559888994953      23.417262825437     103.118770080000
       551    5       41.461219866625      18.733810261350     101.559385040000
       552   11       41.461219866625      21.856111974078     101.559385040000
       553    3       37.855896399962      24.978413681801     100.000000000000
       554    1       37.855896399962      24.978413681801     103.118770080000
       555    9       37.855896399962      28.100715394529     100.000000000000
       556    7       37.855896399962      28.100715394529     103.118770080000
       557    2       38.757227261622      26.539564533159     101.559385040000
       558    8       38.757227261622      29.661866245887     101.559385040000
       559    6       40.559888994953      26.539564533159     100.000000000000
       560    4       40.559888994953      26.539564533159     103.118770080000
       561   12       40.559888994953      29.661866245887     100.000000000000
       562   10       40.559888994953      29.661866245887     103.118770080000
       563    5       41.461219866625      24.978413681801     101.559385040000
       564   11       41.461219866625      28.100715394529     101.559385040000
       565    3       37.855896399962      31.223017102251     100.000000000000
       566    1       37.855896399962      31.223017102251     103.118770080000
       567    9       37.855896399962      34.345318814979     100.000000000000
       568    7       37.855896399962      34.345318814979     103.118770080000
       569    2       38.757227261622      32.784167953609     101.559385040000
       570    8       38.757227261622      35.906469666337     101.559385040000
       571    6       40.559888994953      32.784167953609     100.000000000000
       572    4       40.559888994953      32.784167953609     103.118770080000
       573   12       40.559888994953      35.906469666337     100.000000000000
       574   10       40.559888994953      35.906469666337     103.118770080000
       575    5       41.461219866625      31.223017102251     101.559385040000
       576   11       41.461219866625      34.345318814979     101.559385040000
       577    3       43.263881599956       0.000000000000     100.000000000000
       578    1       43.263881599956       0.000000000000     103.118770080000
       579    9       43.263881599956       3.122301712728     100.000000000000
       580    7       43.263881599956       3.122301712728     103.118770080000
       581    2       44.165212461616       1.561150851358     101.559385040000
       582    8       44.165212461616       4.683452564086     101.559385040000
       583    6       45.967874194948       1.561150851358     100.000000000000
       584    4       45.967874194948       1.561150851358     103.118770080000
       585   12       45.967874194948       4.683452564086     100.000000000000
       586   10       45.967874194948       4.683452564086     103.118770080000
       587    5       46.869205066619       0.000000000000     101.559385040000
       588   11       46.869205066619       3.122301712728     101.559385040000
       589    3       43.263881599956       6.244603420450     100.000000000000
       590    1       43.263881599956       6.244603420450     103.118770080000
       591    9       43.263881599956       9.366905133178     100.000000000000
       592    7       43.263881599956       9.366905133178     103.118770080000
       593    2       44.165212461616       7.805754271808     101.559385040000
       594    8       44.165212461616      10.928055984536     101.559385040000
       595    6       45.967874194948       7.805754271808     100.000000000000
       596    4       45.967874194948       7.805754271808     103.118770080000
       597   12       45.967874194948      10.928055984536     100.000000000000
       598   10       45.967874194948      10.928055984536     103.118770080000
       599    5       46.869205066619       6.244603420450     101.559385040000
       600   11       46.869205066619       9.366905133178     101.559385040000
       601    3       43.263881599956      12.489206840900     100.000000000000
       602    1       43.263881599956      12.489206840900     103.118770080000
       603    9       43.263881599956      15.611508553628     100.000000000000
       604    7       43.263881599956      15.611508553628     103.118770080000
       605    2       44.165212461616      14.050357692259     101.559385040000
       606    8       44.165212461616      17.172659404987     101.559385040000
       607    6       45.967874194948      14.050357692259     100.000000000000
       608    4       45.967874194948      14.050357692259     103.118770080000
       609   12       45.967874194948      17.172659404987     100.000000000000
       610   10       45.967874194948      17.172659404987     103.118770080000
       611    5       46.869205066619      12.489206840900     101.559385040000
       612   11       46.869205066619      15.611508553628     101.559385040000
       613    3       43.263881599956      18.733810261350     100.000000000000
       614    1       43.263881599956      18.733810261350     103.118770080000
       615    9       43.263881599956      21.856111974078     100.000000000000
       616    7       43.263881599956      21.856111974078     103.118770080000
       617    2       44.165212461616      20.294961112709     101.559385040000
       618    8       44.165212461616      23.417262825437     101.559385040000
       619    6       45.967874194948      20.294961112709     100.000000000000
       620    4       45.967874194948      20.294961112709     103.118770080000
       621   12       45.967874194948      23.417262825437     100.000000000000
       622   10       45.967874194948      23.417262825437     103.118770080000
       623    5       46.869205066619      18.733810261350     101.559385040000
       624   11       46.869205066619      21.856111974078     101.559385040000
       625    3       43.263881599956      24.978413681801     100.000000000000
       626    1       43.263881599956      24.978413681801     103.118770080000
       627    9       43.263881599956      28.100715394529     100.000000000000
       628    7       43.263881599956      28.100715394529     103.118770080000
       629    2       44.165212461616      26.539564533159     101.559385040000
       630    8       44.165212461616      29.661866245887     101.559385040000
       631    6       45.967874194948      26.539564533159     100.000000000000
       632    4       45.967874194948      26.539564533159     103.118770080000
       633   12       45.967874194948      29.661866245887     100.000000000000
       634   10       45.967874194948      29.661866245887     103.118770080000
       635    5       46.869205066619      24.978413681801     101.559385040000
       636   11       46.869205066619      28.100715394529     101.559385040000
       637    3       43.263881599956      31.223017102251     100.000000000000
       638    1       43.263881599956      31.223017102251     103.118770080000
       639    9       43.263881599956      34.345318814979     100.000000000000
       640    7       43.263881599956      34.345318814979     103.118770080000
       641    2       44.165212461616      32.784167953609     101.559385040000
       642    8       44.165212461616      35.906469666337     101.559385040000
       643    6       45.967874194948      32.784167953609     100.000000000000
       644    4       45.967874194948      32.784167953609     103.118770080000
       645   12       45.967874194948      35.906469666337     100.000000000000
       646   10       45.967874194948      35.906469666337     103.118770080000
       647    5       46.869205066619      31.223017102251     101.559385040000
       648   11       46.869205066619      34.345318814979     101.559385040000
       649    3       48.671866799951       0.000000000000     100.000000000000
       650    1       48.671866799951       0.000000000000     103.118770080000
       651    9       48.671866799951       3.122301712728     100.000000000000
       652    7       48.671866799951       3.122301712728     103.118770080000
       653    2       49.573197661611       1.561150851358     101.559385040000
       654    8       49.573197661611       4.683452564086     101.559385040000
       655    6       51.375859394942       1.561150851358     100.000000000000
       656    4       51.375859394942       1.561150851358     103.118770080000
       657   12       51.375859394942       4.683452564086     100.000000000000
       658   10       51.375859394942       4.683452564086     103.118770080000
       659    5       52.277190266614       0.000000000000     101.559385040000
       660   11       52.277190266614       3.122301712728     101.559385040000
       661    3       48.671866799951       6.244603420450     100.000000000000
       662    1       48.671866799951       6.244603420450     103.118770080000
       663    9       48.671866799951       9.366905133178     100.000000000000
       664    7       48.671866799951       9.366905133178     103.118770080000
       665    2       49.573197661611       7.805754271808     101.559385040000
       666    8       49.573197661611      10.928055984536     101.559385040000
       667    6       51.375859394942       7.805754271808     100.000000000000
       668    4       51.375859394942       7.805754271808     103.118770080000
       669   12       51.375859394942      10.928055984536     100.000000000000
       670   10       51.375859394942      10.928055984536     103.118770080000
       671    5       52.277190266614       6.244603420450     101.559385040000
       672   11       52.277190266614       9.366905133178     101.559385040000
       673    3       48.671866799951      12.489206840900     100.000000000000
       674    1       48.671866799951      12.489206840900     103.118770080000
       675    9       48.671866799951      15.611508553628     100.000000000000
       676    7       48.671866799951      15.611508553628     103.118770080000
       677    2       49.573197661611      14.050357692259     101.559385040000
       678    8       49.573197661611      17.172659404987     101.559385040000
       679    6       51.375859394942      14.050357692259     100.000000000000
       680    4       51.375859394942      14.050357692259     103.118770080000
       681   12       51.375859394942      17.172659404987     100.000000000000
       682   10       51.375859394942      17.172659404987     103.118770080000
       683    5       52.277190266614      12.489206840900     101.559385040000
       684   11       52.277190266614      15.611508553628     101.559385040000
       685    3       48.671866799951      18.733810261350     100.000000000000
       686    1       48.671866799951      18.733810261350     103.118770080000
       687    9       48.671866799951      21.856111974078     100.000000000000
       688    7       48.671866799951      21.856111974078     103.118770080000
       689    2       49.573197661611      20.294961112709     101.559385040000
       690    8       49.573197661611      23.417262825437     101.559385040000
       691    6       51.375859394942      20.294961112709     100.000000000000
       692    4       51.375859394942      20.294961112709     103.118770080000
       693   12       51.375859394942      23.417262825437     100.000000000000
       694   10       51.375859394942      23.417262825437     103.118770080000
       695    5       52.277190266614      18.733810261350     101.559385040000
       696   11       52.277190266614      21.856111974078     101.559385040000
       697    3       48.671866799951      24.978413681801     100.000000000000
       698    1       48.671866799951      24.978413681801     103.118770080000
       699    9       48.671866799951      28.100715394529     100.000000000000
       700    7       48.671866799951      28.100715394529     103.118770080000
       701    2       49.573197661611      26.539564533159     101.559385040000
       702    8       49.573197661611      29.661866245887     101.559385040000
       703    6       51.375859394942      26.539564533159     100.000000000000
       704    4       51.375859394942      26.539564533159     103.118770080000
       705   12       51.375859394942      29.661866245887     100.000000000000
       706   10       51.375859394942      29.661866245887     103.118770080000
       707    5       52.277190266614      24.978413681801     101.559385040000
       708   11       52.277190266614      28.100715394529     101.559385040000
       709    3       48.671866799951      31.223017102251     100.000000000000
       710    1       48.671866799951      31.223017102251     103.118770080000
       711    9       48.671866799951      34.345318814979     100.000000000000
       712    7       48.671866799951      34.345318814979     103.118770080000
       713    2       49.573197661611      32.784167953609     101.559385040000
       714    8       49.573197661611      35.906469666337     101.559385040000
       715    6       51.375859394942      32.784167953609     100.000000000000
       716    4       51.375859394942      32.784167953609     103.118770080000
       717   12       51.375859394942      35.906469666337     100.000000000000
       718   10       51.375859394942      35.906469666337     103.118770080000
       719    5       52.277190266614      31.223017102251     101.559385040000
       720   11       52.277190266614      34.345318814979     101.559385040000
       721    3       54.079851999945       0.000000000000     100.000000000000
       722    1       54.079851999945       0.000000000000     103.118770080000
       723    9       54.079851999945       3.122301712728     100.000000000000
       724    7       54.079851999945       3.122301712728     103.118770080000
       725    2       54.981182861605       1.561150851358     101.559385040000
       726    8       54.981182861605       4.683452564086     101.559385040000
       727    6       56.783844594937       1.561150851358     100.000000000000
       728    4       56.783844594937       1.561150851358     103.118770080000
       729   12       56.783844594937       4.683452564086     100.000000000000
       730   10       56.783844594937       4.683452564086     103.118770080000
       731    5       57.685175466608       0.000000000000     101.559385040000
       732   11       57.685175466608       3.122301712728     101.559385040000
       733    3       54.079851999945       6.244603420450     100.000000000000
       734    1       54.079851999945       6.244603420450     103.118770080000
       735    9       54.079851999945       9.366905133178     100.000000000000
       736    7       54.079851999945       9.366905133178     103.118770080000
       737    2       54.981182861605       7.805754271808     101.559385040000
       738    8       54.981182861605      10.928055984536     101.559385040000
       739    6       56.783844594937       7.805754271808     100.000000000000
       740    4       56.783844594937       7.805754271808     103.118770080000
       741   12       56.783844594937      10.928055984536     100.000000000000
       742   10       56.783844594937      10.928055984536     103.118770080000
       743    5       57.685175466608       6.244603420450     101.559385040000
       744   11       57.685175466608       9.366905133178     101.559385040000
       745    3       54.079851999945      12.489206840900     100.000000000000
       746    1       54.079851999945      12.489206840900     103.118770080000
       747    9       54.079851999945      15.611508553628     100.000000000000
       748    7       54.079851999945      15.611508553628     103.118770080000
       749    2       54.981182861605      14.050357692259     101.559385040000
       750    8       54.981182861605      17.172659404987     101.559385040000
       751    6       56.783844594937      14.050357692259     100.000000000000
       752    4       56.783844594937      14.050357692259     103.118770080000
       753   12       56.783844594937      17.172659404987     100.000000000000
       754   10       56.783844594937      17.172659404987     103.118770080000
       755    5       57.685175466608      12.489206840900     101.559385040000
       756   11       57.685175466608      15.611508553628     101.559385040000
       757    3       54.079851999945      18.733810261350     100.000000000000
       758    1       54.079851999945      18.733810261350     103.118770080000
       759    9       54.079851999945      21.856111974078     100.000000000000
       760    7       54.079851999945      21.856111974078     103.118770080000
       761    2       54.981182861605      20.294961112709     101.559385040000
       762    8       54.981182861605      23.417262825437     101.559385040000
       763    6       56.783844594937      20.294961112709     100.000000000000
       764    4       56.783844594937      20.294961112709     103.118770080000
       765   12       56.783844594937      23.417262825437     100.000000000000
       766   10       56.783844594937      23.417262825437     103.118770080000
       767    5       57.685175466608      18.733810261350     101.559385040000
       768   11       57.685175466608      21.856111974078     101.559385040000
       769    3       54.079851999945      24.978413681801     100.000000000000
       770    1       54.079851999945      24.978413681801     103.118770080000
       771    9       54.079851999945      28.100715394529     100.000000000000
       772    7       54.079851999945      28.100715394529     103.118770080000
       773    2       54.981182861605      26.539564533159     101.559385040000
       774    8       54.981182861605      29.661866245887     101.559385040000
       775    6       56.783844594937      26.539564533159     100.000000000000
       776    4       56.783844594937      26.539564533159     103.118770080000
       777   12       56.783844594937      29.661866245887     100.000000000000
       778   10       56.783844594937      29.661866245887     103.118770080000
       779    5       57.685175466608      24.978413681801     101.559385040000
       780   11       57.685175466608      28.100715394529     101.559385040000
       781    3       54.079851999945      31.223017102251     100.000000000000
       782    1       54.079851999945      31.223017102251     103.118770080000
       783    9       54.079851999945      34.345318814979     100.000000000000
       784    7       54.079851999945      34.345318814979     103.118770080000
       785    2       54.981182861605      32.784167953609     101.559385040000
       786    8       54.981182861605      35.906469666337     101.559385040000
       787    6       56.783844594937      32.784167953609     100.000000000000
       788    4       56.783844594937      32.784167953609     103.118770080000
       789   12       56.783844594937      35.906469666337     100.000000000000
       790   10       56.783844594937      35.906469666337     103.118770080000
       791    5       57.685175466608      31.223017102251     101.559385040000
       792   11       57.685175466608      34.345318814979     101.559385040000
       793    3       59.487837199940       0.000000000000     100.000000000000
       794    1       59.487837199940       0.000000000000     103.118770080000
       795    9       59.487837199940       3.122301712728     100.000000000000
       796    7       59.487837199940       3.122301712728     103.118770080000
       797    2       60.389168061600       1.561150851358     101.559385040000
       798    8       60.389168061600       4.683452564086     101.559385040000
       799    6       62.191829794931       1.561150851358     100.000000000000
       800    4       62.191829794931       1.561150851358     103.118770080000
       801   12       62.191829794931       4.683452564086     100.000000000000
       802   10       62.191829794931       4.683452564086     103.118770080000
       803    5       63.093160666603       0.000000000000     101.559385040000
       804   11       63.093160666603       3.122301712728     101.559385040000
       805    3       59.487837199940       6.244603420450     100.000000000000
       806    1       59.487837199940       6.244603420450     103.118770080000
       807    9       59.487837199940       9.366905133178     100.000000000000
       808    7       59.487837199940       9.366905133178     103.118770080000
       809    2       60.389168061600       7.805754271808     101.559385040000
       810    8       60.389168061600      10.928055984536     101.559385040000
       811    6       62.191829794931       7.805754271808     100.000000000000
       812    4       62.191829794931       7.805754271808     103.118770080000
       813   12       62.191829794931      10.928055984536     100.000000000000
       814   10       62.191829794931      10.928055984536     103.118770080000
       815    5       63.093160666603       6.244603420450     101.559385040000
       816   11       63.093160666603       9.366905133178     101.559385040000
       817    3       59.487837199940      12.489206840900     100.000000000000
       818    1       59.487837199940      12.489206840900     103.118770080000
       819    9       59.487837199940      15.611508553628     100.000000000000
       820    7       59.487837199940      15.611508553628     103.118770080000
       821    2       60.389168061600      14.050357692259     101.559385040000
       822    8       60.389168061600      17.172659404987     101.559385040000
       823    6       62.191829794931      14.050357692259     100.000000000000
       824    4       62.191829794931      14.050357692259     103.118770080000
       825   12       62.191829794931      17.172659404987     100.000000000000
       826   10       62.191829794931      17.172659404987     103.118770080000
       827    5       63.093160666603      12.489206840900     101.559385040000
       828   11       63.093160666603      15.611508553628     101.559385040000
       829    3       59.487837199940      18.733810261350     100.000000000000
       830    1       59.487837199940      18.733810261350     103.118770080000
       831    9       59.487837199940      21.856111974078     100.000000000000
       832    7       59.487837199940      21.856111974078     103.118770080000
       833    2       60.389168061600      20.294961112709     101.559385040000
       834    8       60.389168061600      23.417262825437     101.559385040000
       835    6       62.191829794931      20.294961112709     100.000000000000
       836    4       62.191829794931      20.294961112709     103.118770080000
       837   12       62.191829794931      23.417262825437     100.000000000000
       838   10       62.191829794931      23.417262825437     103.118770080000
       839    5       63.093160666603      18.733810261350     101.559385040000
       840   11       63.093160666603      21.856111974078     101.559385040000
       841    3       59.487837199940      24.978413681801     100.000000000000
       842    1       59.487837199940      24.978413681801     103.118770080000
       843    9       59.487837199940      28.100715394529     100.000000000000
       844    7       59.487837199940      28.100715394529     103.118770080000
       845    2       60.389168061600      26.539564533159     101.559385040000
       846    8       60.389168061600      29.661866245887     101.559385040000
       847    6       62.191829794931      26.539564533159     100.000000000000
       848    4       62.191829794931      26.539564533159     103.118770080000
       849   12       62.191829794931      29.661866245887     100.000000000000
       850   10       62.191829794931      29.661866245887     103.118770080000
       851    5       63.093160666603      24.978413681801     101.559385040000
       852   11       63.093160666603      28.100715394529     101.559385040000
       853    3       59.487837199940      31.223017102251     100.000000000000
       854    1       59.487837199940      31.223017102251     103.118770080000
       855    9       59.487837199940      34.345318814979     100.000000000000
       856    7       59.487837199940      34.345318814979     103.118770080000
       857    2       60.389168061600      32.784167953609     101.559385040000
       858    8       60.389168061600      35.906469666337     101.559385040000
       859    6       62.191829794931      32.784167953609     100.000000000000
       860    4       62.191829794931      32.784167953609     103.118770080000
       861   12       62.191829794931      35.906469666337     100.000000000000
       862   10       62.191829794931      35.906469666337     103.118770080000
       863    5       63.093160666603      31.223017102251     101.559385040000
       864   11       63.093160666603      34.345318814979     101.559385040000
       865   14        0.000000000000       0.000000000000     106.818770080000
       866   13        0.983270030902       1.703073656027     106.818770080000
       867   14        2.949810103627       1.703073656027     106.818770080000
       868   13        3.933080145451       0.000000000000     106.818770080000
       869   14        0.000000000000       3.406147320246     106.818770080000
       870   13        0.983270030902       5.109220976273     106.818770080000
       871   14        2.949810103627       5.109220976273     106.818770080000
       872   13        3.933080145451       3.406147320246     106.818770080000
       873   14        0.000000000000       6.812294640491     106.818770080000
       874   13        0.983270030902       8.515368296518     106.818770080000
       875   14        2.949810103627       8.515368296518     106.818770080000
       876   13        3.933080145451       6.812294640491     106.818770080000
       877   14        0.000000000000      10.218441960737     106.818770080000
       878   13        0.983270030902      11.921515616764     106.818770080000
       879   14        2.949810103627      11.921515616764     106.818770080000
       880   13        3.933080145451      10.218441960737     106.818770080000
       881   14        0.000000000000      13.624589280982     106.818770080000
       882   13        0.983270030902      15.327662937010     106.818770080000
       883   14        2.949810103627      15.327662937010     106.818770080000
       884   13        3.933080145451      13.624589280982     106.818770080000
       885   14        0.000000000000      17.030736601228     106.818770080000
       886   13        0.983270030902      18.733810257255     106.818770080000
       887   14        2.949810103627      18.733810257255     106.818770080000
       888   13        3.933080145451      17.030736601228     106.818770080000
       889   14        0.000000000000      20.436883921473     106.818770080000
       890   13        0.983270030902      22.139957577501     106.818770080000
       891   14        2.949810103627      22.139957577501     106.818770080000
       892   13        3.933080145451      20.436883921473     106.818770080000
       893   14        0.000000000000      23.843031241719     106.818770080000
       894   13        0.983270030902      25.546104897746     106.818770080000
       895   14        2.949810103627      25.546104897746     106.818770080000
       896   13        3.933080145451      23.843031241719     106.818770080000
       897   14        0.000000000000      27.249178561964     106.818770080000
       898   13        0.983270030902      28.952252217992     106.818770080000
       899   14        2.949810103627      28.952252217992     106.818770080000
       900   13        3.933080145451      27.249178561964     106.818770080000
       901   14        0.000000000000      30.655325882210     106.818770080000
       902   13        0.983270030902      32.358399538237     106.818770080000
       903   14        2.949810103627      32.358399538237     106.818770080000
       904   13        3.933080145451      30.655325882210     106.818770080000
       905   14        0.000000000000      34.061473202455     106.818770080000
       906   13        0.983270030902      35.764546858483     106.818770080000
       907   14        2.949810103627      35.764546858483     106.818770080000
       908   13        3.933080145451      34.061473202455     106.818770080000
       909   14        5.899620218176       0.000000000000     106.818770080000
       910   13        6.882890249078       1.703073656027     106.818770080000
       911   14        8.849430321803       1.703073656027     106.818770080000
       912   13        9.832700363627       0.000000000000     106.818770080000
       913   14        5.899620218176       3.406147320246     106.818770080000
       914   13        6.882890249078       5.109220976273     106.818770080000
       915   14        8.849430321803       5.109220976273     106.818770080000
       916   13        9.832700363627       3.406147320246     106.818770080000
       917   14        5.899620218176       6.812294640491     106.818770080000
       918   13        6.882890249078       8.515368296518     106.818770080000
       919   14        8.849430321803       8.515368296518     106.818770080000
       920   13        9.832700363627       6.812294640491     106.818770080000
       921   14        5.899620218176      10.218441960737     106.818770080000
       922   13        6.882890249078      11.921515616764     106.818770080000
       923   14        8.849430321803      11.921515616764     106.818770080000
       924   13        9.832700363627      10.218441960737     106.818770080000
       925   14        5.899620218176      13.624589280982     106.818770080000
       926   13        6.882890249078      15.327662937010     106.818770080000
       927   14        8.849430321803      15.327662937010     106.818770080000
       928   13        9.832700363627      13.624589280982     106.818770080000
       929   14        5.899620218176      17.030736601228     106.818770080000
       930   13        6.882890249078      18.733810257255     106.818770080000
       931   14        8.849430321803      18.733810257255     106.818770080000
       932   13        9.832700363627      17.030736601228     106.818770080000
       933   14        5.899620218176      20.436883921473     106.818770080000
       934   13        6.882890249078      22.139957577501     106.818770080000
       935   14        8.849430321803      22.139957577501     106.818770080000
       936   13        9.832700363627      20.436883921473     106.818770080000
       937   14        5.899620218176      23.843031241719     106.818770080000
       938   13        6.882890249078      25.546104897746     106.818770080000
       939   14        8.849430321803      25.546104897746     106.818770080000
       940   13        9.832700363627      23.843031241719     106.818770080000
       941   14        5.899620218176      27.249178561964     106.818770080000
       942   13        6.882890249078      28.952252217992     106.818770080000
       943   14        8.849430321803      28.952252217992     106.818770080000
       944   13        9.832700363627      27.249178561964     106.818770080000
       945   14        5.899620218176      30.655325882210     106.818770080000
       946   13        6.882890249078      32.358399538237     106.818770080000
       947   14        8.849430321803      32.358399538237     106.818770080000
       948   13        9.832700363627      30.655325882210     106.818770080000
       949   14        5.899620218176      34.061473202455     106.818770080000
       950   13        6.882890249078      35.764546858483     106.818770080000
       951   14        8.849430321803      35.764546858483     106.818770080000
       952   13        9.832700363627      34.061473202455     106.818770080000
       953   14       11.799240436352       0.000000000000     106.818770080000
       954   13       12.782510467254       1.703073656027     106.818770080000
       955   14       14.749050539979       1.703073656027     106.818770080000
       956   13       15.732320581803       0.000000000000     106.818770080000
       957   14       11.799240436352       3.406147320246     106.818770080000
       958   13       12.782510467254       5.109220976273     106.818770080000
       959   14       14.749050539979       5.109220976273     106.818770080000
       960   13       15.732320581803       3.406147320246     106.818770080000
       961   14       11.799240436352       6.812294640491     106.818770080000
       962   13       12.782510467254       8.515368296518     106.818770080000
       963   14       14.749050539979       8.515368296518     106.818770080000
       964   13       15.732320581803       6.812294640491     106.818770080000
       965   14       11.799240436352      10.218441960737     106.818770080000
       966   13       12.782510467254      11.921515616764     106.818770080000
       967   14       14.749050539979      11.921515616764     106.818770080000
       968   13       15.732320581803      10.218441960737     106.818770080000
       969   14       11.799240436352      13.624589280982     106.818770080000
       970   13       12.782510467254      15.327662937010     106.818770080000
       971   14       14.749050539979      15.327662937010     106.818770080000
       972   13       15.732320581803      13.624589280982     106.818770080000
       973   14       11.799240436352      17.030736601228     106.818770080000
       974   13       12.782510467254      18.733810257255     106.818770080000
       975   14       14.749050539979      18.733810257255     106.818770080000
       976   13       15.732320581803      17.030736601228     106.818770080000
       977   14       11.799240436352      20.436883921473     106.818770080000
       978   13       12.782510467254      22.139957577501     106.818770080000
       979   14       14.749050539979      22.139957577501     106.818770080000
       980   13       15.732320581803      20.436883921473     106.818770080000
       981   14       11.799240436352      23.843031241719     106.818770080000
       982   13       12.782510467254      25.546104897746     106.818770080000
       983   14       14.749050539979      25.546104897746     106.818770080000
       984   13       15.732320581803      23.843031241719     106.818770080000
       985   14       11.799240436352      27.249178561964     106.818770080000
       986   13       12.782510467254      28.952252217992     106.818770080000
       987   14       14.749050539979      28.952252217992     106.818770080000
       988   13       15.732320581803      27.249178561964     106.818770080000
       989   14       11.799240436352      30.655325882210     106.818770080000
       990   13       12.782510467254      32.358399538237     106.818770080000
       991   14       14.749050539979      32.358399538237     106.818770080000
       992   13       15.732320581803      30.655325882210     106.818770080000
       993   14       11.799240436352      34.061473202455     106.818770080000
       994   13       12.782510467254      35.764546858483     106.818770080000
       995   14       14.749050539979      35.764546858483     106.818770080000
       996   13       15.732320581803      34.061473202455     106.818770080000
       997   14       17.698860654528       0.000000000000     106.818770080000
       998   13       18.682130685429       1.703073656027     106.818770080000
       999   14       20.648670758155       1.703073656027     106.818770080000
      1000   13       21.631940799978       0.000000000000     106.818770080000
      1001   14       17.698860654528       3.406147320246     106.818770080000
      1002   13       18.682130685429       5.109220976273     106.818770080000
      1003   14       20.648670758155       5.109220976273     106.818770080000
      1004   13       21.631940799978       3.406147320246     106.818770080000
      1005   14       17.698860654528       6.812294640491     106.818770080000
      1006   13       18.682130685429       8.515368296518     106.818770080000
      1007   14       20.648670758155       8.515368296518     106.818770080000
      1008   13       21.631940799978       6.812294640491     106.818770080000
      1009   14       17.698860654528      10.218441960737     106.818770080000
      1010   13       18.682130685429      11.921515616764     106.818770080000
      1011   14       20.648670758155      11.921515616764     106.818770080000
      1012   13       21.631940799978      10.218441960737     106.818770080000
      1013   14       17.698860654528      13.624589280982     106.818770080000
      1014   13       18.682130685429      15.327662937010     106.818770080000
      1015   14       20.648670758155      15.327662937010     106.818770080000
      1016   13       21.631940799978      13.624589280982     106.818770080000
      1017   14       17.698860654528      17.030736601228     106.818770080000
      1018   13       18.682130685429      18.733810257255     106.818770080000
      1019   14       20.648670758155      18.733810257255     106.818770080000
      1020   13       21.631940799978      17.030736601228     106.818770080000
      1021   14       17.698860654528      20.436883921473     106.818770080000
      1022   13       18.682130685429      22.139957577501     106.818770080000
      1023   14       20.648670758155      22.139957577501     106.818770080000
      1024   13       21.631940799978      20.436883921473     106.818770080000
      1025   14       17.698860654528      23.843031241719     106.818770080000
      1026   13       18.682130685429      25.546104897746     106.818770080000
      1027   14       20.648670758155      25.546104897746     106.818770080000
      1028   13       21.631940799978      23.843031241719     106.818770080000
      1029   14       17.698860654528      27.249178561964     106.818770080000
      1030   13       18.682130685429      28.952252217992     106.818770080000
      1031   14       20.648670758155      28.952252217992     106.818770080000
      1032   13       21.631940799978      27.249178561964     106.818770080000
      1033   14       17.698860654528      30.655325882210     106.818770080000
      1034   13       18.682130685429      32.358399538237     106.818770080000
      1035   14       20.648670758155      32.358399538237     106.818770080000
      1036   13       21.631940799978      30.655325882210     106.818770080000
      1037   14       17.698860654528      34.061473202455     106.818770080000
      1038   13       18.682130685429      35.764546858483     106.818770080000
      1039   14       20.648670758155      35.764546858483     106.818770080000
      1040   13       21.631940799978      34.061473202455     106.818770080000
      1041   14       23.598480872703       0.000000000000     106.818770080000
      1042   13       24.581750903605       1.703073656027     106.818770080000
      1043   14       26.548290976331       1.703073656027     106.818770080000
      1044   13       27.531561018154       0.000000000000     106.818770080000
      1045   14       23.598480872703       3.406147320246     106.818770080000
      1046   13       24.581750903605       5.109220976273     106.818770080000
      1047   14       26.548290976331       5.109220976273     106.818770080000
      1048   13       27.531561018154       3.406147320246     106.818770080000
      1049   14       23.598480872703       6.812294640491     106.818770080000
      1050   13       24.581750903605       8.515368296518     106.818770080000
      1051   14       26.548290976331       8.515368296518     106.818770080000
      1052   13       27.531561018154       6.812294640491     106.818770080000
      1053   14       23.598480872703      10.218441960737     106.818770080000
      1054   13       24.581750903605      11.921515616764     106.818770080000
      1055   14       26.548290976331      11.921515616764     106.818770080000
      1056   13       27.531561018154      10.218441960737     106.818770080000
      1057   14       23.598480872703      13.624589280982     106.818770080000
      1058   13       24.581750903605      15.327662937010     106.818770080000
      1059   14       26.548290976331      15.327662937010     106.818770080000
      1060   13       27.531561018154      13.624589280982     106.818770080000
      1061   14       23.598480872703      17.030736601228     106.818770080000
      1062   13       24.581750903605      18.733810257255     106.818770080000
      1063   14       26.548290976331      18.733810257255     106.818770080000
      1064   13       27.531561018154      17.030736601228     106.818770080000
      1065   14       23.598480872703      20.436883921473     106.818770080000
      1066   13       24.581750903605      22.139957577501     106.818770080000
      1067   14       26.548290976331      22.139957577501     106.818770080000
      1068   13       27.531561018154      20.436883921473     106.818770080000
      1069   14       23.598480872703      23.843031241719     106.818770080000
      1070   13       24.581750903605      25.546104897746     106.818770080000
      1071   14       26.548290976331      25.546104897746     106.818770080000
      1072   13       27.531561018154      23.843031241719     106.818770080000
      1073   14       23.598480872703      27.249178561964     106.818770080000
      1074   13       24.581750903605      28.952252217992     106.818770080000
      1075   14       26.548290976331      28.952252217992     106.818770080000
      1076   13       27.531561018154      27.249178561964     106.818770080000
      1077   14       23.598480872703      30.655325882210     106.818770080000
      1078   13       24.581750903605      32.358399538237     106.818770080000
      1079   14       26.548290976331      32.358399538237     106.818770080000
      1080   13       27.531561018154      30.655325882210     106.818770080000
      1081   14       23.598480872703      34.061473202455     106.818770080000
      1082   13       24.581750903605      35.764546858483     106.818770080000
      1083   14       26.548290976331      35.764546858483     106.818770080000
      1084   13       27.531561018154      34.061473202455     106.818770080000
      1085   14       29.498101090879       0.000000000000     106.818770080000
      1086   13       30.481371121781       1.703073656027     106.818770080000
      1087   14       32.447911194507       1.703073656027     106.818770080000
      1088   13       33.431181236330       0.000000000000     106.818770080000
      1089   14       29.498101090879       3.406147320246     106.818770080000
      1090   13       30.481371121781       5.109220976273     106.818770080000
      1091   14       32.447911194507       5.109220976273     106.818770080000
      1092   13       33.431181236330       3.406147320246     106.818770080000
      1093   14       29.498101090879       6.812294640491     106.818770080000
      1094   13       30.481371121781       8.515368296518     106.818770080000
      1095   14       32.447911194507       8.515368296518     106.818770080000
      1096   13       33.431181236330       6.812294640491     106.818770080000
      1097   14       29.498101090879      10.218441960737     106.818770080000
      1098   13       30.481371121781      11.921515616764     106.818770080000
      1099   14       32.447911194507      11.921515616764     106.818770080000
      1100   13       33.431181236330      10.218441960737     106.818770080000
      1101   14       29.498101090879      13.624589280982     106.818770080000
      1102   13       30.481371121781      15.327662937010     106.818770080000
      1103   14       32.447911194507      15.327662937010     106.818770080000
      1104   13       33.431181236330      13.624589280982     106.818770080000
      1105   14       29.498101090879      17.030736601228     106.818770080000
      1106   13       30.481371121781      18.733810257255     106.818770080000
      1107   14       32.447911194507      18.733810257255     106.818770080000
      1108   13       33.431181236330      17.030736601228     106.818770080000
      1109   14       29.498101090879      20.436883921473     106.818770080000
      1110   13       30.481371121781      22.139957577501     106.818770080000
      1111   14       32.447911194507      22.139957577501     106.818770080000
      1112   13       33.431181236330      20.436883921473     106.818770080000
      1113   14       29.498101090879      23.843031241719     106.818770080000
      1114   13       30.481371121781      25.546104897746     106.818770080000
      1115   14       32.447911194507      25.546104897746     106.818770080000
      1116   13       33.431181236330      23.843031241719     106.818770080000
      1117   14       29.498101090879      27.249178561964     106.818770080000
      1118   13       30.481371121781      28.952252217992     106.818770080000
      1119   14       32.447911194507      28.952252217992     106.818770080000
      1120   13       33.431181236330      27.249178561964     106.818770080000
      1121   14       29.498101090879      30.655325882210     106.818770080000
      1122   13       30.481371121781      32.358399538237     106.818770080000
      1123   14       32.447911194507      32.358399538237     106.818770080000
      1124   13       33.431181236330      30.655325882210     106.818770080000
      1125   14       29.498101090879      34.061473202455     106.818770080000
      1126   13       30.481371121781      35.764546858483     106.818770080000
      1127   14       32.447911194507      35.764546858483     106.818770080000
      1128   13       33.431181236330      34.061473202455     106.818770080000
      1129   14       35.397721309055       0.000000000000     106.818770080000
      1130   13       36.380991339957       1.703073656027     106.818770080000
      1131   14       38.347531412682       1.703073656027     106.818770080000
      1132   13       39.330801454506       0.000000000000     106.818770080000
      1133   14       35.397721309055       3.406147320246     106.818770080000
      1134   13       36.380991339957       5.109220976273     106.818770080000
      1135   14       38.347531412682       5.109220976273     106.818770080000
      1136   13       39.330801454506       3.406147320246     106.818770080000
      1137   14       35.397721309055       6.812294640491     106.818770080000
      1138   13       36.380991339957       8.515368296518     106.818770080000
      1139   14       38.347531412682       8.515368296518     106.818770080000
      1140   13       39.330801454506       6.812294640491     106.818770080000
      1141   14       35.397721309055      10.218441960737     106.818770080000
      1142   13       36.380991339957      11.921515616764     106.818770080000
      1143   14       38.347531412682      11.921515616764     106.818770080000
      1144   13       39.330801454506      10.218441960737     106.818770080000
      1145   14       35.397721309055      13.624589280982     106.818770080000
      1146   13       36.380991339957      15.327662937010     106.818770080000
      1147   14       38.347531412682      15.327662937010     106.818770080000
      1148   13       39.330801454506      13.624589280982     106.818770080000
      1149   14       35.397721309055      17.030736601228     106.818770080000
      1150   13       36.380991339957      18.733810257255     106.818770080000
      1151   14       38.347531412682      18.733810257255     106.818770080000
      1152   13       39.330801454506      17.030736601228     106.818770080000
      1153   14       35.397721309055      20.436883921473     106.818770080000
      1154   13       36.380991339957      22.139957577501     106.818770080000
      1155   14       38.347531412682      22.139957577501     106.818770080000
      1156   13       39.330801454506      20.436883921473     106.818770080000
      1157   14       35.397721309055      23.843031241719     106.818770080000
      1158   13       36.380991339957      25.546104897746     106.818770080000
      1159   14       38.347531412682      25.546104897746     106.818770080000
      1160   13       39.330801454506      23.843031241719     106.818770080000
      1161   14       35.397721309055      27.249178561964     106.818770080000
      1162   13       36.380991339957      28.952252217992     106.818770080000
      1163   14       38.347531412682      28.952252217992     106.818770080000
      1164   13       39.330801454506      27.249178561964     106.818770080000
      1165   14       35.397721309055      30.655325882210     106.818770080000
      1166   13       36.380991339957      32.358399538237     106.818770080000
      1167   14       38.347531412682      32.358399538237     106.818770080000
      1168   13       39.330801454506      30.655325882210     106.818770080000
      1169   14       35.397721309055      34.061473202455     106.818770080000
      1170   13       36.380991339957      35.764546858483     106.818770080000
      1171   14       38.347531412682      35.764546858483     106.818770080000
      1172   13       39.330801454506      34.061473202455     106.818770080000
      1173   14       41.297341527231       0.000000000000     106.818770080000
      1174   13       42.280611558133       1.703073656027     106.818770080000
      1175   14       44.247151630858       1.703073656027     106.818770080000
      1176   13       45.230421672682       0.000000000000     106.818770080000
      1177   14       41.297341527231       3.406147320246     106.818770080000
      1178   13       42.280611558133       5.109220976273     106.818770080000
      1179   14       44.247151630858       5.109220976273     106.818770080000
      1180   13       45.230421672682       3.406147320246     106.818770080000
      1181   14       41.297341527231       6.812294640491     106.818770080000
      1182   13       42.280611558133       8.515368296518     106.818770080000
      1183   14       44.247151630858       8.515368296518     106.818770080000
      1184   13       45.230421672682       6.812294640491     106.818770080000
      1185   14       41.297341527231      10.218441960737     106.818770080000
      1186   13       42.280611558133      11.921515616764     106.818770080000
      1187   14       44.247151630858      11.921515616764     106.818770080000
      1188   13       45.230421672682      10.218441960737     106.818770080000
      1189   14       41.297341527231      13.624589280982     106.818770080000
      1190   13       42.280611558133      15.327662937010     106.818770080000
      1191   14       44.247151630858      15.327662937010     106.818770080000
      1192   13       45.230421672682      13.624589280982     106.818770080000
      1193   14       41.297341527231      17.030736601228     106.818770080000
      1194   13       42.280611558133      18.733810257255     106.818770080000
      1195   14       44.247151630858      18.733810257255     106.818770080000
      1196   13       45.230421672682      17.030736601228     106.818770080000
      1197   14       41.297341527231      20.436883921473     106.818770080000
      1198   13       42.280611558133      22.139957577501     106.818770080000
      1199   14       44.247151630858      22.139957577501     106.818770080000
      1200   13       45.230421672682      20.436883921473     106.818770080000
      1201   14       41.297341527231      23.843031241719     106.818770080000
      1202   13       42.280611558133      25.546104897746     106.818770080000
      1203   14       44.247151630858      25.546104897746     106.818770080000
      1204   13       45.230421672682      23.843031241719     106.818770080000
      1205   14       41.297341527231      27.249178561964     106.818770080000
      1206   13       42.280611558133      28.952252217992     106.818770080000
      1207   14       44.247151630858      28.952252217992     106.818770080000
      1208   13       45.230421672682      27.249178561964     106.818770080000
      1209   14       41.297341527231      30.655325882210     106.818770080000
      1210   13       42.280611558133      32.358399538237     106.818770080000
      1211   14       44.247151630858      32.358399538237     106.818770080000
      1212   13       45.230421672682      30.655325882210     106.818770080000
      1213   14       41.297341527231      34.061473202455     106.818770080000
      1214   13       42.280611558133      35.764546858483     106.818770080000
      1215   14       44.247151630858      35.764546858483     106.818770080000
      1216   13       45.230421672682      34.061473202455     106.818770080000
      1217   14       47.196961745407       0.000000000000     106.818770080000
      1218   13       48.180231776309       1.703073656027     106.818770080000
      1219   14       50.146771849034       1.703073656027     106.818770080000
      1220   13       51.130041890858       0.000000000000     106.818770080000
      1221   14       47.196961745407       3.406147320246     106.818770080000
      1222   13       48.180231776309       5.109220976273     106.818770080000
      1223   14       50.146771849034       5.109220976273     106.818770080000
      1224   13       51.130041890858       3.406147320246     106.818770080000
      1225   14       47.196961745407       6.812294640491     106.818770080000
      1226   13       48.180231776309       8.515368296518     106.818770080000
      1227   14       50.146771849034       8.515368296518     106.818770080000
      1228   13       51.130041890858       6.812294640491     106.818770080000
      1229   14       47.196961745407      10.218441960737     106.818770080000
      1230   13       48.180231776309      11.921515616764     106.818770080000
      1231   14       50.146771849034      11.921515616764     106.818770080000
      1232   13       51.130041890858      10.218441960737     106.818770080000
      1233   14       47.196961745407      13.624589280982     106.818770080000
      1234   13       48.180231776309      15.327662937010     106.818770080000
      1235   14       50.146771849034      15.327662937010     106.818770080000
      1236   13       51.130041890858      13.624589280982     106.818770080000
      1237   14       47.196961745407      17.030736601228     106.818770080000
      1238   13       48.180231776309      18.733810257255     106.818770080000
      1239   14       50.146771849034      18.733810257255     106.818770080000
      1240   13       51.130041890858      17.030736601228     106.818770080000
      1241   14       47.196961745407      20.436883921473     106.818770080000
      1242   13       48.180231776309      22.139957577501     106.818770080000
      1243   14       50.146771849034      22.139957577501     106.818770080000
      1244   13       51.130041890858      20.436883921473     106.818770080000
      1245   14       47.196961745407      23.843031241719     106.818770080000
      1246   13       48.180231776309      25.546104897746     106.818770080000
      1247   14       50.146771849034      25.546104897746     106.818770080000
      1248   13       51.130041890858      23.843031241719     106.818770080000
      1249   14       47.196961745407      27.249178561964     106.818770080000
      1250   13       48.180231776309      28.952252217992     106.818770080000
      1251   14       50.146771849034      28.952252217992     106.818770080000
      1252   13       51.130041890858      27.249178561964     106.818770080000
      1253   14       47.196961745407      30.655325882210     106.818770080000
      1254   13       48.180231776309      32.358399538237     106.818770080000
      1255   14       50.146771849034      32.358399538237     106.818770080000
      1256   13       51.130041890858      30.655325882210     106.818770080000
      1257   14       47.196961745407      34.061473202455     106.818770080000
      1258   13       48.180231776309      35.764546858483     106.818770080000
      1259   14       50.146771849034      35.764546858483     106.818770080000
      1260   13       51.130041890858      34.061473202455     106.818770080000
      1261   14       53.096581963583       0.000000000000     106.818770080000
      1262   13       54.079851994484       1.703073656027     106.818770080000
      1263   14       56.046392067210       1.703073656027     106.818770080000
      1264   13       57.029662109033       0.000000000000     106.818770080000
      1265   14       53.096581963583       3.406147320246     106.818770080000
      1266   13       54.079851994484       5.109220976273     106.818770080000
      1267   14       56.046392067210       5.109220976273     106.818770080000
      1268   13       57.029662109033       3.406147320246     106.818770080000
      1269   14       53.096581963583       6.812294640491     106.818770080000
      1270   13       54.079851994484       8.515368296518     106.818770080000
      1271   14       56.046392067210       8.515368296518     106.818770080000
      1272   13       57.029662109033       6.812294640491     106.818770080000
      1273   14       53.096581963583      10.218441960737     106.818770080000
      1274   13       54.079851994484      11.921515616764     106.818770080000
      1275   14       56.046392067210      11.921515616764     106.818770080000
      1276   13       57.029662109033      10.218441960737     106.818770080000
      1277   14       53.096581963583      13.624589280982     106.818770080000
      1278   13       54.079851994484      15.327662937010     106.818770080000
      1279   14       56.046392067210      15.327662937010     106.818770080000
      1280   13       57.029662109033      13.624589280982     106.818770080000
      1281   14       53.096581963583      17.030736601228     106.818770080000
      1282   13       54.079851994484      18.733810257255     106.818770080000
      1283   14       56.046392067210      18.733810257255     106.818770080000
      1284   13       57.029662109033      17.030736601228     106.818770080000
      1285   14       53.096581963583      20.436883921473     106.818770080000
      1286   13       54.079851994484      22.139957577501     106.818770080000
      1287   14       56.046392067210      22.139957577501     106.818770080000
      1288   13       57.029662109033      20.436883921473     106.818770080000
      1289   14       53.096581963583      23.843031241719     106.818770080000
      1290   13       54.079851994484      25.546104897746     106.818770080000
      1291   14       56.046392067210      25.546104897746     106.818770080000
      1292   13       57.029662109033      23.843031241719     106.818770080000
      1293   14       53.096581963583      27.249178561964     106.818770080000
      1294   13       54.079851994484      28.952252217992     106.818770080000
      1295   14       56.046392067210      28.952252217992     106.818770080000
      1296   13       57.029662109033      27.249178561964     106.818770080000
      1297   14       53.096581963583      30.655325882210     106.818770080000
      1298   13       54.079851994484      32.358399538237     106.818770080000
      1299   14       56.046392067210      32.358399538237     106.818770080000
      1300   13       57.029662109033      30.655325882210     106.818770080000
      1301   14       53.096581963583      34.061473202455     106.818770080000
      1302   13       54.079851994484      35.764546858483     106.818770080000
      1303   14       56.046392067210      35.764546858483     106.818770080000
      1304   13       57.029662109033      34.061473202455     106.818770080000
      1305   14       58.996202181758       0.000000000000     106.818770080000
      1306   13       59.979472212660       1.703073656027     106.818770080000
      1307   14       61.946012285386       1.703073656027     106.818770080000
      1308   13       62.929282327209       0.000000000000     106.818770080000
      1309   14       58.996202181758       3.406147320246     106.818770080000
      1310   13       59.979472212660       5.109220976273     106.818770080000
      1311   14       61.946012285386       5.109220976273     106.818770080000
      1312   13       62.929282327209       3.406147320246     106.818770080000
      1313   14       58.996202181758       6.812294640491     106.818770080000
      1314   13       59.979472212660       8.515368296518     106.818770080000
      1315   14       61.946012285386       8.515368296518     106.818770080000
      1316   13       62.929282327209       6.812294640491     106.818770080000
      1317   14       58.996202181758      10.218441960737     106.818770080000
      1318   13       59.979472212660      11.921515616764     106.818770080000
      1319   14       61.946012285386      11.921515616764     106.818770080000
      1320   13       62.929282327209      10.218441960737     106.818770080000
      1321   14       58.996202181758      13.624589280982     106.818770080000
      1322   13       59.979472212660      15.327662937010     106.818770080000
      1323   14       61.946012285386      15.327662937010     106.818770080000
      1324   13       62.929282327209      13.624589280982     106.818770080000
      1325   14       58.996202181758      17.030736601228     106.818770080000
      1326   13       59.979472212660      18.733810257255     106.818770080000
      1327   14       61.946012285386      18.733810257255     106.818770080000
      1328   13       62.929282327209      17.030736601228     106.818770080000
      1329   14       58.996202181758      20.436883921473     106.818770080000
      1330   13       59.979472212660      22.139957577501     106.818770080000
      1331   14       61.946012285386      22.139957577501     106.818770080000
      1332   13       62.929282327209      20.436883921473     106.818770080000
      1333   14       58.996202181758      23.843031241719     106.818770080000
      1334   13       59.979472212660      25.546104897746     106.818770080000
      1335   14       61.946012285386      25.546104897746     106.818770080000
      1336   13       62.929282327209      23.843031241719     106.818770080000
      1337   14       58.996202181758      27.249178561964     106.818770080000
      1338   13       59.979472212660      28.952252217992     106.818770080000
      1339   14       61.946012285386      28.952252217992     106.818770080000
      1340   13       62.929282327209      27.249178561964     106.818770080000
      1341   14       58.996202181758      30.655325882210     106.818770080000
      1342   13       59.979472212660      32.358399538237     106.818770080000
      1343   14       61.946012285386      32.358399538237     106.818770080000
      1344   13       62.929282327209      30.655325882210     106.818770080000
      1345   14       58.996202181758      34.061473202455     106.818770080000
      1346   13       59.979472212660      35.764546858483     106.818770080000
      1347   14       61.946012285386      35.764546858483     106.818770080000
      1348   13       62.929282327209      34.061473202455     106.818770080000
      1349    3       64.895822399934       0.000000000000     100.000000000000
      1350    1       64.895822399934       0.000000000000     103.118770080000
      1351    9       64.895822399934       3.122301712728     100.000000000000
      1352    7       64.895822399934       3.122301712728     103.118770080000
      1353    2       65.797153261594       1.561150851358     101.559385040000
      1354    8       65.797153261594       4.683452564086     101.559385040000
      1355    6       67.599814994926       1.561150851358     100.000000000000
      1356    4       67.599814994926       1.561150851358     103.118770080000
      1357   12       67.599814994926       4.683452564086     100.000000000000
      1358   10       67.599814994926       4.683452564086     103.118770080000
      1359    5       68.501145866597       0.000000000000     101.559385040000
      1360   11       68.501145866597       3.122301712728     101.559385040000
      1361    3       64.895822399934       6.244603420450     100.000000000000
      1362    1       64.895822399934       6.244603420450     103.118770080000
      1363    9       64.895822399934       9.366905133178     100.000000000000
      1364    7       64.895822399934       9.366905133178     103.118770080000
      1365    2       65.797153261594       7.805754271808     101.559385040000
      1366    8       65.797153261594      10.928055984536     101.559385040000
      1367    6       67.599814994926       7.805754271808     100.000000000000
      1368    4       67.599814994926       7.805754271808     103.118770080000
      1369   12       67.599814994926      10.928055984536     100.000000000000
      1370   10       67.599814994926      10.928055984536     103.118770080000
      1371    5       68.501145866597       6.244603420450     101.559385040000
      1372   11       68.501145866597       9.366905133178     101.559385040000
      1373    3       64.895822399934      12.489206840900     100.000000000000
      1374    1       64.895822399934      12.489206840900     103.118770080000
      1375    9       64.895822399934      15.611508553628     100.000000000000
      1376    7       64.895822399934      15.611508553628     103.118770080000
      1377    2       65.797153261594      14.050357692259     101.559385040000
      1378    8       65.797153261594      17.172659404987     101.559385040000
      1379    6       67.599814994926      14.050357692259     100.000000000000
      1380    4       67.599814994926      14.050357692259     103.118770080000
      1381   12       67.599814994926      17.172659404987     100.000000000000
      1382   10       67.599814994926      17.172659404987     103.118770080000
      1383    5       68.501145866597      12.489206840900     101.559385040000
      1384   11       68.501145866597      15.611508553628     101.559385040000
      1385    3       64.895822399934      18.733810261350     100.000000000000
      1386    1       64.895822399934      18.733810261350     103.118770080000
      1387    9       64.895822399934      21.856111974078     100.000000000000
      1388    7       64.895822399934      21.856111974078     103.118770080000
      1389    2       65.797153261594      20.294961112709     101.559385040000
      1390    8       65.797153261594      23.417262825437     101.559385040000
      1391    6       67.599814994926      20.294961112709     100.000000000000
      1392    4       67.599814994926      20.294961112709     103.118770080000
      1393   12       67.599814994926      23.417262825437     100.000000000000
      1394   10       67.599814994926      23.417262825437     103.118770080000
      1395    5       68.501145866597      18.733810261350     101.559385040000
      1396   11       68.501145866597      21.856111974078     101.559385040000
      1397    3       64.895822399934      24.978413681801     100.000000000000
      1398    1       64.895822399934      24.978413681801     103.118770080000
      1399    9       64.895822399934      28.100715394529     100.000000000000
      1400    7       64.895822399934      28.100715394529     103.118770080000
      1401    2       65.797153261594      26.539564533159     101.559385040000
      1402    8       65.797153261594      29.661866245887     101.559385040000
      1403    6       67.599814994926      26.539564533159     100.000000000000
      1404    4       67.599814994926      26.539564533159     103.118770080000
      1405   12       67.599814994926      29.661866245887     100.000000000000
      1406   10       67.599814994926      29.661866245887     103.118770080000
      1407    5       68.501145866597      24.978413681801     101.559385040000
      1408   11       68.501145866597      28.100715394529     101.559385040000
      1409    3       64.895822399934      31.223017102251     100.000000000000
      1410    1       64.895822399934      31.223017102251     103.118770080000
      1411    9       64.895822399934      34.345318814979     100.000000000000
      1412    7       64.895822399934      34.345318814979     103.118770080000
      1413    2       65.797153261594      32.784167953609     101.559385040000
      1414    8       65.797153261594      35.906469666337     101.559385040000
      1415    6       67.599814994926      32.784167953609     100.000000000000
      1416    4       67.599814994926      32.784167953609     103.118770080000
      1417   12       67.599814994926      35.906469666337     100.000000000000
      1418   10       67.599814994926      35.906469666337     103.118770080000
      1419    5       68.501145866597      31.223017102251     101.559385040000
      1420   11       68.501145866597      34.345318814979     101.559385040000
      1421    3       70.303807599929       0.000000000000     100.000000000000
      1422    1       70.303807599929       0.000000000000     103.118770080000
      1423    9       70.303807599929       3.122301712728     100.000000000000
      1424    7       70.303807599929       3.122301712728     103.118770080000
      1425    2       71.205138461589       1.561150851358     101.559385040000
      1426    8       71.205138461589       4.683452564086     101.559385040000
      1427    6       73.007800194920       1.561150851358     100.000000000000
      1428    4       73.007800194920       1.561150851358     103.118770080000
      1429   12       73.007800194920       4.683452564086     100.000000000000
      1430   10       73.007800194920       4.683452564086     103.118770080000
      1431    5       73.909131066592       0.000000000000     101.559385040000
      1432   11       73.909131066592       3.122301712728     101.559385040000
      1433    3       70.303807599929       6.244603420450     100.000000000000
      1434    1       70.303807599929       6.244603420450     103.118770080000
      1435    9       70.303807599929       9.366905133178     100.000000000000
      1436    7       70.303807599929       9.366905133178     103.118770080000
      1437    2       71.205138461589       7.805754271808     101.559385040000
      1438    8       71.205138461589      10.928055984536     101.559385040000
      1439    6       73.007800194920       7.805754271808     100.000000000000
      1440    4       73.007800194920       7.805754271808     103.118770080000
      1441   12       73.007800194920      10.928055984536     100.000000000000
      1442   10       73.007800194920      10.928055984536     103.118770080000
      1443    5       73.909131066592       6.244603420450     101.559385040000
      1444   11       73.909131066592       9.366905133178     101.559385040000
      1445    3       70.303807599929      12.489206840900     100.000000000000
      1446    1       70.303807599929      12.489206840900     103.118770080000
      1447    9       70.303807599929      15.611508553628     100.000000000000
      1448    7       70.303807599929      15.611508553628     103.118770080000
      1449    2       71.205138461589      14.050357692259     101.559385040000
      1450    8       71.205138461589      17.172659404987     101.559385040000
      1451    6       73.007800194920      14.050357692259     100.000000000000
      1452    4       73.007800194920      14.050357692259     103.118770080000
      1453   12       73.007800194920      17.172659404987     100.000000000000
      1454   10       73.007800194920      17.172659404987     103.118770080000
      1455    5       73.909131066592      12.489206840900     101.559385040000
      1456   11       73.909131066592      15.611508553628     101.559385040000
      1457    3       70.303807599929      18.733810261350     100.000000000000
      1458    1       70.303807599929      18.733810261350     103.118770080000
      1459    9       70.303807599929      21.856111974078     100.000000000000
      1460    7       70.303807599929      21.856111974078     103.118770080000
      1461    2       71.205138461589      20.294961112709     101.559385040000
      1462    8       71.205138461589      23.417262825437     101.559385040000
      1463    6       73.007800194920      20.294961112709     100.000000000000
      1464    4       73.007800194920      20.294961112709     103.118770080000
      1465   12       73.007800194920      23.417262825437     100.000000000000
      1466   10       73.007800194920      23.417262825437     103.118770080000
      1467    5       73.909131066592      18.733810261350     101.559385040000
      1468   11       73.909131066592      21.856111974078     101.559385040000
      1469    3       70.303807599929      24.978413681801     100.000000000000
      1470    1       70.303807599929      24.978413681801     103.118770080000
      1471    9       70.303807599929      28.100715394529     100.000000000000
      1472    7       70.303807599929      28.100715394529     103.118770080000
      1473    2       71.205138461589      26.539564533159     101.559385040000
      1474    8       71.205138461589      29.661866245887     101.559385040000
      1475    6       73.007800194920      26.539564533159     100.000000000000
      1476    4       73.007800194920      26.539564533159     103.118770080000
      1477   12       73.007800194920      29.661866245887     100.000000000000
      1478   10       73.007800194920      29.661866245887     103.118770080000
      1479    5       73.909131066592      24.978413681801     101.559385040000
      1480   11       73.909131066592      28.100715394529     101.559385040000
      1481    3       70.303807599929      31.223017102251     100.000000000000
      1482    1       70.303807599929      31.223017102251     103.118770080000
      1483    9       70.303807599929      34.345318814979     100.000000000000
      1484    7       70.303807599929      34.345318814979     103.118770080000
      1485    2       71.205138461589      32.784167953609     101.559385040000
      1486    8       71.205138461589      35.906469666337     101.559385040000
      1487    6       73.007800194920      32.784167953609     100.000000000000
      1488    4       73.007800194920      32.784167953609     103.118770080000
      1489   12       73.007800194920      35.906469666337     100.000000000000
      1490   10       73.007800194920      35.906469666337     103.118770080000
      1491    5       73.909131066592      31.223017102251     101.559385040000
      1492   11       73.909131066592      34.345318814979     101.559385040000
      1493    3       75.711792799923       0.000000000000     100.000000000000
      1494    1       75.711792799923       0.000000000000     103.118770080000
      1495    9       75.711792799923       3.122301712728     100.000000000000
      1496    7       75.711792799923       3.122301712728     103.118770080000
      1497    2       76.613123661583       1.561150851358     101.559385040000
      1498    8       76.613123661583       4.683452564086     101.559385040000
      1499    6       78.415785394915       1.561150851358     100.000000000000
      1500    4       78.415785394915       1.561150851358     103.118770080000
      1501   12       78.415785394915       4.683452564086     100.000000000000
      1502   10       78.415785394915       4.683452564086     103.118770080000
      1503    5       79.317116266586       0.000000000000     101.559385040000
      1504   11       79.317116266586       3.122301712728     101.559385040000
      1505    3       75.711792799923       6.244603420450     100.000000000000
      1506    1       75.711792799923       6.244603420450     103.118770080000
      1507    9       75.711792799923       9.366905133178     100.000000000000
      1508    7       75.711792799923       9.366905133178     103.118770080000
      1509    2       76.613123661583       7.805754271808     101.559385040000
      1510    8       76.613123661583      10.928055984536     101.559385040000
      1511    6       78.415785394915       7.805754271808     100.000000000000
      1512    4       78.415785394915       7.805754271808     103.118770080000
      1513   12       78.415785394915      10.928055984536     100.000000000000
      1514   10       78.415785394915      10.928055984536     103.118770080000
      1515    5       79.317116266586       6.244603420450     101.559385040000
      1516   11       79.317116266586       9.366905133178     101.559385040000
      1517    3       75.711792799923      12.489206840900     100.000000000000
      1518    1       75.711792799923      12.489206840900     103.118770080000
      1519    9       75.711792799923      15.611508553628     100.000000000000
      1520    7       75.711792799923      15.611508553628     103.118770080000
      1521    2       76.613123661583      14.050357692259     101.559385040000
      1522    8       76.613123661583      17.172659404987     101.559385040000
      1523    6       78.415785394915      14.050357692259     100.000000000000
      1524    4       78.415785394915      14.050357692259     103.118770080000
      1525   12       78.415785394915      17.172659404987     100.000000000000
      1526   10       78.415785394915      17.172659404987     103.118770080000
      1527    5       79.317116266586      12.489206840900     101.559385040000
      1528   11       79.317116266586      15.611508553628     101.559385040000
      1529    3       75.711792799923      18.733810261350     100.000000000000
      1530    1       75.711792799923      18.733810261350     103.118770080000
      1531    9       75.711792799923      21.856111974078     100.000000000000
      1532    7       75.711792799923      21.856111974078     103.118770080000
      1533    2       76.613123661583      20.294961112709     101.559385040000
      1534    8       76.613123661583      23.417262825437     101.559385040000
      1535    6       78.415785394915      20.294961112709     100.000000000000
      1536    4       78.415785394915      20.294961112709     103.118770080000
      1537   12       78.415785394915      23.417262825437     100.000000000000
      1538   10       78.415785394915      23.417262825437     103.118770080000
      1539    5       79.317116266586      18.733810261350     101.559385040000
      1540   11       79.317116266586      21.856111974078     101.559385040000
      1541    3       75.711792799923      24.978413681801     100.000000000000
      1542    1       75.711792799923      24.978413681801     103.118770080000
      1543    9       75.711792799923      28.100715394529     100.000000000000
      1544    7       75.711792799923      28.100715394529     103.118770080000
      1545    2       76.613123661583      26.539564533159     101.559385040000
      1546    8       76.613123661583      29.661866245887     101.559385040000
      1547    6       78.415785394915      26.539564533159     100.000000000000
      1548    4       78.415785394915      26.539564533159     103.118770080000
      1549   12       78.415785394915      29.661866245887     100.000000000000
      1550   10       78.415785394915      29.661866245887     103.118770080000
      1551    5       79.317116266586      24.978413681801     101.559385040000
      1552   11       79.317116266586      28.100715394529     101.559385040000
      1553    3       75.711792799923      31.223017102251     100.000000000000
      1554    1       75.711792799923      31.223017102251     103.118770080000
      1555    9       75.711792799923      34.345318814979     100.000000000000
      1556    7       75.711792799923      34.345318814979     103.118770080000
      1557    2       76.613123661583      32.784167953609     101.559385040000
      1558    8       76.613123661583      35.906469666337     101.559385040000
      1559    6       78.415785394915      32.784167953609     100.000000000000
      1560    4       78.415785394915      32.784167953609     103.118770080000
      1561   12       78.415785394915      35.906469666337     100.000000000000
      1562   10       78.415785394915      35.906469666337     103.118770080000
      1563    5       79.317116266586      31.223017102251     101.559385040000
      1564   11       79.317116266586      34.345318814979     101.559385040000
      1565    3       81.119777999918       0.000000000000     100.000000000000
      1566    1       81.119777999918       0.000000000000     103.118770080000
      1567    9       81.119777999918       3.122301712728     100.000000000000
      1568    7       81.119777999918       3.122301712728     103.118770080000
      1569    2       82.021108861578       1.561150851358     101.559385040000
      1570    8       82.021108861578       4.683452564086     101.559385040000
      1571    6       83.823770594909       1.561150851358     100.000000000000
      1572    4       83.823770594909       1.561150851358     103.118770080000
      1573   12       83.823770594909       4.683452564086     100.000000000000
      1574   10       83.823770594909       4.683452564086     103.118770080000
      1575    5       84.725101466581       0.000000000000     101.559385040000
      1576   11       84.725101466581       3.122301712728     101.559385040000
      1577    3       81.119777999918       6.244603420450     100.000000000000
      1578    1       81.119777999918       6.244603420450     103.118770080000
      1579    9       81.119777999918       9.366905133178     100.000000000000
      1580    7       81.119777999918       9.366905133178     103.118770080000
      1581    2       82.021108861578       7.805754271808     101.559385040000
      1582    8       82.021108861578      10.928055984536     101.559385040000
      1583    6       83.823770594909       7.805754271808     100.000000000000
      1584    4       83.823770594909       7.805754271808     103.118770080000
      1585   12       83.823770594909      10.928055984536     100.000000000000
      1586   10       83.823770594909      10.928055984536     103.118770080000
      1587    5       84.725101466581       6.244603420450     101.559385040000
      1588   11       84.725101466581       9.366905133178     101.559385040000
      1589    3       81.119777999918      12.489206840900     100.000000000000
      1590    1       81.119777999918      12.489206840900     103.118770080000
      1591    9       81.119777999918      15.611508553628     100.000000000000
      1592    7       81.119777999918      15.611508553628     103.118770080000
      1593    2       82.021108861578      14.050357692259     101.559385040000
      1594    8       82.021108861578      17.172659404987     101.559385040000
      1595    6       83.823770594909      14.050357692259     100.000000000000
      1596    4       83.823770594909      14.050357692259     103.118770080000
      1597   12       83.823770594909      17.172659404987     100.000000000000
      1598   10       83.823770594909      17.172659404987     103.118770080000
      1599    5       84.725101466581      12.489206840900     101.559385040000
      1600   11       84.725101466581      15.611508553628     101.559385040000
      1601    3       81.119777999918      18.733810261350     100.000000000000
      1602    1       81.119777999918      18.733810261350     103.118770080000
      1603    9       81.119777999918      21.856111974078     100.000000000000
      1604    7       81.119777999918      21.856111974078     103.118770080000
      1605    2       82.021108861578      20.294961112709     101.559385040000
      1606    8       82.021108861578      23.417262825437     101.559385040000
      1607    6       83.823770594909      20.294961112709     100.000000000000
      1608    4       83.823770594909      20.294961112709     103.118770080000
      1609   12       83.823770594909      23.417262825437     100.000000000000
      1610   10       83.823770594909      23.417262825437     103.118770080000
      1611    5       84.725101466581      18.733810261350     101.559385040000
      1612   11       84.725101466581      21.856111974078     101.559385040000
      1613    3       81.119777999918      24.978413681801     100.000000000000
      1614    1       81.119777999918      24.978413681801     103.118770080000
      1615    9       81.119777999918      28.100715394529     100.000000000000
      1616    7       81.119777999918      28.100715394529     103.118770080000
      1617    2       82.021108861578      26.539564533159     101.559385040000
      1618    8       82.021108861578      29.661866245887     101.559385040000
      1619    6       83.823770594909      26.539564533159     100.000000000000
      1620    4       83.823770594909      26.539564533159     103.118770080000
      1621   12       83.823770594909      29.661866245887     100.000000000000
      1622   10       83.823770594909      29.661866245887     103.118770080000
      1623    5       84.725101466581      24.978413681801     101.559385040000
      1624   11       84.725101466581      28.100715394529     101.559385040000
      1625    3       81.119777999918      31.223017102251     100.000000000000
      1626    1       81.119777999918      31.223017102251     103.118770080000
      1627    9       81.119777999918      34.345318814979     100.000000000000
      1628    7       81.119777999918      34.345318814979     103.118770080000
      1629    2       82.021108861578      32.784167953609     101.559385040000
      1630    8       82.021108861578      35.906469666337     101.559385040000
      1631    6       83.823770594909      32.784167953609     100.000000000000
      1632    4       83.823770594909      32.784167953609     103.118770080000
      1633   12       83.823770594909      35.906469666337     100.000000000000
      1634   10       83.823770594909      35.906469666337     103.118770080000
      1635    5       84.725101466581      31.223017102251     101.559385040000
      1636   11       84.725101466581      34.345318814979     101.559385040000
      1637    3       86.527763199912       0.000000000000     100.000000000000
      1638    1       86.527763199912       0.000000000000     103.118770080000
      1639    9       86.527763199912       3.122301712728     100.000000000000
      1640    7       86.527763199912       3.122301712728     103.118770080000
      1641    2       87.429094061572       1.561150851358     101.559385040000
      1642    8       87.429094061572       4.683452564086     101.559385040000
      1643    6       89.231755794904       1.561150851358     100.000000000000
      1644    4       89.231755794904       1.561150851358     103.118770080000
      1645   12       89.231755794904       4.683452564086     100.000000000000
      1646   10       89.231755794904       4.683452564086     103.118770080000
      1647    5       90.133086666575       0.000000000000     101.559385040000
      1648   11       90.133086666575       3.122301712728     101.559385040000
      1649    3       86.527763199912       6.244603420450     100.000000000000
      1650    1       86.527763199912       6.244603420450     103.118770080000
      1651    9       86.527763199912       9.366905133178     100.000000000000
      1652    7       86.527763199912       9.366905133178     103.118770080000
      1653    2       87.429094061572       7.805754271808     101.559385040000
      1654    8       87.429094061572      10.928055984536     101.559385040000
      1655    6       89.231755794904       7.805754271808     100.000000000000
      1656    4       89.231755794904       7.805754271808     103.118770080000
      1657   12       89.231755794904      10.928055984536     100.000000000000
      1658   10       89.231755794904      10.928055984536     103.118770080000
      1659    5       90.133086666575       6.244603420450     101.559385040000
      1660   11       90.133086666575       9.366905133178     101.559385040000
      1661    3       86.527763199912      12.489206840900     100.000000000000
      1662    1       86.527763199912      12.489206840900     103.118770080000
      1663    9       86.527763199912      15.611508553628     100.000000000000
      1664    7       86.527763199912      15.611508553628     103.118770080000
      1665    2       87.429094061572      14.050357692259     101.559385040000
      1666    8       87.429094061572      17.172659404987     101.559385040000
      1667    6       89.231755794904      14.050357692259     100.000000000000
      1668    4       89.231755794904      14.050357692259     103.118770080000
      1669   12       89.231755794904      17.172659404987     100.000000000000
      1670   10       89.231755794904      17.172659404987     103.118770080000
      1671    5       90.133086666575      12.489206840900     101.559385040000
      1672   11       90.133086666575      15.611508553628     101.559385040000
      1673    3       86.527763199912      18.733810261350     100.000000000000
      1674    1       86.527763199912      18.733810261350     103.118770080000
      1675    9       86.527763199912      21.856111974078     100.000000000000
      1676    7       86.527763199912      21.856111974078     103.118770080000
      1677    2       87.429094061572      20.294961112709     101.559385040000
      1678    8       87.429094061572      23.417262825437     101.559385040000
      1679    6       89.231755794904      20.294961112709     100.000000000000
      1680    4       89.231755794904      20.294961112709     103.118770080000
      1681   12       89.231755794904      23.417262825437     100.000000000000
      1682   10       89.231755794904      23.417262825437     103.118770080000
      1683    5       90.133086666575      18.733810261350     101.559385040000
      1684   11       90.133086666575      21.856111974078     101.559385040000
      1685    3       86.527763199912      24.978413681801     100.000000000000
      1686    1       86.527763199912      24.978413681801     103.118770080000
      1687    9       86.527763199912      28.100715394529     100.000000000000
      1688    7       86.527763199912      28.100715394529     103.118770080000
      1689    2       87.429094061572      26.539564533159     101.559385040000
      1690    8       87.429094061572      29.661866245887     101.559385040000
      1691    6       89.231755794904      26.539564533159     100.000000000000
      1692    4       89.231755794904      26.539564533159     103.118770080000
      1693   12       89.231755794904      29.661866245887     100.000000000000
      1694   10       89.231755794904      29.661866245887     103.118770080000
      1695    5       90.133086666575      24.978413681801     101.559385040000
      1696   11       90.133086666575      28.100715394529     101.559385040000
      1697    3       86.527763199912      31.223017102251     100.000000000000
      1698    1       86.527763199912      31.223017102251     103.118770080000
      1699    9       86.527763199912      34.345318814979     100.000000000000
      1700    7       86.527763199912      34.345318814979     103.118770080000
      1701    2       87.429094061572      32.784167953609     101.559385040000
      1702    8       87.429094061572      35.906469666337     101.559385040000
      1703    6       89.231755794904      32.784167953609     100.000000000000
      1704    4       89.231755794904      32.784167953609     103.118770080000
      1705   12       89.231755794904      35.906469666337     100.000000000000
      1706   10       89.231755794904      35.906469666337     103.118770080000
      1707    5       90.133086666575      31.223017102251     101.559385040000
      1708   11       90.133086666575      34.345318814979     101.559385040000
      1709    3       91.935748399907       0.000000000000     100.000000000000
      1710    1       91.935748399907       0.000000000000     103.118770080000
      1711    9       91.935748399907       3.122301712728     100.000000000000
      1712    7       91.935748399907       3.122301712728     103.118770080000
      1713    2       92.837079261567       1.561150851358     101.559385040000
      1714    8       92.837079261567       4.683452564086     101.559385040000
      1715    6       94.639740994898       1.561150851358     100.000000000000
      1716    4       94.639740994898       1.561150851358     103.118770080000
      1717   12       94.639740994898       4.683452564086     100.000000000000
      1718   10       94.639740994898       4.683452564086     103.118770080000
      1719    5       95.541071866570       0.000000000000     101.559385040000
      1720   11       95.541071866570       3.122301712728     101.559385040000
      1721    3       91.935748399907       6.244603420450     100.000000000000
      1722    1       91.935748399907       6.244603420450     103.118770080000
      1723    9       91.935748399907       9.366905133178     100.000000000000
      1724    7       91.935748399907       9.366905133178     103.118770080000
      1725    2       92.837079261567       7.805754271808     101.559385040000
      1726    8       92.837079261567      10.928055984536     101.559385040000
      1727    6       94.639740994898       7.805754271808     100.000000000000
      1728    4       94.639740994898       7.805754271808     103.118770080000
      1729   12       94.639740994898      10.928055984536     100.000000000000
      1730   10       94.639740994898      10.928055984536     103.118770080000
      1731    5       95.541071866570       6.244603420450     101.559385040000
      1732   11       95.541071866570       9.366905133178     101.559385040000
      1733    3       91.935748399907      12.489206840900     100.000000000000
      1734    1       91.935748399907      12.489206840900     103.118770080000
      1735    9       91.935748399907      15.611508553628     100.000000000000
      1736    7       91.935748399907      15.611508553628     103.118770080000
      1737    2       92.837079261567      14.050357692259     101.559385040000
      1738    8       92.837079261567      17.172659404987     101.559385040000
      1739    6       94.639740994898      14.050357692259     100.000000000000
      1740    4       94.639740994898      14.050357692259     103.118770080000
      1741   12       94.639740994898      17.172659404987     100.000000000000
      1742   10       94.639740994898      17.172659404987     103.118770080000
      1743    5       95.541071866570      12.489206840900     101.559385040000
      1744   11       95.541071866570      15.611508553628     101.559385040000
      1745    3       91.935748399907      18.733810261350     100.000000000000
      1746    1       91.935748399907      18.733810261350     103.118770080000
      1747    9       91.935748399907      21.856111974078     100.000000000000
      1748    7       91.935748399907      21.856111974078     103.118770080000
      1749    2       92.837079261567      20.294961112709     101.559385040000
      1750    8       92.837079261567      23.417262825437     101.559385040000
      1751    6       94.639740994898      20.294961112709     100.000000000000
      1752    4       94.639740994898      20.294961112709     103.118770080000
      1753   12       94.639740994898      23.417262825437     100.000000000000
      1754   10       94.639740994898      23.417262825437     103.118770080000
      1755    5       95.541071866570      18.733810261350     101.559385040000
      1756   11       95.541071866570      21.856111974078     101.559385040000
      1757    3       91.935748399907      24.978413681801     100.000000000000
      1758    1       91.935748399907      24.978413681801     103.118770080000
      1759    9       91.935748399907      28.100715394529     100.000000000000
      1760    7       91.935748399907      28.100715394529     103.118770080000
      1761    2       92.837079261567      26.539564533159     101.559385040000
      1762    8       92.837079261567      29.661866245887     101.559385040000
      1763    6       94.639740994898      26.539564533159     100.000000000000
      1764    4       94.639740994898      26.539564533159     103.118770080000
      1765   12       94.639740994898      29.661866245887     100.000000000000
      1766   10       94.639740994898      29.661866245887     103.118770080000
      1767    5       95.541071866570      24.978413681801     101.559385040000
      1768   11       95.541071866570      28.100715394529     101.559385040000
      1769    3       91.935748399907      31.223017102251     100.000000000000
      1770    1       91.935748399907      31.223017102251     103.118770080000
      1771    9       91.935748399907      34.345318814979     100.000000000000
      1772    7       91.935748399907      34.345318814979     103.118770080000
      1773    2       92.837079261567      32.784167953609     101.559385040000
      1774    8       92.837079261567      35.906469666337     101.559385040000
      1775    6       94.639740994898      32.784167953609     100.000000000000
      1776    4       94.639740994898      32.784167953609     103.118770080000
      1777   12       94.639740994898      35.906469666337     100.000000000000
      1778   10       94.639740994898      35.906469666337     103.118770080000
      1779    5       95.541071866570      31.223017102251     101.559385040000
      1780   11       95.541071866570      34.345318814979     101.559385040000
      1781    3       97.343733599901       0.000000000000     100.000000000000
      1782    1       97.343733599901       0.000000000000     103.118770080000
      1783    9       97.343733599901       3.122301712728     100.000000000000
      1784    7       97.343733599901       3.122301712728     103.118770080000
      1785    2       98.245064461561       1.561150851358     101.559385040000
      1786    8       98.245064461561       4.683452564086     101.559385040000
      1787    6      100.047726194893       1.561150851358     100.000000000000
      1788    4      100.047726194893       1.561150851358     103.118770080000
      1789   12      100.047726194893       4.683452564086     100.000000000000
      1790   10      100.047726194893       4.683452564086     103.118770080000
      1791    5      100.949057066564       0.000000000000     101.559385040000
      1792   11      100.949057066564       3.122301712728     101.559385040000
      1793    3       97.343733599901       6.244603420450     100.000000000000
      1794    1       97.343733599901       6.244603420450     103.118770080000
      1795    9       97.343733599901       9.366905133178     100.000000000000
      1796    7       97.343733599901       9.366905133178     103.118770080000
      1797    2       98.245064461561       7.805754271808     101.559385040000
      1798    8       98.245064461561      10.928055984536     101.559385040000
      1799    6      100.047726194893       7.805754271808     100.000000000000
      1800    4      100.047726194893       7.805754271808     103.118770080000
      1801   12      100.047726194893      10.928055984536     100.000000000000
      1802   10      100.047726194893      10.928055984536     103.118770080000
      1803    5      100.949057066564       6.244603420450     101.559385040000
      1804   11      100.949057066564       9.366905133178     101.559385040000
      1805    3       97.343733599901      12.489206840900     100.000000000000
      1806    1       97.343733599901      12.489206840900     103.118770080000
      1807    9       97.343733599901      15.611508553628     100.000000000000
      1808    7       97.343733599901      15.611508553628     103.118770080000
      1809    2       98.245064461561      14.050357692259     101.559385040000
      1810    8       98.245064461561      17.172659404987     101.559385040000
      1811    6      100.047726194893      14.050357692259     100.000000000000
      1812    4      100.047726194893      14.050357692259     103.118770080000
      1813   12      100.047726194893      17.172659404987     100.000000000000
      1814   10      100.047726194893      17.172659404987     103.118770080000
      1815    5      100.949057066564      12.489206840900     101.559385040000
      1816   11      100.949057066564      15.611508553628     101.559385040000
      1817    3       97.343733599901      18.733810261350     100.000000000000
      1818    1       97.343733599901      18.733810261350     103.118770080000
      1819    9       97.343733599901      21.856111974078     100.000000000000
      1820    7       97.343733599901      21.856111974078     103.118770080000
      1821    2       98.245064461561      20.294961112709     101.559385040000
      1822    8       98.245064461561      23.417262825437     101.559385040000
      1823    6      100.047726194893      20.294961112709     100.000000000000
      1824    4      100.047726194893      20.294961112709     103.118770080000
      1825   12      100.047726194893      23.417262825437     100.000000000000
      1826   10      100.047726194893      23.417262825437     103.118770080000
      1827    5      100.949057066564      18.733810261350     101.559385040000
      1828   11      100.949057066564      21.856111974078     101.559385040000
      1829    3       97.343733599901      24.978413681801     100.000000000000
      1830    1       97.343733599901      24.978413681801     103.118770080000
      1831    9       97.343733599901      28.100715394529     100.000000000000
      1832    7       97.343733599901      28.100715394529     103.118770080000
      1833    2       98.245064461561      26.539564533159     101.559385040000
      1834    8       98.245064461561      29.661866245887     101.559385040000
      1835    6      100.047726194893      26.539564533159     100.000000000000
      1836    4      100.047726194893      26.539564533159     103.118770080000
      1837   12      100.047726194893      29.661866245887     100.000000000000
      1838   10      100.047726194893      29.661866245887     103.118770080000
      1839    5      100.949057066564      24.978413681801     101.559385040000
      1840   11      100.949057066564      28.100715394529     101.559385040000
      1841    3       97.343733599901      31.223017102251     100.000000000000
      1842    1       97.343733599901      31.223017102251     103.118770080000
      1843    9       97.343733599901      34.345318814979     100.000000000000
      1844    7       97.343733599901      34.345318814979     103.118770080000
      1845    2       98.245064461561      32.784167953609     101.559385040000
      1846    8       98.245064461561      35.906469666337     101.559385040000
      1847    6      100.047726194893      32.784167953609     100.000000000000
      1848    4      100.047726194893      32.784167953609     103.118770080000
      1849   12      100.047726194893      35.906469666337     100.000000000000
      1850   10      100.047726194893      35.906469666337     103.118770080000
      1851    5      100.949057066564      31.223017102251     101.559385040000
      1852   11      100.949057066564      34.345318814979     101.559385040000
      1853    3      102.751718799896       0.000000000000     100.000000000000
      1854    1      102.751718799896       0.000000000000     103.118770080000
      1855    9      102.751718799896       3.122301712728     100.000000000000
      1856    7      102.751718799896       3.122301712728     103.118770080000
      1857    2      103.653049661556       1.561150851358     101.559385040000
      1858    8      103.653049661556       4.683452564086     101.559385040000
      1859    6      105.455711394887       1.561150851358     100.000000000000
      1860    4      105.455711394887       1.561150851358     103.118770080000
      1861   12      105.455711394887       4.683452564086     100.000000000000
      1862   10      105.455711394887       4.683452564086     103.118770080000
      1863    5      106.357042266559       0.000000000000     101.559385040000
      1864   11      106.357042266559       3.122301712728     101.559385040000
      1865    3      102.751718799896       6.244603420450     100.000000000000
      1866    1      102.751718799896       6.244603420450     103.118770080000
      1867    9      102.751718799896       9.366905133178     100.000000000000
      1868    7      102.751718799896       9.366905133178     103.118770080000
      1869    2      103.653049661556       7.805754271808     101.559385040000
      1870    8      103.653049661556      10.928055984536     101.559385040000
      1871    6      105.455711394887       7.805754271808     100.000000000000
      1872    4      105.455711394887       7.805754271808     103.118770080000
      1873   12      105.455711394887      10.928055984536     100.000000000000
      1874   10      105.455711394887      10.928055984536     103.118770080000
      1875    5      106.357042266559       6.244603420450     101.559385040000
      1876   11      106.357042266559       9.366905133178     101.559385040000
      1877    3      102.751718799896      12.489206840900     100.000000000000
      1878    1      102.751718799896      12.489206840900     103.118770080000
      1879    9      102.751718799896      15.611508553628     100.000000000000
      1880    7      102.751718799896      15.611508553628     103.118770080000
      1881    2      103.653049661556      14.050357692259     101.559385040000
      1882    8      103.653049661556      17.172659404987     101.559385040000
      1883    6      105.455711394887      14.050357692259     100.000000000000
      1884    4      105.455711394887      14.050357692259     103.118770080000
      1885   12      105.455711394887      17.172659404987     100.000000000000
      1886   10      105.455711394887      17.172659404987     103.118770080000
      1887    5      106.357042266559      12.489206840900     101.559385040000
      1888   11      106.357042266559      15.611508553628     101.559385040000
      1889    3      102.751718799896      18.733810261350     100.000000000000
      1890    1      102.751718799896      18.733810261350     103.118770080000
      1891    9      102.751718799896      21.856111974078     100.000000000000
      1892    7      102.751718799896      21.856111974078     103.118770080000
      1893    2      103.653049661556      20.294961112709     101.559385040000
      1894    8      103.653049661556      23.417262825437     101.559385040000
      1895    6      105.455711394887      20.294961112709     100.000000000000
      1896    4      105.455711394887      20.294961112709     103.118770080000
      1897   12      105.455711394887      23.417262825437     100.000000000000
      1898   10      105.455711394887      23.417262825437     103.118770080000
      1899    5      106.357042266559      18.733810261350     101.559385040000
      1900   11      106.357042266559      21.856111974078     101.559385040000
      1901    3      102.751718799896      24.978413681801     100.000000000000
      1902    1      102.751718799896      24.978413681801     103.118770080000
      1903    9      102.751718799896      28.100715394529     100.000000000000
      1904    7      102.751718799896      28.100715394529     103.118770080000
      1905    2      103.653049661556      26.539564533159     101.559385040000
      1906    8      103.653049661556      29.661866245887     101.559385040000
      1907    6      105.455711394887      26.539564533159     100.000000000000
      1908    4      105.455711394887      26.539564533159     103.118770080000
      1909   12      105.455711394887      29.661866245887     100.000000000000
      1910   10      105.455711394887      29.661866245887     103.118770080000
      1911    5      106.357042266559      24.978413681801     101.559385040000
      1912   11      106.357042266559      28.100715394529     101.559385040000
      1913    3      102.751718799896      31.223017102251     100.000000000000
      1914    1      102.751718799896      31.223017102251     103.118770080000
      1915    9      102.751718799896      34.345318814979     100.000000000000
      1916    7      102.751718799896      34.345318814979     103.118770080000
      1917    2      103.653049661556      32.784167953609     101.559385040000
      1918    8      103.653049661556      35.906469666337     101.559385040000
      1919    6      105.455711394887      32.784167953609     100.000000000000
      1920    4      105.455711394887      32.784167953609     103.118770080000
      1921   12      105.455711394887      35.906469666337     100.000000000000
      1922   10      105.455711394887      35.906469666337     103.118770080000
      1923    5      106.357042266559      31.223017102251     101.559385040000
      1924   11      106.357042266559      34.345318814979     101.559385040000
      1925    3      108.159703999890       0.000000000000     100.000000000000
      1926    1      108.159703999890       0.000000000000     103.118770080000
      1927    9      108.159703999890       3.122301712728     100.000000000000
      1928    7      108.159703999890       3.122301712728     103.118770080000
      1929    2      109.061034861550       1.561150851358     101.559385040000
      1930    8      109.061034861550       4.683452564086     101.559385040000
      1931    6      110.863696594882       1.561150851358     100.000000000000
      1932    4      110.863696594882       1.561150851358     103.118770080000
      1933   12      110.863696594882       4.683452564086     100.000000000000
      1934   10      110.863696594882       4.683452564086     103.118770080000
      1935    5      111.765027466553       0.000000000000     101.559385040000
      1936   11      111.765027466553       3.122301712728     101.559385040000
      1937    3      108.159703999890       6.244603420450     100.000000000000
      1938    1      108.159703999890       6.244603420450     103.118770080000
      1939    9      108.159703999890       9.366905133178     100.000000000000
      1940    7      108.159703999890       9.366905133178     103.118770080000
      1941    2      109.061034861550       7.805754271808     101.559385040000
      1942    8      109.061034861550      10.928055984536     101.559385040000
      1943    6      110.863696594882       7.805754271808     100.000000000000
      1944    4      110.863696594882       7.805754271808     103.118770080000
      1945   12      110.863696594882      10.928055984536     100.000000000000
      1946   10      110.863696594882      10.928055984536     103.118770080000
      1947    5      111.765027466553       6.244603420450     101.559385040000
      1948   11      111.765027466553       9.366905133178     101.559385040000
      1949    3      108.159703999890      12.489206840900     100.000000000000
      1950    1      108.159703999890      12.489206840900     103.118770080000
      1951    9      108.159703999890      15.611508553628     100.000000000000
      1952    7      108.159703999890      15.611508553628     103.118770080000
      1953    2      109.061034861550      14.050357692259     101.559385040000
      1954    8      109.061034861550      17.172659404987     101.559385040000
      1955    6      110.863696594882      14.050357692259     100.000000000000
      1956    4      110.863696594882      14.050357692259     103.118770080000
      1957   12      110.863696594882      17.172659404987     100.000000000000
      1958   10      110.863696594882      17.172659404987     103.118770080000
      1959    5      111.765027466553      12.489206840900     101.559385040000
      1960   11      111.765027466553      15.611508553628     101.559385040000
      1961    3      108.159703999890      18.733810261350     100.000000000000
      1962    1      108.159703999890      18.733810261350     103.118770080000
      1963    9      108.159703999890      21.856111974078     100.000000000000
      1964    7      108.159703999890      21.856111974078     103.118770080000
      1965    2      109.061034861550      20.294961112709     101.559385040000
      1966    8      109.061034861550      23.417262825437     101.559385040000
      1967    6      110.863696594882      20.294961112709     100.000000000000
      1968    4      110.863696594882      20.294961112709     103.118770080000
      1969   12      110.863696594882      23.417262825437     100.000000000000
      1970   10      110.863696594882      23.417262825437     103.118770080000
      1971    5      111.765027466553      18.733810261350     101.559385040000
      1972   11      111.765027466553      21.856111974078     101.559385040000
      1973    3      108.159703999890      24.978413681801     100.000000000000
      1974    1      108.159703999890      24.978413681801     103.118770080000
      1975    9      108.159703999890      28.100715394529     100.000000000000
      1976    7      108.159703999890      28.100715394529     103.118770080000
      1977    2      109.061034861550      26.539564533159     101.559385040000
      1978    8      109.061034861550      29.661866245887     101.559385040000
      1979    6      110.863696594882      26.539564533159     100.000000000000
      1980    4      110.863696594882      26.539564533159     103.118770080000
      1981   12      110.863696594882      29.661866245887     100.000000000000
      1982   10      110.863696594882      29.661866245887     103.118770080000
      1983    5      111.765027466553      24.978413681801     101.559385040000
      1984   11      111.765027466553      28.100715394529     101.559385040000
      1985    3      108.159703999890      31.223017102251     100.000000000000
      1986    1      108.159703999890      31.223017102251     103.118770080000
      1987    9      108.159703999890      34.345318814979     100.000000000000
      1988    7      108.159703999890      34.345318814979     103.118770080000
      1989    2      109.061034861550      32.784167953609     101.559385040000
      1990    8      109.061034861550      35.906469666337     101.559385040000
      1991    6      110.863696594882      32.784167953609     100.000000000000
      1992    4      110.863696594882      32.784167953609     103.118770080000
      1993   12      110.863696594882      35.906469666337     100.000000000000
      1994   10      110.863696594882      35.906469666337     103.118770080000
      1995    5      111.765027466553      31.223017102251     101.559385040000
      1996   11      111.765027466553      34.345318814979     101.559385040000
      1997    3      113.567689199885       0.000000000000     100.000000000000
      1998    1      113.567689199885       0.000000000000     103.118770080000
      1999    9      113.567689199885       3.122301712728     100.000000000000
      2000    7      113.567689199885       3.122301712728     103.118770080000
      2001    2      114.469020061545       1.561150851358     101.559385040000
      2002    8      114.469020061545       4.683452564086     101.559385040000
      2003    6      116.271681794876       1.561150851358     100.000000000000
      2004    4      116.271681794876       1.561150851358     103.118770080000
      2005   12      116.271681794876       4.683452564086     100.000000000000
      2006   10      116.271681794876       4.683452564086     103.118770080000
      2007    5      117.173012666548       0.000000000000     101.559385040000
      2008   11      117.173012666548       3.122301712728     101.559385040000
      2009    3      113.567689199885       6.244603420450     100.000000000000
      2010    1      113.567689199885       6.244603420450     103.118770080000
      2011    9      113.567689199885       9.366905133178     100.000000000000
      2012    7      113.567689199885       9.366905133178     103.118770080000
      2013    2      114.469020061545       7.805754271808     101.559385040000
      2014    8      114.469020061545      10.928055984536     101.559385040000
      2015    6      116.271681794876       7.805754271808     100.000000000000
      2016    4      116.271681794876       7.805754271808     103.118770080000
      2017   12      116.271681794876      10.928055984536     100.000000000000
      2018   10      116.271681794876      10.928055984536     103.118770080000
      2019    5      117.173012666548       6.244603420450     101.559385040000
      2020   11      117.173012666548       9.366905133178     101.559385040000
      2021    3      113.567689199885      12.489206840900     100.000000000000
      2022    1      113.567689199885      12.489206840900     103.118770080000
      2023    9      113.567689199885      15.611508553628     100.000000000000
      2024    7      113.567689199885      15.611508553628     103.118770080000
      2025    2      114.469020061545      14.050357692259     101.559385040000
      2026    8      114.469020061545      17.172659404987     101.559385040000
      2027    6      116.271681794876      14.050357692259     100.000000000000
      2028    4      116.271681794876      14.050357692259     103.118770080000
      2029   12      116.271681794876      17.172659404987     100.000000000000
      2030   10      116.271681794876      17.172659404987     103.118770080000
      2031    5      117.173012666548      12.489206840900     101.559385040000
      2032   11      117.173012666548      15.611508553628     101.559385040000
      2033    3      113.567689199885      18.733810261350     100.000000000000
      2034    1      113.567689199885      18.733810261350     103.118770080000
      2035    9      113.567689199885      21.856111974078     100.000000000000
      2036    7      113.567689199885      21.856111974078     103.118770080000
      2037    2      114.469020061545      20.294961112709     101.559385040000
      2038    8      114.469020061545      23.417262825437     101.559385040000
      2039    6      116.271681794876      20.294961112709     100.000000000000
      2040    4      116.271681794876      20.294961112709     103.118770080000
      2041   12      116.271681794876      23.417262825437     100.000000000000
      2042   10      116.271681794876      23.417262825437     103.118770080000
      2043    5      117.173012666548      18.733810261350     101.559385040000
      2044   11      117.173012666548      21.856111974078     101.559385040000
      2045    3      113.567689199885      24.978413681801     100.000000000000
      2046    1      113.567689199885      24.978413681801     103.118770080000
      2047    9      113.567689199885      28.100715394529     100.000000000000
      2048    7      113.567689199885      28.100715394529     103.118770080000
      2049    2      114.469020061545      26.539564533159     101.559385040000
      2050    8      114.469020061545      29.661866245887     101.559385040000
      2051    6      116.271681794876      26.539564533159     100.000000000000
      2052    4      116.271681794876      26.539564533159     103.118770080000
      2053   12      116.271681794876      29.661866245887     100.000000000000
      2054   10      116.271681794876      29.661866245887     103.118770080000
      2055    5      117.173012666548      24.978413681801     101.559385040000
      2056   11      117.173012666548      28.100715394529     101.559385040000
      2057    3      113.567689199885      31.223017102251     100.000000000000
      2058    1      113.567689199885      31.223017102251     103.118770080000
      2059    9      113.567689199885      34.345318814979     100.000000000000
      2060    7      113.567689199885      34.345318814979     103.118770080000
      2061    2      114.469020061545      32.784167953609     101.559385040000
      2062    8      114.469020061545      35.906469666337     101.559385040000
      2063    6      116.271681794876      32.784167953609     100.000000000000
      2064    4      116.271681794876      32.784167953609     103.118770080000
      2065   12      116.271681794876      35.906469666337     100.000000000000
      2066   10      116.271681794876      35.906469666337     103.118770080000
      2067    5      117.173012666548      31.223017102251     101.559385040000
      2068   11      117.173012666548      34.345318814979     101.559385040000
      2069    3      118.975674399879       0.000000000000     100.000000000000
      2070    1      118.975674399879       0.000000000000     103.118770080000
      2071    9      118.975674399879       3.122301712728     100.000000000000
      2072    7      118.975674399879       3.122301712728     103.118770080000
      2073    2      119.877005261539       1.561150851358     101.559385040000
      2074    8      119.877005261539       4.683452564086     101.559385040000
      2075    6      121.679666994871       1.561150851358     100.000000000000
      2076    4      121.679666994871       1.561150851358     103.118770080000
      2077   12      121.679666994871       4.683452564086     100.000000000000
      2078   10      121.679666994871       4.683452564086     103.118770080000
      2079    5      122.580997866542       0.000000000000     101.559385040000
      2080   11      122.580997866542       3.122301712728     101.559385040000
      2081    3      118.975674399879       6.244603420450     100.000000000000
      2082    1      118.975674399879       6.244603420450     103.118770080000
      2083    9      118.975674399879       9.366905133178     100.000000000000
      2084    7      118.975674399879       9.366905133178     103.118770080000
      2085    2      119.877005261539       7.805754271808     101.559385040000
      2086    8      119.877005261539      10.928055984536     101.559385040000
      2087    6      121.679666994871       7.805754271808     100.000000000000
      2088    4      121.679666994871       7.805754271808     103.118770080000
      2089   12      121.679666994871      10.928055984536     100.000000000000
      2090   10      121.679666994871      10.928055984536     103.118770080000
      2091    5      122.580997866542       6.244603420450     101.559385040000
      2092   11      122.580997866542       9.366905133178     101.559385040000
      2093    3      118.975674399879      12.489206840900     100.000000000000
      2094    1      118.975674399879      12.489206840900     103.118770080000
      2095    9      118.975674399879      15.611508553628     100.000000000000
      2096    7      118.975674399879      15.611508553628     103.118770080000
      2097    2      119.877005261539      14.050357692259     101.559385040000
      2098    8      119.877005261539      17.172659404987     101.559385040000
      2099    6      121.679666994871      14.050357692259     100.000000000000
      2100    4      121.679666994871      14.050357692259     103.118770080000
      2101   12      121.679666994871      17.172659404987     100.000000000000
      2102   10      121.679666994871      17.172659404987     103.118770080000
      2103    5      122.580997866542      12.489206840900     101.559385040000
      2104   11      122.580997866542      15.611508553628     101.559385040000
      2105    3      118.975674399879      18.733810261350     100.000000000000
      2106    1      118.975674399879      18.733810261350     103.118770080000
      2107    9      118.975674399879      21.856111974078     100.000000000000
      2108    7      118.975674399879      21.856111974078     103.118770080000
      2109    2      119.877005261539      20.294961112709     101.559385040000
      2110    8      119.877005261539      23.417262825437     101.559385040000
      2111    6      121.679666994871      20.294961112709     100.000000000000
      2112    4      121.679666994871      20.294961112709     103.118770080000
      2113   12      121.679666994871      23.417262825437     100.000000000000
      2114   10      121.679666994871      23.417262825437     103.118770080000
      2115    5      122.580997866542      18.733810261350     101.559385040000
      2116   11      122.580997866542      21.856111974078     101.559385040000
      2117    3      118.975674399879      24.978413681801     100.000000000000
      2118    1      118.975674399879      24.978413681801     103.118770080000
      2119    9      118.975674399879      28.100715394529     100.000000000000
      2120    7      118.975674399879      28.100715394529     103.118770080000
      2121    2      119.877005261539      26.539564533159     101.559385040000
      2122    8      119.877005261539      29.661866245887     101.559385040000
      2123    6      121.679666994871      26.539564533159     100.000000000000
      2124    4      121.679666994871      26.539564533159     103.118770080000
      2125   12      121.679666994871      29.661866245887     100.000000000000
      2126   10      121.679666994871      29.661866245887     103.118770080000
      2127    5      122.580997866542      24.978413681801     101.559385040000
      2128   11      122.580997866542      28.100715394529     101.559385040000
      2129    3      118.975674399879      31.223017102251     100.000000000000
      2130    1      118.975674399879      31.223017102251     103.118770080000
      2131    9      118.975674399879      34.345318814979     100.000000000000
      2132    7      118.975674399879      34.345318814979     103.118770080000
      2133    2      119.877005261539      32.784167953609     101.559385040000
      2134    8      119.877005261539      35.906469666337     101.559385040000
      2135    6      121.679666994871      32.784167953609     100.000000000000
      2136    4      121.679666994871      32.784167953609     103.118770080000
      2137   12      121.679666994871      35.906469666337     100.000000000000
      2138   10      121.679666994871      35.906469666337     103.118770080000
      2139    5      122.580997866542      31.223017102251     101.559385040000
      2140   11      122.580997866542      34.345318814979     101.559385040000
      2141    3      124.383659599874       0.000000000000     100.000000000000
      2142    1      124.383659599874       0.000000000000     103.118770080000
      2143    9      124.383659599874       3.122301712728     100.000000000000
      2144    7      124.383659599874       3.122301712728     103.118770080000
      2145    2      125.284990461534       1.561150851358     101.559385040000
      2146    8      125.284990461534       4.683452564086     101.559385040000
      2147    6      127.087652194865       1.561150851358     100.000000000000
      2148    4      127.087652194865       1.561150851358     103.118770080000
      2149   12      127.087652194865       4.683452564086     100.000000000000
      2150   10      127.087652194865       4.683452564086     103.118770080000
      2151    5      127.988983066537       0.000000000000     101.559385040000
      2152   11      127.988983066537       3.122301712728     101.559385040000
      2153    3      124.383659599874       6.244603420450     100.000000000000
      2154    1      124.383659599874       6.244603420450     103.118770080000
      2155    9      124.383659599874       9.366905133178     100.000000000000
      2156    7      124.383659599874       9.366905133178     103.118770080000
      2157    2      125.284990461534       7.805754271808     101.559385040000
      2158    8      125.284990461534      10.928055984536     101.559385040000
      2159    6      127.087652194865       7.805754271808     100.000000000000
      2160    4      127.087652194865       7.805754271808     103.118770080000
      2161   12      127.087652194865      10.928055984536     100.000000000000
      2162   10      127.087652194865      10.928055984536     103.118770080000
      2163    5      127.988983066537       6.244603420450     101.559385040000
      2164   11      127.988983066537       9.366905133178     101.559385040000
      2165    3      124.383659599874      12.489206840900     100.000000000000
      2166    1      124.383659599874      12.489206840900     103.118770080000
      2167    9      124.383659599874      15.611508553628     100.000000000000
      2168    7      124.383659599874      15.611508553628     103.118770080000
      2169    2      125.284990461534      14.050357692259     101.559385040000
      2170    8      125.284990461534      17.172659404987     101.559385040000
      2171    6      127.087652194865      14.050357692259     100.000000000000
      2172    4      127.087652194865      14.050357692259     103.118770080000
      2173   12      127.087652194865      17.172659404987     100.000000000000
      2174   10      127.087652194865      17.172659404987     103.118770080000
      2175    5      127.988983066537      12.489206840900     101.559385040000
      2176   11      127.988983066537      15.611508553628     101.559385040000
      2177    3      124.383659599874      18.733810261350     100.000000000000
      2178    1      124.383659599874      18.733810261350     103.118770080000
      2179    9      124.383659599874      21.856111974078     100.000000000000
      2180    7      124.383659599874      21.856111974078     103.118770080000
      2181    2      125.284990461534      20.294961112709     101.559385040000
      2182    8      125.284990461534      23.417262825437     101.559385040000
      2183    6      127.087652194865      20.294961112709     100.000000000000
      2184    4      127.087652194865      20.294961112709     103.118770080000
      2185   12      127.087652194865      23.417262825437     100.000000000000
      2186   10      127.087652194865      23.417262825437     103.118770080000
      2187    5      127.988983066537      18.733810261350     101.559385040000
      2188   11      127.988983066537      21.856111974078     101.559385040000
      2189    3      124.383659599874      24.978413681801     100.000000000000
      2190    1      124.383659599874      24.978413681801     103.118770080000
      2191    9      124.383659599874      28.100715394529     100.000000000000
      2192    7      124.383659599874      28.100715394529     103.118770080000
      2193    2      125.284990461534      26.539564533159     101.559385040000
      2194    8      125.284990461534      29.661866245887     101.559385040000
      2195    6      127.087652194865      26.539564533159     100.000000000000
      2196    4      127.087652194865      26.539564533159     103.118770080000
      2197   12      127.087652194865      29.661866245887     100.000000000000
      2198   10      127.087652194865      29.661866245887     103.118770080000
      2199    5      127.988983066537      24.978413681801     101.559385040000
      2200   11      127.988983066537      28.100715394529     101.559385040000
      2201    3      124.383659599874      31.223017102251     100.000000000000
      2202    1      124.383659599874      31.223017102251     103.118770080000
      2203    9      124.383659599874      34.345318814979     100.000000000000
      2204    7      124.383659599874      34.345318814979     103.118770080000
      2205    2      125.284990461534      32.784167953609     101.559385040000
      2206    8      125.284990461534      35.906469666337     101.559385040000
      2207    6      127.087652194865      32.784167953609     100.000000000000
      2208    4      127.087652194865      32.784167953609     103.118770080000
      2209   12      127.087652194865      35.906469666337     100.000000000000
      2210   10      127.087652194865      35.906469666337     103.118770080000
      2211    5      127.988983066537      31.223017102251     101.559385040000
      2212   11      127.988983066537      34.345318814979     101.559385040000
      2213   14       64.895822399934       0.000000000000     106.818770080000
      2214   13       65.879092430836       1.703073656027     106.818770080000
      2215   14       67.845632503561       1.703073656027     106.818770080000
      2216   13       68.828902545385       0.000000000000     106.818770080000
      2217   14       64.895822399934       3.406147320246     106.818770080000
      2218   13       65.879092430836       5.109220976273     106.818770080000
      2219   14       67.845632503561       5.109220976273     106.818770080000
      2220   13       68.828902545385       3.406147320246     106.818770080000
      2221   14       64.895822399934       6.812294640491     106.818770080000
      2222   13       65.879092430836       8.515368296518     106.818770080000
      2223   14       67.845632503561       8.515368296518     106.818770080000
      2224   13       68.828902545385       6.812294640491     106.818770080000
      2225   14       64.895822399934      10.218441960737     106.818770080000
      2226   13       65.879092430836      11.921515616764     106.818770080000
      2227   14       67.845632503561      11.921515616764     106.818770080000
      2228   13       68.828902545385      10.218441960737     106.818770080000
      2229   14       64.895822399934      13.624589280982     106.818770080000
      2230   13       65.879092430836      15.327662937010     106.818770080000
      2231   14       67.845632503561      15.327662937010     106.818770080000
      2232   13       68.828902545385      13.624589280982     106.818770080000
      2233   14       64.895822399934      17.030736601228     106.818770080000
      2234   13       65.879092430836      18.733810257255     106.818770080000
      2235   14       67.845632503561      18.733810257255     106.818770080000
      2236   13       68.828902545385      17.030736601228     106.818770080000
      2237   14       64.895822399934      20.436883921473     106.818770080000
      2238   13       65.879092430836      22.139957577501     106.818770080000
      2239   14       67.845632503561      22.139957577501     106.818770080000
      2240   13       68.828902545385      20.436883921473     106.818770080000
      2241   14       64.895822399934      23.843031241719     106.818770080000
      2242   13       65.879092430836      25.546104897746     106.818770080000
      2243   14       67.845632503561      25.546104897746     106.818770080000
      2244   13       68.828902545385      23.843031241719     106.818770080000
      2245   14       64.895822399934      27.249178561964     106.818770080000
      2246   13       65.879092430836      28.952252217992     106.818770080000
      2247   14       67.845632503561      28.952252217992     106.818770080000
      2248   13       68.828902545385      27.249178561964     106.818770080000
      2249   14       64.895822399934      30.655325882210     106.818770080000
      2250   13       65.879092430836      32.358399538237     106.818770080000
      2251   14       67.845632503561      32.358399538237     106.818770080000
      2252   13       68.828902545385      30.655325882210     106.818770080000
      2253   14       64.895822399934      34.061473202455     106.818770080000
      2254   13       65.879092430836      35.764546858483     106.818770080000
      2255   14       67.845632503561      35.764546858483     106.818770080000
      2256   13       68.828902545385      34.061473202455     106.818770080000
      2257   14       70.795442618110       0.000000000000     106.818770080000
      2258   13       71.778712649012       1.703073656027     106.818770080000
      2259   14       73.745252721737       1.703073656027     106.818770080000
      2260   13       74.728522763561       0.000000000000     106.818770080000
      2261   14       70.795442618110       3.406147320246     106.818770080000
      2262   13       71.778712649012       5.109220976273     106.818770080000
      2263   14       73.745252721737       5.109220976273     106.818770080000
      2264   13       74.728522763561       3.406147320246     106.818770080000
      2265   14       70.795442618110       6.812294640491     106.818770080000
      2266   13       71.778712649012       8.515368296518     106.818770080000
      2267   14       73.745252721737       8.515368296518     106.818770080000
      2268   13       74.728522763561       6.812294640491     106.818770080000
      2269   14       70.795442618110      10.218441960737     106.818770080000
      2270   13       71.778712649012      11.921515616764     106.818770080000
      2271   14       73.745252721737      11.921515616764     106.818770080000
      2272   13       74.728522763561      10.218441960737     106.818770080000
      2273   14       70.795442618110      13.624589280982     106.818770080000
      2274   13       71.778712649012      15.327662937010     106.818770080000
      2275   14       73.745252721737      15.327662937010     106.818770080000
      2276   13       74.728522763561      13.624589280982     106.818770080000
      2277   14       70.795442618110      17.030736601228     106.818770080000
      2278   13       71.778712649012      18.733810257255     106.818770080000
      2279   14       73.745252721737      18.733810257255     106.818770080000
      2280   13       74.728522763561      17.030736601228     106.818770080000
      2281   14       70.795442618110      20.436883921473     106.818770080000
      2282   13       71.778712649012      22.139957577501     106.818770080000
      2283   14       73.745252721737      22.139957577501     106.818770080000
      2284   13       74.728522763561      20.436883921473     106.818770080000
      2285   14       70.795442618110      23.843031241719     106.818770080000
      2286   13       71.778712649012      25.546104897746     106.818770080000
      2287   14       73.745252721737      25.546104897746     106.818770080000
      2288   13       74.728522763561      23.843031241719     106.818770080000
      2289   14       70.795442618110      27.249178561964     106.818770080000
      2290   13       71.778712649012      28.952252217992     106.818770080000
      2291   14       73.745252721737      28.952252217992     106.818770080000
      2292   13       74.728522763561      27.249178561964     106.818770080000
      2293   14       70.795442618110      30.655325882210     106.818770080000
      2294   13       71.778712649012      32.358399538237     106.818770080000
      2295   14       73.745252721737      32.358399538237     106.818770080000
      2296   13       74.728522763561      30.655325882210     106.818770080000
      2297   14       70.795442618110      34.061473202455     106.818770080000
      2298   13       71.778712649012      35.764546858483     106.818770080000
      2299   14       73.745252721737      35.764546858483     106.818770080000
      2300   13       74.728522763561      34.061473202455     106.818770080000
      2301   14       76.695062836286       0.000000000000     106.818770080000
      2302   13       77.678332867188       1.703073656027     106.818770080000
      2303   14       79.644872939913       1.703073656027     106.818770080000
      2304   13       80.628142981737       0.000000000000     106.818770080000
      2305   14       76.695062836286       3.406147320246     106.818770080000
      2306   13       77.678332867188       5.109220976273     106.818770080000
      2307   14       79.644872939913       5.109220976273     106.818770080000
      2308   13       80.628142981737       3.406147320246     106.818770080000
      2309   14       76.695062836286       6.812294640491     106.818770080000
      2310   13       77.678332867188       8.515368296518     106.818770080000
      2311   14       79.644872939913       8.515368296518     106.818770080000
      2312   13       80.628142981737       6.812294640491     106.818770080000
      2313   14       76.695062836286      10.218441960737     106.818770080000
      2314   13       77.678332867188      11.921515616764     106.818770080000
      2315   14       79.644872939913      11.921515616764     106.818770080000
      2316   13       80.628142981737      10.218441960737     106.818770080000
      2317   14       76.695062836286      13.624589280982     106.818770080000
      2318   13       77.678332867188      15.327662937010     106.818770080000
      2319   14       79.644872939913      15.327662937010     106.818770080000
      2320   13       80.628142981737      13.624589280982     106.818770080000
      2321   14       76.695062836286      17.030736601228     106.818770080000
      2322   13       77.678332867188      18.733810257255     106.818770080000
      2323   14       79.644872939913      18.733810257255     106.818770080000
      2324   13       80.628142981737      17.030736601228     106.818770080000
      2325   14       76.695062836286      20.436883921473     106.818770080000
      2326   13       77.678332867188      22.139957577501     106.818770080000
      2327   14       79.644872939913      22.139957577501     106.818770080000
      2328   13       80.628142981737      20.436883921473     106.818770080000
      2329   14       76.695062836286      23.843031241719     106.818770080000
      2330   13       77.678332867188      25.546104897746     106.818770080000
      2331   14       79.644872939913      25.546104897746     106.818770080000
      2332   13       80.628142981737      23.843031241719     106.818770080000
      2333   14       76.695062836286      27.249178561964     106.818770080000
      2334   13       77.678332867188      28.952252217992     106.818770080000
      2335   14       79.644872939913      28.952252217992     106.818770080000
      2336   13       80.628142981737      27.249178561964     106.818770080000
      2337   14       76.695062836286      30.655325882210     106.818770080000
      2338   13       77.678332867188      32.358399538237     106.818770080000
      2339   14       79.644872939913      32.358399538237     106.818770080000
      2340   13       80.628142981737      30.655325882210     106.818770080000
      2341   14       76.695062836286      34.061473202455     106.818770080000
      2342   13       77.678332867188      35.764546858483     106.818770080000
      2343   14       79.644872939913      35.764546858483     106.818770080000
      2344   13       80.628142981737      34.061473202455     106.818770080000
      2345   14       82.594683054462       0.000000000000     106.818770080000
      2346   13       83.577953085363       1.703073656027     106.818770080000
      2347   14       85.544493158089       1.703073656027     106.818770080000
      2348   13       86.527763199912       0.000000000000     106.818770080000
      2349   14       82.594683054462       3.406147320246     106.818770080000
      2350   13       83.577953085363       5.109220976273     106.818770080000
      2351   14       85.544493158089       5.109220976273     106.818770080000
      2352   13       86.527763199912       3.406147320246     106.818770080000
      2353   14       82.594683054462       6.812294640491     106.818770080000
      2354   13       83.577953085363       8.515368296518     106.818770080000
      2355   14       85.544493158089       8.515368296518     106.818770080000
      2356   13       86.527763199912       6.812294640491     106.818770080000
      2357   14       82.594683054462      10.218441960737     106.818770080000
      2358   13       83.577953085363      11.921515616764     106.818770080000
      2359   14       85.544493158089      11.921515616764     106.818770080000
      2360   13       86.527763199912      10.218441960737     106.818770080000
      2361   14       82.594683054462      13.624589280982     106.818770080000
      2362   13       83.577953085363      15.327662937010     106.818770080000
      2363   14       85.544493158089      15.327662937010     106.818770080000
      2364   13       86.527763199912      13.624589280982     106.818770080000
      2365   14       82.594683054462      17.030736601228     106.818770080000
      2366   13       83.577953085363      18.733810257255     106.818770080000
      2367   14       85.544493158089      18.733810257255     106.818770080000
      2368   13       86.527763199912      17.030736601228     106.818770080000
      2369   14       82.594683054462      20.436883921473     106.818770080000
      2370   13       83.577953085363      22.139957577501     106.818770080000
      2371   14       85.544493158089      22.139957577501     106.818770080000
      2372   13       86.527763199912      20.436883921473     106.818770080000
      2373   14       82.594683054462      23.843031241719     106.818770080000
      2374   13       83.577953085363      25.546104897746     106.818770080000
      2375   14       85.544493158089      25.546104897746     106.818770080000
      2376   13       86.527763199912      23.843031241719     106.818770080000
      2377   14       82.594683054462      27.249178561964     106.818770080000
      2378   13       83.577953085363      28.952252217992     106.818770080000
      2379   14       85.544493158089      28.952252217992     106.818770080000
      2380   13       86.527763199912      27.249178561964     106.818770080000
      2381   14       82.594683054462      30.655325882210     106.818770080000
      2382   13       83.577953085363      32.358399538237     106.818770080000
      2383   14       85.544493158089      32.358399538237     106.818770080000
      2384   13       86.527763199912      30.655325882210     106.818770080000
      2385   14       82.594683054462      34.061473202455     106.818770080000
      2386   13       83.577953085363      35.764546858483     106.818770080000
      2387   14       85.544493158089      35.764546858483     106.818770080000
      2388   13       86.527763199912      34.061473202455     106.818770080000
      2389   14       88.494303272637       0.000000000000     106.818770080000
      2390   13       89.477573303539       1.703073656027     106.818770080000
      2391   14       91.444113376265       1.703073656027     106.818770080000
      2392   13       92.427383418088       0.000000000000     106.818770080000
      2393   14       88.494303272637       3.406147320246     106.818770080000
      2394   13       89.477573303539       5.109220976273     106.818770080000
      2395   14       91.444113376265       5.109220976273     106.818770080000
      2396   13       92.427383418088       3.406147320246     106.818770080000
      2397   14       88.494303272637       6.812294640491     106.818770080000
      2398   13       89.477573303539       8.515368296518     106.818770080000
      2399   14       91.444113376265       8.515368296518     106.818770080000
      2400   13       92.427383418088       6.812294640491     106.818770080000
      2401   14       88.494303272637      10.218441960737     106.818770080000
      2402   13       89.477573303539      11.921515616764     106.818770080000
      2403   14       91.444113376265      11.921515616764     106.818770080000
      2404   13       92.427383418088      10.218441960737     106.818770080000
      2405   14       88.494303272637      13.624589280982     106.818770080000
      2406   13       89.477573303539      15.327662937010     106.818770080000
      2407   14       91.444113376265      15.327662937010     106.818770080000
      2408   13       92.427383418088      13.624589280982     106.818770080000
      2409   14       88.494303272637      17.030736601228     106.818770080000
      2410   13       89.477573303539      18.733810257255     106.818770080000
      2411   14       91.444113376265      18.733810257255     106.818770080000
      2412   13       92.427383418088      17.030736601228     106.818770080000
      2413   14       88.494303272637      20.436883921473     106.818770080000
      2414   13       89.477573303539      22.139957577501     106.818770080000
      2415   14       91.444113376265      22.139957577501     106.818770080000
      2416   13       92.427383418088      20.436883921473     106.818770080000
      2417   14       88.494303272637      23.843031241719     106.818770080000
      2418   13       89.477573303539      25.546104897746     106.818770080000
      2419   14       91.444113376265      25.546104897746     106.818770080000
      2420   13       92.427383418088      23.843031241719     106.818770080000
      2421   14       88.494303272637      27.249178561964     106.818770080000
      2422   13       89.477573303539      28.952252217992     106.818770080000
      2423   14       91.444113376265      28.952252217992     106.818770080000
      2424   13       92.427383418088      27.249178561964     106.818770080000
      2425   14       88.494303272637      30.655325882210     106.818770080000
      2426   13       89.477573303539      32.358399538237     106.818770080000
      2427   14       91.444113376265      32.358399538237     106.818770080000
      2428   13       92.427383418088      30.655325882210     106.818770080000
      2429   14       88.494303272637      34.061473202455     106.818770080000
      2430   13       89.477573303539      35.764546858483     106.818770080000
      2431   14       91.444113376265      35.764546858483     106.818770080000
      2432   13       92.427383418088      34.061473202455     106.818770080000
      2433   14       94.393923490813       0.000000000000     106.818770080000
      2434   13       95.377193521715       1.703073656027     106.818770080000
      2435   14       97.343733594441       1.703073656027     106.818770080000
      2436   13       98.327003636264       0.000000000000     106.818770080000
      2437   14       94.393923490813       3.406147320246     106.818770080000
      2438   13       95.377193521715       5.109220976273     106.818770080000
      2439   14       97.343733594441       5.109220976273     106.818770080000
      2440   13       98.327003636264       3.406147320246     106.818770080000
      2441   14       94.393923490813       6.812294640491     106.818770080000
      2442   13       95.377193521715       8.515368296518     106.818770080000
      2443   14       97.343733594441       8.515368296518     106.818770080000
      2444   13       98.327003636264       6.812294640491     106.818770080000
      2445   14       94.393923490813      10.218441960737     106.818770080000
      2446   13       95.377193521715      11.921515616764     106.818770080000
      2447   14       97.343733594441      11.921515616764     106.818770080000
      2448   13       98.327003636264      10.218441960737     106.818770080000
      2449   14       94.393923490813      13.624589280982     106.818770080000
      2450   13       95.377193521715      15.327662937010     106.818770080000
      2451   14       97.343733594441      15.327662937010     106.818770080000
      2452   13       98.327003636264      13.624589280982     106.818770080000
      2453   14       94.393923490813      17.030736601228     106.818770080000
      2454   13       95.377193521715      18.733810257255     106.818770080000
      2455   14       97.343733594441      18.733810257255     106.818770080000
      2456   13       98.327003636264      17.030736601228     106.818770080000
      2457   14       94.393923490813      20.436883921473     106.818770080000
      2458   13       95.377193521715      22.139957577501     106.818770080000
      2459   14       97.343733594441      22.139957577501     106.818770080000
      2460   13       98.327003636264      20.436883921473     106.818770080000
      2461   14       94.393923490813      23.843031241719     106.818770080000
      2462   13       95.377193521715      25.546104897746     106.818770080000
      2463   14       97.343733594441      25.546104897746     106.818770080000
      2464   13       98.327003636264      23.843031241719     106.818770080000
      2465   14       94.393923490813      27.249178561964     106.818770080000
      2466   13       95.377193521715      28.952252217992     106.818770080000
      2467   14       97.343733594441      28.952252217992     106.818770080000
      2468   13       98.327003636264      27.249178561964     106.818770080000
      2469   14       94.393923490813      30.655325882210     106.818770080000
      2470   13       95.377193521715      32.358399538237     106.818770080000
      2471   14       97.343733594441      32.358399538237     106.818770080000
      2472   13       98.327003636264      30.655325882210     106.818770080000
      2473   14       94.393923490813      34.061473202455     106.818770080000
      2474   13       95.377193521715      35.764546858483     106.818770080000
      2475   14       97.343733594441      35.764546858483     106.818770080000
      2476   13       98.327003636264      34.061473202455     106.818770080000
      2477   14      100.293543708989       0.000000000000     106.818770080000
      2478   13      101.276813739891       1.703073656027     106.818770080000
      2479   14      103.243353812616       1.703073656027     106.818770080000
      2480   13      104.226623854440       0.000000000000     106.818770080000
      2481   14      100.293543708989       3.406147320246     106.818770080000
      2482   13      101.276813739891       5.109220976273     106.818770080000
      2483   14      103.243353812616       5.109220976273     106.818770080000
      2484   13      104.226623854440       3.406147320246     106.818770080000
      2485   14      100.293543708989       6.812294640491     106.818770080000
      2486   13      101.276813739891       8.515368296518     106.818770080000
      2487   14      103.243353812616       8.515368296518     106.818770080000
      2488   13      104.226623854440       6.812294640491     106.818770080000
      2489   14      100.293543708989      10.218441960737     106.818770080000
      2490   13      101.276813739891      11.921515616764     106.818770080000
      2491   14      103.243353812616      11.921515616764     106.818770080000
      2492   13      104.226623854440      10.218441960737     106.818770080000
      2493   14      100.293543708989      13.624589280982     106.818770080000
      2494   13      101.276813739891      15.327662937010     106.818770080000
      2495   14      103.243353812616      15.327662937010     106.818770080000
      2496   13      104.226623854440      13.624589280982     106.818770080000
      2497   14      100.293543708989      17.030736601228     106.818770080000
      2498   13      101.276813739891      18.733810257255     106.818770080000
      2499   14      103.243353812616      18.733810257255     106.818770080000
      2500   13      104.226623854440      17.030736601228     106.818770080000
      2501   14      100.293543708989      20.436883921473     106.818770080000
      2502   13      101.276813739891      22.139957577501     106.818770080000
      2503   14      103.243353812616      22.139957577501     106.818770080000
      2504   13      104.226623854440      20.436883921473     106.818770080000
      2505   14      100.293543708989      23.843031241719     106.818770080000
      2506   13      101.276813739891      25.546104897746     106.818770080000
      2507   14      103.243353812616      25.546104897746     106.818770080000
      2508   13      104.226623854440      23.843031241719     106.818770080000
      2509   14      100.293543708989      27.249178561964     106.818770080000
      2510   13      101.276813739891      28.952252217992     106.818770080000
      2511   14      103.243353812616      28.952252217992     106.818770080000
      2512   13      104.226623854440      27.249178561964     106.818770080000
      2513   14      100.293543708989      30.655325882210     106.818770080000
      2514   13      101.276813739891      32.358399538237     106.818770080000
      2515   14      103.243353812616      32.358399538237     106.818770080000
      2516   13      104.226623854440      30.655325882210     106.818770080000
      2517   14      100.293543708989      34.061473202455     106.818770080000
      2518   13      101.276813739891      35.764546858483     106.818770080000
      2519   14      103.243353812616      35.764546858483     106.818770080000
      2520   13      104.226623854440      34.061473202455     106.818770080000
      2521   14      106.193163927165       0.000000000000     106.818770080000
      2522   13      107.176433958067       1.703073656027     106.818770080000
      2523   14      109.142974030792       1.703073656027     106.818770080000
      2524   13      110.126244072616       0.000000000000     106.818770080000
      2525   14      106.193163927165       3.406147320246     106.818770080000
      2526   13      107.176433958067       5.109220976273     106.818770080000
      2527   14      109.142974030792       5.109220976273     106.818770080000
      2528   13      110.126244072616       3.406147320246     106.818770080000
      2529   14      106.193163927165       6.812294640491     106.818770080000
      2530   13      107.176433958067       8.515368296518     106.818770080000
      2531   14      109.142974030792       8.515368296518     106.818770080000
      2532   13      110.126244072616       6.812294640491     106.818770080000
      2533   14      106.193163927165      10.218441960737     106.818770080000
      2534   13      107.176433958067      11.921515616764     106.818770080000
      2535   14      109.142974030792      11.921515616764     106.818770080000
      2536   13      110.126244072616      10.218441960737     106.818770080000
      2537   14      106.193163927165      13.624589280982     106.818770080000
      2538   13      107.176433958067      15.327662937010     106.818770080000
      2539   14      109.142974030792      15.327662937010     106.818770080000
      2540   13      110.126244072616      13.624589280982     106.818770080000
      2541   14      106.193163927165      17.030736601228     106.818770080000
      2542   13      107.176433958067      18.733810257255     106.818770080000
      2543   14      109.142974030792      18.733810257255     106.818770080000
      2544   13      110.126244072616      17.030736601228     106.818770080000
      2545   14      106.193163927165      20.436883921473     106.818770080000
      2546   13      107.176433958067      22.139957577501     106.818770080000
      2547   14      109.142974030792      22.139957577501     106.818770080000
      2548   13      110.126244072616      20.436883921473     106.818770080000
      2549   14      106.193163927165      23.843031241719     106.818770080000
      2550   13      107.176433958067      25.546104897746     106.818770080000
      2551   14      109.142974030792      25.546104897746     106.818770080000
      2552   13      110.126244072616      23.843031241719     106.818770080000
      2553   14      106.193163927165      27.249178561964     106.818770080000
      2554   13      107.176433958067      28.952252217992     106.818770080000
      2555   14      109.142974030792      28.952252217992     106.818770080000
      2556   13      110.126244072616      27.249178561964     106.818770080000
      2557   14      106.193163927165      30.655325882210     106.818770080000
      2558   13      107.176433958067      32.358399538237     106.818770080000
      2559   14      109.142974030792      32.358399538237     106.818770080000
      2560   13      110.126244072616      30.655325882210     106.818770080000
      2561   14      106.193163927165      34.061473202455     106.818770080000
      2562   13      107.176433958067      35.764546858483     106.818770080000
      2563   14      109.142974030792      35.764546858483     106.818770080000
      2564   13      110.126244072616      34.061473202455     106.818770080000
      2565   14      112.092784145341       0.000000000000     106.818770080000
      2566   13      113.076054176243       1.703073656027     106.818770080000
      2567   14      115.042594248968       1.703073656027     106.818770080000
      2568   13      116.025864290792       0.000000000000     106.818770080000
      2569   14      112.092784145341       3.406147320246     106.818770080000
      2570   13      113.076054176243       5.109220976273     106.818770080000
      2571   14      115.042594248968       5.109220976273     106.818770080000
      2572   13      116.025864290792       3.406147320246     106.818770080000
      2573   14      112.092784145341       6.812294640491     106.818770080000
      2574   13      113.076054176243       8.515368296518     106.818770080000
      2575   14      115.042594248968       8.515368296518     106.818770080000
      2576   13      116.025864290792       6.812294640491     106.818770080000
      2577   14      112.092784145341      10.218441960737     106.818770080000
      2578   13      113.076054176243      11.921515616764     106.818770080000
      2579   14      115.042594248968      11.921515616764     106.818770080000
      2580   13      116.025864290792      10.218441960737     106.818770080000
      2581   14      112.092784145341      13.624589280982     106.818770080000
      2582   13      113.076054176243      15.327662937010     106.818770080000
      2583   14      115.042594248968      15.327662937010     106.818770080000
      2584   13      116.025864290792      13.624589280982     106.818770080000
      2585   14      112.092784145341      17.030736601228     106.818770080000
      2586   13      113.076054176243      18.733810257255     106.818770080000
      2587   14      115.042594248968      18.733810257255     106.818770080000
      2588   13      116.025864290792      17.030736601228     106.818770080000
      2589   14      112.092784145341      20.436883921473     106.818770080000
      2590   13      113.076054176243      22.139957577501     106.818770080000
      2591   14      115.042594248968      22.139957577501     106.818770080000
      2592   13      116.025864290792      20.436883921473     106.818770080000
      2593   14      112.092784145341      23.843031241719     106.818770080000
      2594   13      113.076054176243      25.546104897746     106.818770080000
      2595   14      115.042594248968      25.546104897746     106.818770080000
      2596   13      116.025864290792      23.843031241719     106.818770080000
      2597   14      112.092784145341      27.249178561964     106.818770080000
      2598   13      113.076054176243      28.952252217992     106.818770080000
      2599   14      115.042594248968      28.952252217992     106.818770080000
      2600   13      116.025864290792      27.249178561964     106.818770080000
      2601   14      112.092784145341      30.655325882210     106.818770080000
      2602   13      113.076054176243      32.358399538237     106.818770080000
      2603   14      115.042594248968      32.358399538237     106.818770080000
      2604   13      116.025864290792      30.655325882210     106.818770080000
      2605   14      112.092784145341      34.061473202455     106.818770080000
      2606   13      113.076054176243      35.764546858483     106.818770080000
      2607   14      115.042594248968      35.764546858483     106.818770080000
      2608   13      116.025864290792      34.061473202455     106.818770080000
      2609   14      117.992404363517       0.000000000000     106.818770080000
      2610   13      118.975674394418       1.703073656027     106.818770080000
      2611   14      120.942214467144       1.703073656027     106.818770080000
      2612   13      121.925484508967       0.000000000000     106.818770080000
      2613   14      117.992404363517       3.406147320246     106.818770080000
      2614   13      118.975674394418       5.109220976273     106.818770080000
      2615   14      120.942214467144       5.109220976273     106.818770080000
      2616   13      121.925484508967       3.406147320246     106.818770080000
      2617   14      117.992404363517       6.812294640491     106.818770080000
      2618   13      118.975674394418       8.515368296518     106.818770080000
      2619   14      120.942214467144       8.515368296518     106.818770080000
      2620   13      121.925484508967       6.812294640491     106.818770080000
      2621   14      117.992404363517      10.218441960737     106.818770080000
      2622   13      118.975674394418      11.921515616764     106.818770080000
      2623   14      120.942214467144      11.921515616764     106.818770080000
      2624   13      121.925484508967      10.218441960737     106.818770080000
      2625   14      117.992404363517      13.624589280982     106.818770080000
      2626   13      118.975674394418      15.327662937010     106.818770080000
      2627   14      120.942214467144      15.327662937010     106.818770080000
      2628   13      121.925484508967      13.624589280982     106.818770080000
      2629   14      117.992404363517      17.030736601228     106.818770080000
      2630   13      118.975674394418      18.733810257255     106.818770080000
      2631   14      120.942214467144      18.733810257255     106.818770080000
      2632   13      121.925484508967      17.030736601228     106.818770080000
      2633   14      117.992404363517      20.436883921473     106.818770080000
      2634   13      118.975674394418      22.139957577501     106.818770080000
      2635   14      120.942214467144      22.139957577501     106.818770080000
      2636   13      121.925484508967      20.436883921473     106.818770080000
      2637   14      117.992404363517      23.843031241719     106.818770080000
      2638   13      118.975674394418      25.546104897746     106.818770080000
      2639   14      120.942214467144      25.546104897746     106.818770080000
      2640   13      121.925484508967      23.843031241719     106.818770080000
      2641   14      117.992404363517      27.249178561964     106.818770080000
      2642   13      118.975674394418      28.952252217992     106.818770080000
      2643   14      120.942214467144      28.952252217992     106.818770080000
      2644   13      121.925484508967      27.249178561964     106.818770080000
      2645   14      117.992404363517      30.655325882210     106.818770080000
      2646   13      118.975674394418      32.358399538237     106.818770080000
      2647   14      120.942214467144      32.358399538237     106.818770080000
      2648   13      121.925484508967      30.655325882210     106.818770080000
      2649   14      117.992404363517      34.061473202455     106.818770080000
      2650   13      118.975674394418      35.764546858483     106.818770080000
      2651   14      120.942214467144      35.764546858483     106.818770080000
      2652   13      121.925484508967      34.061473202455     106.818770080000
      2653   14      123.892024581692       0.000000000000     106.818770080000
      2654   13      124.875294612594       1.703073656027     106.818770080000
      2655   14      126.841834685320       1.703073656027     106.818770080000
      2656   13      127.825104727143       0.000000000000     106.818770080000
      2657   14      123.892024581692       3.406147320246     106.818770080000
      2658   13      124.875294612594       5.109220976273     106.818770080000
      2659   14      126.841834685320       5.109220976273     106.818770080000
      2660   13      127.825104727143       3.406147320246     106.818770080000
      2661   14      123.892024581692       6.812294640491     106.818770080000
      2662   13      124.875294612594       8.515368296518     106.818770080000
      2663   14      126.841834685320       8.515368296518     106.818770080000
      2664   13      127.825104727143       6.812294640491     106.818770080000
      2665   14      123.892024581692      10.218441960737     106.818770080000
      2666   13      124.875294612594      11.921515616764     106.818770080000
      2667   14      126.841834685320      11.921515616764     106.818770080000
      2668   13      127.825104727143      10.218441960737     106.818770080000
      2669   14      123.892024581692      13.624589280982     106.818770080000
      2670   13      124.875294612594      15.327662937010     106.818770080000
      2671   14      126.841834685320      15.327662937010     106.818770080000
      2672   13      127.825104727143      13.624589280982     106.818770080000
      2673   14      123.892024581692      17.030736601228     106.818770080000
      2674   13      124.875294612594      18.733810257255     106.818770080000
      2675   14      126.841834685320      18.733810257255     106.818770080000
      2676   13      127.825104727143      17.030736601228     106.818770080000
      2677   14      123.892024581692      20.436883921473     106.818770080000
      2678   13      124.875294612594      22.139957577501     106.818770080000
      2679   14      126.841834685320      22.139957577501     106.818770080000
      2680   13      127.825104727143      20.436883921473     106.818770080000
      2681   14      123.892024581692      23.843031241719     106.818770080000
      2682   13      124.875294612594      25.546104897746     106.818770080000
      2683   14      126.841834685320      25.546104897746     106.818770080000
      2684   13      127.825104727143      23.843031241719     106.818770080000
      2685   14      123.892024581692      27.249178561964     106.818770080000
      2686   13      124.875294612594      28.952252217992     106.818770080000
      2687   14      126.841834685320      28.952252217992     106.818770080000
      2688   13      127.825104727143      27.249178561964     106.818770080000
      2689   14      123.892024581692      30.655325882210     106.818770080000
      2690   13      124.875294612594      32.358399538237     106.818770080000
      2691   14      126.841834685320      32.358399538237     106.818770080000
      2692   13      127.825104727143      30.655325882210     106.818770080000
      2693   14      123.892024581692      34.061473202455     106.818770080000
      2694   13      124.875294612594      35.764546858483     106.818770080000
      2695   14      126.841834685320      35.764546858483     106.818770080000
      2696   13      127.825104727143      34.061473202455     106.818770080000
      2697    3        0.000000000000      37.467620522701     100.000000000000
      2698    1        0.000000000000      37.467620522701     103.118770080000
      2699    9        0.000000000000      40.589922235429     100.000000000000
      2700    7        0.000000000000      40.589922235429     103.118770080000
      2701    2        0.901330861660      39.028771374059     101.559385040000
      2702    8        0.901330861660      42.151073086787     101.559385040000
      2703    6        2.703992594992      39.028771374059     100.000000000000
      2704    4        2.703992594992      39.028771374059     103.118770080000
      2705   12        2.703992594992      42.151073086787     100.000000000000
      2706   10        2.703992594992      42.151073086787     103.118770080000
      2707    5        3.605323466663      37.467620522701     101.559385040000
      2708   11        3.605323466663      40.589922235429     101.559385040000
      2709    3        0.000000000000      43.712223943151     100.000000000000
      2710    1        0.000000000000      43.712223943151     103.118770080000
      2711    9        0.000000000000      46.834525655879     100.000000000000
      2712    7        0.000000000000      46.834525655879     103.118770080000
      2713    2        0.901330861660      45.273374794509     101.559385040000
      2714    8        0.901330861660      48.395676507237     101.559385040000
      2715    6        2.703992594992      45.273374794509     100.000000000000
      2716    4        2.703992594992      45.273374794509     103.118770080000
      2717   12        2.703992594992      48.395676507237     100.000000000000
      2718   10        2.703992594992      48.395676507237     103.118770080000
      2719    5        3.605323466663      43.712223943151     101.559385040000
      2720   11        3.605323466663      46.834525655879     101.559385040000
      2721    3        0.000000000000      49.956827363601     100.000000000000
      2722    1        0.000000000000      49.956827363601     103.118770080000
      2723    9        0.000000000000      53.079129076329     100.000000000000
      2724    7        0.000000000000      53.079129076329     103.118770080000
      2725    2        0.901330861660      51.517978214960     101.559385040000
      2726    8        0.901330861660      54.640279927688     101.559385040000
      2727    6        2.703992594992      51.517978214960     100.000000000000
      2728    4        2.703992594992      51.517978214960     103.118770080000
      2729   12        2.703992594992      54.640279927688     100.000000000000
      2730   10        2.703992594992      54.640279927688     103.118770080000
      2731    5        3.605323466663      49.956827363601     101.559385040000
      2732   11        3.605323466663      53.079129076329     101.559385040000
      2733    3        0.000000000000      56.201430784051     100.000000000000
      2734    1        0.000000000000      56.201430784051     103.118770080000
      2735    9        0.000000000000      59.323732496779     100.000000000000
      2736    7        0.000000000000      59.323732496779     103.118770080000
      2737    2        0.901330861660      57.762581635410     101.559385040000
      2738    8        0.901330861660      60.884883348138     101.559385040000
      2739    6        2.703992594992      57.762581635410     100.000000000000
      2740    4        2.703992594992      57.762581635410     103.118770080000
      2741   12        2.703992594992      60.884883348138     100.000000000000
      2742   10        2.703992594992      60.884883348138     103.118770080000
      2743    5        3.605323466663      56.201430784051     101.559385040000
      2744   11        3.605323466663      59.323732496779     101.559385040000
      2745    3        0.000000000000      62.446034204502     100.000000000000
      2746    1        0.000000000000      62.446034204502     103.118770080000
      2747    9        0.000000000000      65.568335917230     100.000000000000
      2748    7        0.000000000000      65.568335917230     103.118770080000
      2749    2        0.901330861660      64.007185055860     101.559385040000
      2750    8        0.901330861660      67.129486768588     101.559385040000
      2751    6        2.703992594992      64.007185055860     100.000000000000
      2752    4        2.703992594992      64.007185055860     103.118770080000
      2753   12        2.703992594992      67.129486768588     100.000000000000
      2754   10        2.703992594992      67.129486768588     103.118770080000
      2755    5        3.605323466663      62.446034204502     101.559385040000
      2756   11        3.605323466663      65.568335917230     101.559385040000
      2757    3        0.000000000000      68.690637624952     100.000000000000
      2758    1        0.000000000000      68.690637624952     103.118770080000
      2759    9        0.000000000000      71.812939337680     100.000000000000
      2760    7        0.000000000000      71.812939337680     103.118770080000
      2761    2        0.901330861660      70.251788476310     101.559385040000
      2762    8        0.901330861660      73.374090189038     101.559385040000
      2763    6        2.703992594992      70.251788476310     100.000000000000
      2764    4        2.703992594992      70.251788476310     103.118770080000
      2765   12        2.703992594992      73.374090189038     100.000000000000
      2766   10        2.703992594992      73.374090189038     103.118770080000
      2767    5        3.605323466663      68.690637624952     101.559385040000
      2768   11        3.605323466663      71.812939337680     101.559385040000
      2769    3        5.407985199995      37.467620522701     100.000000000000
      2770    1        5.407985199995      37.467620522701     103.118770080000
      2771    9        5.407985199995      40.589922235429     100.000000000000
      2772    7        5.407985199995      40.589922235429     103.118770080000
      2773    2        6.309316061655      39.028771374059     101.559385040000
      2774    8        6.309316061655      42.151073086787     101.559385040000
      2775    6        8.111977794986      39.028771374059     100.000000000000
      2776    4        8.111977794986      39.028771374059     103.118770080000
      2777   12        8.111977794986      42.151073086787     100.000000000000
      2778   10        8.111977794986      42.151073086787     103.118770080000
      2779    5        9.013308666658      37.467620522701     101.559385040000
      2780   11        9.013308666658      40.589922235429     101.559385040000
      2781    3        5.407985199995      43.712223943151     100.000000000000
      2782    1        5.407985199995      43.712223943151     103.118770080000
      2783    9        5.407985199995      46.834525655879     100.000000000000
      2784    7        5.407985199995      46.834525655879     103.118770080000
      2785    2        6.309316061655      45.273374794509     101.559385040000
      2786    8        6.309316061655      48.395676507237     101.559385040000
      2787    6        8.111977794986      45.273374794509     100.000000000000
      2788    4        8.111977794986      45.273374794509     103.118770080000
      2789   12        8.111977794986      48.395676507237     100.000000000000
      2790   10        8.111977794986      48.395676507237     103.118770080000
      2791    5        9.013308666658      43.712223943151     101.559385040000
      2792   11        9.013308666658      46.834525655879     101.559385040000
      2793    3        5.407985199995      49.956827363601     100.000000000000
      2794    1        5.407985199995      49.956827363601     103.118770080000
      2795    9        5.407985199995      53.079129076329     100.000000000000
      2796    7        5.407985199995      53.079129076329     103.118770080000
      2797    2        6.309316061655      51.517978214960     101.559385040000
      2798    8        6.309316061655      54.640279927688     101.559385040000
      2799    6        8.111977794986      51.517978214960     100.000000000000
      2800    4        8.111977794986      51.517978214960     103.118770080000
      2801   12        8.111977794986      54.640279927688     100.000000000000
      2802   10        8.111977794986      54.640279927688     103.118770080000
      2803    5        9.013308666658      49.956827363601     101.559385040000
      2804   11        9.013308666658      53.079129076329     101.559385040000
      2805    3        5.407985199995      56.201430784051     100.000000000000
      2806    1        5.407985199995      56.201430784051     103.118770080000
      2807    9        5.407985199995      59.323732496779     100.000000000000
      2808    7        5.407985199995      59.323732496779     103.118770080000
      2809    2        6.309316061655      57.762581635410     101.559385040000
      2810    8        6.309316061655      60.884883348138     101.559385040000
      2811    6        8.111977794986      57.762581635410     100.000000000000
      2812    4        8.111977794986      57.762581635410     103.118770080000
      2813   12        8.111977794986      60.884883348138     100.000000000000
      2814   10        8.111977794986      60.884883348138     103.118770080000
      2815    5        9.013308666658      56.201430784051     101.559385040000
      2816   11        9.013308666658      59.323732496779     101.559385040000
      2817    3        5.407985199995      62.446034204502     100.000000000000
      2818    1        5.407985199995      62.446034204502     103.118770080000
      2819    9        5.407985199995      65.568335917230     100.000000000000
      2820    7        5.407985199995      65.568335917230     103.118770080000
      2821    2        6.309316061655      64.007185055860     101.559385040000
      2822    8        6.309316061655      67.129486768588     101.559385040000
      2823    6        8.111977794986      64.007185055860     100.000000000000
      2824    4        8.111977794986      64.007185055860     103.118770080000
      2825   12        8.111977794986      67.129486768588     100.000000000000
      2826   10        8.111977794986      67.129486768588     103.118770080000
      2827    5        9.013308666658      62.446034204502     101.559385040000
      2828   11        9.013308666658      65.568335917230     101.559385040000
      2829    3        5.407985199995      68.690637624952     100.000000000000
      2830    1        5.407985199995      68.690637624952     103.118770080000
      2831    9        5.407985199995      71.812939337680     100.000000000000
      2832    7        5.407985199995      71.812939337680     103.118770080000
      2833    2        6.309316061655      70.251788476310     101.559385040000
      2834    8        6.309316061655      73.374090189038     101.559385040000
      2835    6        8.111977794986      70.251788476310     100.000000000000
      2836    4        8.111977794986      70.251788476310     103.118770080000
      2837   12        8.111977794986      73.374090189038     100.000000000000
      2838   10        8.111977794986      73.374090189038     103.118770080000
      2839    5        9.013308666658      68.690637624952     101.559385040000
      2840   11        9.013308666658      71.812939337680     101.559385040000
      2841    3       10.815970399989      37.467620522701     100.000000000000
      2842    1       10.815970399989      37.467620522701     103.118770080000
      2843    9       10.815970399989      40.589922235429     100.000000000000
      2844    7       10.815970399989      40.589922235429     103.118770080000
      2845    2       11.717301261649      39.028771374059     101.559385040000
      2846    8       11.717301261649      42.151073086787     101.559385040000
      2847    6       13.519962994981      39.028771374059     100.000000000000
      2848    4       13.519962994981      39.028771374059     103.118770080000
      2849   12       13.519962994981      42.151073086787     100.000000000000
      2850   10       13.519962994981      42.151073086787     103.118770080000
      2851    5       14.421293866652      37.467620522701     101.559385040000
      2852   11       14.421293866652      40.589922235429     101.559385040000
      2853    3       10.815970399989      43.712223943151     100.000000000000
      2854    1       10.815970399989      43.712223943151     103.118770080000
      2855    9       10.815970399989      46.834525655879     100.000000000000
      2856    7       10.815970399989      46.834525655879     103.118770080000
      2857    2       11.717301261649      45.273374794509     101.559385040000
      2858    8       11.717301261649      48.395676507237     101.559385040000
      2859    6       13.519962994981      45.273374794509     100.000000000000
      2860    4       13.519962994981      45.273374794509     103.118770080000
      2861   12       13.519962994981      48.395676507237     100.000000000000
      2862   10       13.519962994981      48.395676507237     103.118770080000
      2863    5       14.421293866652      43.712223943151     101.559385040000
      2864   11       14.421293866652      46.834525655879     101.559385040000
      2865    3       10.815970399989      49.956827363601     100.000000000000
      2866    1       10.815970399989      49.956827363601     103.118770080000
      2867    9       10.815970399989      53.079129076329     100.000000000000
      2868    7       10.815970399989      53.079129076329     103.118770080000
      2869    2       11.717301261649      51.517978214960     101.559385040000
      2870    8       11.717301261649      54.640279927688     101.559385040000
      2871    6       13.519962994981      51.517978214960     100.000000000000
      2872    4       13.519962994981      51.517978214960     103.118770080000
      2873   12       13.519962994981      54.640279927688     100.000000000000
      2874   10       13.519962994981      54.640279927688     103.118770080000
      2875    5       14.421293866652      49.956827363601     101.559385040000
      2876   11       14.421293866652      53.079129076329     101.559385040000
      2877    3       10.815970399989      56.201430784051     100.000000000000
      2878    1       10.815970399989      56.201430784051     103.118770080000
      2879    9       10.815970399989      59.323732496779     100.000000000000
      2880    7       10.815970399989      59.323732496779     103.118770080000
      2881    2       11.717301261649      57.762581635410     101.559385040000
      2882    8       11.717301261649      60.884883348138     101.559385040000
      2883    6       13.519962994981      57.762581635410     100.000000000000
      2884    4       13.519962994981      57.762581635410     103.118770080000
      2885   12       13.519962994981      60.884883348138     100.000000000000
      2886   10       13.519962994981      60.884883348138     103.118770080000
      2887    5       14.421293866652      56.201430784051     101.559385040000
      2888   11       14.421293866652      59.323732496779     101.559385040000
      2889    3       10.815970399989      62.446034204502     100.000000000000
      2890    1       10.815970399989      62.446034204502     103.118770080000
      2891    9       10.815970399989      65.568335917230     100.000000000000
      2892    7       10.815970399989      65.568335917230     103.118770080000
      2893    2       11.717301261649      64.007185055860     101.559385040000
      2894    8       11.717301261649      67.129486768588     101.559385040000
      2895    6       13.519962994981      64.007185055860     100.000000000000
      2896    4       13.519962994981      64.007185055860     103.118770080000
      2897   12       13.519962994981      67.129486768588     100.000000000000
      2898   10       13.519962994981      67.129486768588     103.118770080000
      2899    5       14.421293866652      62.446034204502     101.559385040000
      2900   11       14.421293866652      65.568335917230     101.559385040000
      2901    3       10.815970399989      68.690637624952     100.000000000000
      2902    1       10.815970399989      68.690637624952     103.118770080000
      2903    9       10.815970399989      71.812939337680     100.000000000000
      2904    7       10.815970399989      71.812939337680     103.118770080000
      2905    2       11.717301261649      70.251788476310     101.559385040000
      2906    8       11.717301261649      73.374090189038     101.559385040000
      2907    6       13.519962994981      70.251788476310     100.000000000000
      2908    4       13.519962994981      70.251788476310     103.118770080000
      2909   12       13.519962994981      73.374090189038     100.000000000000
      2910   10       13.519962994981      73.374090189038     103.118770080000
      2911    5       14.421293866652      68.690637624952     101.559385040000
      2912   11       14.421293866652      71.812939337680     101.559385040000
      2913    3       16.223955599984      37.467620522701     100.000000000000
      2914    1       16.223955599984      37.467620522701     103.118770080000
      2915    9       16.223955599984      40.589922235429     100.000000000000
      2916    7       16.223955599984      40.589922235429     103.118770080000
      2917    2       17.125286461644      39.028771374059     101.559385040000
      2918    8       17.125286461644      42.151073086787     101.559385040000
      2919    6       18.927948194975      39.028771374059     100.000000000000
      2920    4       18.927948194975      39.028771374059     103.118770080000
      2921   12       18.927948194975      42.151073086787     100.000000000000
      2922   10       18.927948194975      42.151073086787     103.118770080000
      2923    5       19.829279066647      37.467620522701     101.559385040000
      2924   11       19.829279066647      40.589922235429     101.559385040000
      2925    3       16.223955599984      43.712223943151     100.000000000000
      2926    1       16.223955599984      43.712223943151     103.118770080000
      2927    9       16.223955599984      46.834525655879     100.000000000000
      2928    7       16.223955599984      46.834525655879     103.118770080000
      2929    2       17.125286461644      45.273374794509     101.559385040000
      2930    8       17.125286461644      48.395676507237     101.559385040000
      2931    6       18.927948194975      45.273374794509     100.000000000000
      2932    4       18.927948194975      45.273374794509     103.118770080000
      2933   12       18.927948194975      48.395676507237     100.000000000000
      2934   10       18.927948194975      48.395676507237     103.118770080000
      2935    5       19.829279066647      43.712223943151     101.559385040000
      2936   11       19.829279066647      46.834525655879     101.559385040000
      2937    3       16.223955599984      49.956827363601     100.000000000000
      2938    1       16.223955599984      49.956827363601     103.118770080000
      2939    9       16.223955599984      53.079129076329     100.000000000000
      2940    7       16.223955599984      53.079129076329     103.118770080000
      2941    2       17.125286461644      51.517978214960     101.559385040000
      2942    8       17.125286461644      54.640279927688     101.559385040000
      2943    6       18.927948194975      51.517978214960     100.000000000000
      2944    4       18.927948194975      51.517978214960     103.118770080000
      2945   12       18.927948194975      54.640279927688     100.000000000000
      2946   10       18.927948194975      54.640279927688     103.118770080000
      2947    5       19.829279066647      49.956827363601     101.559385040000
      2948   11       19.829279066647      53.079129076329     101.559385040000
      2949    3       16.223955599984      56.201430784051     100.000000000000
      2950    1       16.223955599984      56.201430784051     103.118770080000
      2951    9       16.223955599984      59.323732496779     100.000000000000
      2952    7       16.223955599984      59.323732496779     103.118770080000
      2953    2       17.125286461644      57.762581635410     101.559385040000
      2954    8       17.125286461644      60.884883348138     101.559385040000
      2955    6       18.927948194975      57.762581635410     100.000000000000
      2956    4       18.927948194975      57.762581635410     103.118770080000
      2957   12       18.927948194975      60.884883348138     100.000000000000
      2958   10       18.927948194975      60.884883348138     103.118770080000
      2959    5       19.829279066647      56.201430784051     101.559385040000
      2960   11       19.829279066647      59.323732496779     101.559385040000
      2961    3       16.223955599984      62.446034204502     100.000000000000
      2962    1       16.223955599984      62.446034204502     103.118770080000
      2963    9       16.223955599984      65.568335917230     100.000000000000
      2964    7       16.223955599984      65.568335917230     103.118770080000
      2965    2       17.125286461644      64.007185055860     101.559385040000
      2966    8       17.125286461644      67.129486768588     101.559385040000
      2967    6       18.927948194975      64.007185055860     100.000000000000
      2968    4       18.927948194975      64.007185055860     103.118770080000
      2969   12       18.927948194975      67.129486768588     100.000000000000
      2970   10       18.927948194975      67.129486768588     103.118770080000
      2971    5       19.829279066647      62.446034204502     101.559385040000
      2972   11       19.829279066647      65.568335917230     101.559385040000
      2973    3       16.223955599984      68.690637624952     100.000000000000
      2974    1       16.223955599984      68.690637624952     103.118770080000
      2975    9       16.223955599984      71.812939337680     100.000000000000
      2976    7       16.223955599984      71.812939337680     103.118770080000
      2977    2       17.125286461644      70.251788476310     101.559385040000
      2978    8       17.125286461644      73.374090189038     101.559385040000
      2979    6       18.927948194975      70.251788476310     100.000000000000
      2980    4       18.927948194975      70.251788476310     103.118770080000
      2981   12       18.927948194975      73.374090189038     100.000000000000
      2982   10       18.927948194975      73.374090189038     103.118770080000
      2983    5       19.829279066647      68.690637624952     101.559385040000
      2984   11       19.829279066647      71.812939337680     101.559385040000
      2985    3       21.631940799978      37.467620522701     100.000000000000
      2986    1       21.631940799978      37.467620522701     103.118770080000
      2987    9       21.631940799978      40.589922235429     100.000000000000
      2988    7       21.631940799978      40.589922235429     103.118770080000
      2989    2       22.533271661638      39.028771374059     101.559385040000
      2990    8       22.533271661638      42.151073086787     101.559385040000
      2991    6       24.335933394970      39.028771374059     100.000000000000
      2992    4       24.335933394970      39.028771374059     103.118770080000
      2993   12       24.335933394970      42.151073086787     100.000000000000
      2994   10       24.335933394970      42.151073086787     103.118770080000
      2995    5       25.237264266641      37.467620522701     101.559385040000
      2996   11       25.237264266641      40.589922235429     101.559385040000
      2997    3       21.631940799978      43.712223943151     100.000000000000
      2998    1       21.631940799978      43.712223943151     103.118770080000
      2999    9       21.631940799978      46.834525655879     100.000000000000
      3000    7       21.631940799978      46.834525655879     103.118770080000
      3001    2       22.533271661638      45.273374794509     101.559385040000
      3002    8       22.533271661638      48.395676507237     101.559385040000
      3003    6       24.335933394970      45.273374794509     100.000000000000
      3004    4       24.335933394970      45.273374794509     103.118770080000
      3005   12       24.335933394970      48.395676507237     100.000000000000
      3006   10       24.335933394970      48.395676507237     103.118770080000
      3007    5       25.237264266641      43.712223943151     101.559385040000
      3008   11       25.237264266641      46.834525655879     101.559385040000
      3009    3       21.631940799978      49.956827363601     100.000000000000
      3010    1       21.631940799978      49.956827363601     103.118770080000
      3011    9       21.631940799978      53.079129076329     100.000000000000
      3012    7       21.631940799978      53.079129076329     103.118770080000
      3013    2       22.533271661638      51.517978214960     101.559385040000
      3014    8       22.533271661638      54.640279927688     101.559385040000
      3015    6       24.335933394970      51.517978214960     100.000000000000
      3016    4       24.335933394970      51.517978214960     103.118770080000
      3017   12       24.335933394970      54.640279927688     100.000000000000
      3018   10       24.335933394970      54.640279927688     103.118770080000
      3019    5       25.237264266641      49.956827363601     101.559385040000
      3020   11       25.237264266641      53.079129076329     101.559385040000
      3021    3       21.631940799978      56.201430784051     100.000000000000
      3022    1       21.631940799978      56.201430784051     103.118770080000
      3023    9       21.631940799978      59.323732496779     100.000000000000
      3024    7       21.631940799978      59.323732496779     103.118770080000
      3025    2       22.533271661638      57.762581635410     101.559385040000
      3026    8       22.533271661638      60.884883348138     101.559385040000
      3027    6       24.335933394970      57.762581635410     100.000000000000
      3028    4       24.335933394970      57.762581635410     103.118770080000
      3029   12       24.335933394970      60.884883348138     100.000000000000
      3030   10       24.335933394970      60.884883348138     103.118770080000
      3031    5       25.237264266641      56.201430784051     101.559385040000
      3032   11       25.237264266641      59.323732496779     101.559385040000
      3033    3       21.631940799978      62.446034204502     100.000000000000
      3034    1       21.631940799978      62.446034204502     103.118770080000
      3035    9       21.631940799978      65.568335917230     100.000000000000
      3036    7       21.631940799978      65.568335917230     103.118770080000
      3037    2       22.533271661638      64.007185055860     101.559385040000
      3038    8       22.533271661638      67.129486768588     101.559385040000
      3039    6       24.335933394970      64.007185055860     100.000000000000
      3040    4       24.335933394970      64.007185055860     103.118770080000
      3041   12       24.335933394970      67.129486768588     100.000000000000
      3042   10       24.335933394970      67.129486768588     103.118770080000
      3043    5       25.237264266641      62.446034204502     101.559385040000
      3044   11       25.237264266641      65.568335917230     101.559385040000
      3045    3       21.631940799978      68.690637624952     100.000000000000
      3046    1       21.631940799978      68.690637624952     103.118770080000
      3047    9       21.631940799978      71.812939337680     100.000000000000
      3048    7       21.631940799978      71.812939337680     103.118770080000
      3049    2       22.533271661638      70.251788476310     101.559385040000
      3050    8       22.533271661638      73.374090189038     101.559385040000
      3051    6       24.335933394970      70.251788476310     100.000000000000
      3052    4       24.335933394970      70.251788476310     103.118770080000
      3053   12       24.335933394970      73.374090189038     100.000000000000
      3054   10       24.335933394970      73.374090189038     103.118770080000
      3055    5       25.237264266641      68.690637624952     101.559385040000
      3056   11       25.237264266641      71.812939337680     101.559385040000
      3057    3       27.039925999973      37.467620522701     100.000000000000
      3058    1       27.039925999973      37.467620522701     103.118770080000
      3059    9       27.039925999973      40.589922235429     100.000000000000
      3060    7       27.039925999973      40.589922235429     103.118770080000
      3061    2       27.941256861633      39.028771374059     101.559385040000
      3062    8       27.941256861633      42.151073086787     101.559385040000
      3063    6       29.743918594964      39.028771374059     100.000000000000
      3064    4       29.743918594964      39.028771374059     103.118770080000
      3065   12       29.743918594964      42.151073086787     100.000000000000
      3066   10       29.743918594964      42.151073086787     103.118770080000
      3067    5       30.645249466636      37.467620522701     101.559385040000
      3068   11       30.645249466636      40.589922235429     101.559385040000
      3069    3       27.039925999973      43.712223943151     100.000000000000
      3070    1       27.039925999973      43.712223943151     103.118770080000
      3071    9       27.039925999973      46.834525655879     100.000000000000
      3072    7       27.039925999973      46.834525655879     103.118770080000
      3073    2       27.941256861633      45.273374794509     101.559385040000
      3074    8       27.941256861633      48.395676507237     101.559385040000
      3075    6       29.743918594964      45.273374794509     100.000000000000
      3076    4       29.743918594964      45.273374794509     103.118770080000
      3077   12       29.743918594964      48.395676507237     100.000000000000
      3078   10       29.743918594964      48.395676507237     103.118770080000
      3079    5       30.645249466636      43.712223943151     101.559385040000
      3080   11       30.645249466636      46.834525655879     101.559385040000
      3081    3       27.039925999973      49.956827363601     100.000000000000
      3082    1       27.039925999973      49.956827363601     103.118770080000
      3083    9       27.039925999973      53.079129076329     100.000000000000
      3084    7       27.039925999973      53.079129076329     103.118770080000
      3085    2       27.941256861633      51.517978214960     101.559385040000
      3086    8       27.941256861633      54.640279927688     101.559385040000
      3087    6       29.743918594964      51.517978214960     100.000000000000
      3088    4       29.743918594964      51.517978214960     103.118770080000
      3089   12       29.743918594964      54.640279927688     100.000000000000
      3090   10       29.743918594964      54.640279927688     103.118770080000
      3091    5       30.645249466636      49.956827363601     101.559385040000
      3092   11       30.645249466636      53.079129076329     101.559385040000
      3093    3       27.039925999973      56.201430784051     100.000000000000
      3094    1       27.039925999973      56.201430784051     103.118770080000
      3095    9       27.039925999973      59.323732496779     100.000000000000
      3096    7       27.039925999973      59.323732496779     103.118770080000
      3097    2       27.941256861633      57.762581635410     101.559385040000
      3098    8       27.941256861633      60.884883348138     101.559385040000
      3099    6       29.743918594964      57.762581635410     100.000000000000
      3100    4       29.743918594964      57.762581635410     103.118770080000
      3101   12       29.743918594964      60.884883348138     100.000000000000
      3102   10       29.743918594964      60.884883348138     103.118770080000
      3103    5       30.645249466636      56.201430784051     101.559385040000
      3104   11       30.645249466636      59.323732496779     101.559385040000
      3105    3       27.039925999973      62.446034204502     100.000000000000
      3106    1       27.039925999973      62.446034204502     103.118770080000
      3107    9       27.039925999973      65.568335917230     100.000000000000
      3108    7       27.039925999973      65.568335917230     103.118770080000
      3109    2       27.941256861633      64.007185055860     101.559385040000
      3110    8       27.941256861633      67.129486768588     101.559385040000
      3111    6       29.743918594964      64.007185055860     100.000000000000
      3112    4       29.743918594964      64.007185055860     103.118770080000
      3113   12       29.743918594964      67.129486768588     100.000000000000
      3114   10       29.743918594964      67.129486768588     103.118770080000
      3115    5       30.645249466636      62.446034204502     101.559385040000
      3116   11       30.645249466636      65.568335917230     101.559385040000
      3117    3       27.039925999973      68.690637624952     100.000000000000
      3118    1       27.039925999973      68.690637624952     103.118770080000
      3119    9       27.039925999973      71.812939337680     100.000000000000
      3120    7       27.039925999973      71.812939337680     103.118770080000
      3121    2       27.941256861633      70.251788476310     101.559385040000
      3122    8       27.941256861633      73.374090189038     101.559385040000
      3123    6       29.743918594964      70.251788476310     100.000000000000
      3124    4       29.743918594964      70.251788476310     103.118770080000
      3125   12       29.743918594964      73.374090189038     100.000000000000
      3126   10       29.743918594964      73.374090189038     103.118770080000
      3127    5       30.645249466636      68.690637624952     101.559385040000
      3128   11       30.645249466636      71.812939337680     101.559385040000
      3129    3       32.447911199967      37.467620522701     100.000000000000
      3130    1       32.447911199967      37.467620522701     103.118770080000
      3131    9       32.447911199967      40.589922235429     100.000000000000
      3132    7       32.447911199967      40.589922235429     103.118770080000
      3133    2       33.349242061627      39.028771374059     101.559385040000
      3134    8       33.349242061627      42.151073086787     101.559385040000
      3135    6       35.151903794959      39.028771374059     100.000000000000
      3136    4       35.151903794959      39.028771374059     103.118770080000
      3137   12       35.151903794959      42.151073086787     100.000000000000
      3138   10       35.151903794959      42.151073086787     103.118770080000
      3139    5       36.053234666630      37.467620522701     101.559385040000
      3140   11       36.053234666630      40.589922235429     101.559385040000
      3141    3       32.447911199967      43.712223943151     100.000000000000
      3142    1       32.447911199967      43.712223943151     103.118770080000
      3143    9       32.447911199967      46.834525655879     100.000000000000
      3144    7       32.447911199967      46.834525655879     103.118770080000
      3145    2       33.349242061627      45.273374794509     101.559385040000
      3146    8       33.349242061627      48.395676507237     101.559385040000
      3147    6       35.151903794959      45.273374794509     100.000000000000
      3148    4       35.151903794959      45.273374794509     103.118770080000
      3149   12       35.151903794959      48.395676507237     100.000000000000
      3150   10       35.151903794959      48.395676507237     103.118770080000
      3151    5       36.053234666630      43.712223943151     101.559385040000
      3152   11       36.053234666630      46.834525655879     101.559385040000
      3153    3       32.447911199967      49.956827363601     100.000000000000
      3154    1       32.447911199967      49.956827363601     103.118770080000
      3155    9       32.447911199967      53.079129076329     100.000000000000
      3156    7       32.447911199967      53.079129076329     103.118770080000
      3157    2       33.349242061627      51.517978214960     101.559385040000
      3158    8       33.349242061627      54.640279927688     101.559385040000
      3159    6       35.151903794959      51.517978214960     100.000000000000
      3160    4       35.151903794959      51.517978214960     103.118770080000
      3161   12       35.151903794959      54.640279927688     100.000000000000
      3162   10       35.151903794959      54.640279927688     103.118770080000
      3163    5       36.053234666630      49.956827363601     101.559385040000
      3164   11       36.053234666630      53.079129076329     101.559385040000
      3165    3       32.447911199967      56.201430784051     100.000000000000
      3166    1       32.447911199967      56.201430784051     103.118770080000
      3167    9       32.447911199967      59.323732496779     100.000000000000
      3168    7       32.447911199967      59.323732496779     103.118770080000
      3169    2       33.349242061627      57.762581635410     101.559385040000
      3170    8       33.349242061627      60.884883348138     101.559385040000
      3171    6       35.151903794959      57.762581635410     100.000000000000
      3172    4       35.151903794959      57.762581635410     103.118770080000
      3173   12       35.151903794959      60.884883348138     100.000000000000
      3174   10       35.151903794959      60.884883348138     103.118770080000
      3175    5       36.053234666630      56.201430784051     101.559385040000
      3176   11       36.053234666630      59.323732496779     101.559385040000
      3177    3       32.447911199967      62.446034204502     100.000000000000
      3178    1       32.447911199967      62.446034204502     103.118770080000
      3179    9       32.447911199967      65.568335917230     100.000000000000
      3180    7       32.447911199967      65.568335917230     103.118770080000
      3181    2       33.349242061627      64.007185055860     101.559385040000
      3182    8       33.349242061627      67.129486768588     101.559385040000
      3183    6       35.151903794959      64.007185055860     100.000000000000
      3184    4       35.151903794959      64.007185055860     103.118770080000
      3185   12       35.151903794959      67.129486768588     100.000000000000
      3186   10       35.151903794959      67.129486768588     103.118770080000
      3187    5       36.053234666630      62.446034204502     101.559385040000
      3188   11       36.053234666630      65.568335917230     101.559385040000
      3189    3       32.447911199967      68.690637624952     100.000000000000
      3190    1       32.447911199967      68.690637624952     103.118770080000
      3191    9       32.447911199967      71.812939337680     100.000000000000
      3192    7       32.447911199967      71.812939337680     103.118770080000
      3193    2       33.349242061627      70.251788476310     101.559385040000
      3194    8       33.349242061627      73.374090189038     101.559385040000
      3195    6       35.151903794959      70.251788476310     100.000000000000
      3196    4       35.151903794959      70.251788476310     103.118770080000
      3197   12       35.151903794959      73.374090189038     100.000000000000
      3198   10       35.151903794959      73.374090189038     103.118770080000
      3199    5       36.053234666630      68.690637624952     101.559385040000
      3200   11       36.053234666630      71.812939337680     101.559385040000
      3201    3       37.855896399962      37.467620522701     100.000000000000
      3202    1       37.855896399962      37.467620522701     103.118770080000
      3203    9       37.855896399962      40.589922235429     100.000000000000
      3204    7       37.855896399962      40.589922235429     103.118770080000
      3205    2       38.757227261622      39.028771374059     101.559385040000
      3206    8       38.757227261622      42.151073086787     101.559385040000
      3207    6       40.559888994953      39.028771374059     100.000000000000
      3208    4       40.559888994953      39.028771374059     103.118770080000
      3209   12       40.559888994953      42.151073086787     100.000000000000
      3210   10       40.559888994953      42.151073086787     103.118770080000
      3211    5       41.461219866625      37.467620522701     101.559385040000
      3212   11       41.461219866625      40.589922235429     101.559385040000
      3213    3       37.855896399962      43.712223943151     100.000000000000
      3214    1       37.855896399962      43.712223943151     103.118770080000
      3215    9       37.855896399962      46.834525655879     100.000000000000
      3216    7       37.855896399962      46.834525655879     103.118770080000
      3217    2       38.757227261622      45.273374794509     101.559385040000
      3218    8       38.757227261622      48.395676507237     101.559385040000
      3219    6       40.559888994953      45.273374794509     100.000000000000
      3220    4       40.559888994953      45.273374794509     103.118770080000
      3221   12       40.559888994953      48.395676507237     100.000000000000
      3222   10       40.559888994953      48.395676507237     103.118770080000
      3223    5       41.461219866625      43.712223943151     101.559385040000
      3224   11       41.461219866625      46.834525655879     101.559385040000
      3225    3       37.855896399962      49.956827363601     100.000000000000
      3226    1       37.855896399962      49.956827363601     103.118770080000
      3227    9       37.855896399962      53.079129076329     100.000000000000
      3228    7       37.855896399962      53.079129076329     103.118770080000
      3229    2       38.757227261622      51.517978214960     101.559385040000
      3230    8       38.757227261622      54.640279927688     101.559385040000
      3231    6       40.559888994953      51.517978214960     100.000000000000
      3232    4       40.559888994953      51.517978214960     103.118770080000
      3233   12       40.559888994953      54.640279927688     100.000000000000
      3234   10       40.559888994953      54.640279927688     103.118770080000
      3235    5       41.461219866625      49.956827363601     101.559385040000
      3236   11       41.461219866625      53.079129076329     101.559385040000
      3237    3       37.855896399962      56.201430784051     100.000000000000
      3238    1       37.855896399962      56.201430784051     103.118770080000
      3239    9       37.855896399962      59.323732496779     100.000000000000
      3240    7       37.855896399962      59.323732496779     103.118770080000
      3241    2       38.757227261622      57.762581635410     101.559385040000
      3242    8       38.757227261622      60.884883348138     101.559385040000
      3243    6       40.559888994953      57.762581635410     100.000000000000
      3244    4       40.559888994953      57.762581635410     103.118770080000
      3245   12       40.559888994953      60.884883348138     100.000000000000
      3246   10       40.559888994953      60.884883348138     103.118770080000
      3247    5       41.461219866625      56.201430784051     101.559385040000
      3248   11       41.461219866625      59.323732496779     101.559385040000
      3249    3       37.855896399962      62.446034204502     100.000000000000
      3250    1       37.855896399962      62.446034204502     103.118770080000
      3251    9       37.855896399962      65.568335917230     100.000000000000
      3252    7       37.855896399962      65.568335917230     103.118770080000
      3253    2       38.757227261622      64.007185055860     101.559385040000
      3254    8       38.757227261622      67.129486768588     101.559385040000
      3255    6       40.559888994953      64.007185055860     100.000000000000
      3256    4       40.559888994953      64.007185055860     103.118770080000
      3257   12       40.559888994953      67.129486768588     100.000000000000
      3258   10       40.559888994953      67.129486768588     103.118770080000
      3259    5       41.461219866625      62.446034204502     101.559385040000
      3260   11       41.461219866625      65.568335917230     101.559385040000
      3261    3       37.855896399962      68.690637624952     100.000000000000
      3262    1       37.855896399962      68.690637624952     103.118770080000
      3263    9       37.855896399962      71.812939337680     100.000000000000
      3264    7       37.855896399962      71.812939337680     103.118770080000
      3265    2       38.757227261622      70.251788476310     101.559385040000
      3266    8       38.757227261622      73.374090189038     101.559385040000
      3267    6       40.559888994953      70.251788476310     100.000000000000
      3268    4       40.559888994953      70.251788476310     103.118770080000
      3269   12       40.559888994953      73.374090189038     100.000000000000
      3270   10       40.559888994953      73.374090189038     103.118770080000
      3271    5       41.461219866625      68.690637624952     101.559385040000
      3272   11       41.461219866625      71.812939337680     101.559385040000
      3273    3       43.263881599956      37.467620522701     100.000000000000
      3274    1       43.263881599956      37.467620522701     103.118770080000
      3275    9       43.263881599956      40.589922235429     100.000000000000
      3276    7       43.263881599956      40.589922235429     103.118770080000
      3277    2       44.165212461616      39.028771374059     101.559385040000
      3278    8       44.165212461616      42.151073086787     101.559385040000
      3279    6       45.967874194948      39.028771374059     100.000000000000
      3280    4       45.967874194948      39.028771374059     103.118770080000
      3281   12       45.967874194948      42.151073086787     100.000000000000
      3282   10       45.967874194948      42.151073086787     103.118770080000
      3283    5       46.869205066619      37.467620522701     101.559385040000
      3284   11       46.869205066619      40.589922235429     101.559385040000
      3285    3       43.263881599956      43.712223943151     100.000000000000
      3286    1       43.263881599956      43.712223943151     103.118770080000
      3287    9       43.263881599956      46.834525655879     100.000000000000
      3288    7       43.263881599956      46.834525655879     103.118770080000
      3289    2       44.165212461616      45.273374794509     101.559385040000
      3290    8       44.165212461616      48.395676507237     101.559385040000
      3291    6       45.967874194948      45.273374794509     100.000000000000
      3292    4       45.967874194948      45.273374794509     103.118770080000
      3293   12       45.967874194948      48.395676507237     100.000000000000
      3294   10       45.967874194948      48.395676507237     103.118770080000
      3295    5       46.869205066619      43.712223943151     101.559385040000
      3296   11       46.869205066619      46.834525655879     101.559385040000
      3297    3       43.263881599956      49.956827363601     100.000000000000
      3298    1       43.263881599956      49.956827363601     103.118770080000
      3299    9       43.263881599956      53.079129076329     100.000000000000
      3300    7       43.263881599956      53.079129076329     103.118770080000
      3301    2       44.165212461616      51.517978214960     101.559385040000
      3302    8       44.165212461616      54.640279927688     101.559385040000
      3303    6       45.967874194948      51.517978214960     100.000000000000
      3304    4       45.967874194948      51.517978214960     103.118770080000
      3305   12       45.967874194948      54.640279927688     100.000000000000
      3306   10       45.967874194948      54.640279927688     103.118770080000
      3307    5       46.869205066619      49.956827363601     101.559385040000
      3308   11       46.869205066619      53.079129076329     101.559385040000
      3309    3       43.263881599956      56.201430784051     100.000000000000
      3310    1       43.263881599956      56.201430784051     103.118770080000
      3311    9       43.263881599956      59.323732496779     100.000000000000
      3312    7       43.263881599956      59.323732496779     103.118770080000
      3313    2       44.165212461616      57.762581635410     101.559385040000
      3314    8       44.165212461616      60.884883348138     101.559385040000
      3315    6       45.967874194948      57.762581635410     100.000000000000
      3316    4       45.967874194948      57.762581635410     103.118770080000
      3317   12       45.967874194948      60.884883348138     100.000000000000
      3318   10       45.967874194948      60.884883348138     103.118770080000
      3319    5       46.869205066619      56.201430784051     101.559385040000
      3320   11       46.869205066619      59.323732496779     101.559385040000
      3321    3       43.263881599956      62.446034204502     100.000000000000
      3322    1       43.263881599956      62.446034204502     103.118770080000
      3323    9       43.263881599956      65.568335917230     100.000000000000
      3324    7       43.263881599956      65.568335917230     103.118770080000
      3325    2       44.165212461616      64.007185055860     101.559385040000
      3326    8       44.165212461616      67.129486768588     101.559385040000
      3327    6       45.967874194948      64.007185055860     100.000000000000
      3328    4       45.967874194948      64.007185055860     103.118770080000
      3329   12       45.967874194948      67.129486768588     100.000000000000
      3330   10       45.967874194948      67.129486768588     103.118770080000
      3331    5       46.869205066619      62.446034204502     101.559385040000
      3332   11       46.869205066619      65.568335917230     101.559385040000
      3333    3       43.263881599956      68.690637624952     100.000000000000
      3334    1       43.263881599956      68.690637624952     103.118770080000
      3335    9       43.263881599956      71.812939337680     100.000000000000
      3336    7       43.263881599956      71.812939337680     103.118770080000
      3337    2       44.165212461616      70.251788476310     101.559385040000
      3338    8       44.165212461616      73.374090189038     101.559385040000
      3339    6       45.967874194948      70.251788476310     100.000000000000
      3340    4       45.967874194948      70.251788476310     103.118770080000
      3341   12       45.967874194948      73.374090189038     100.000000000000
      3342   10       45.967874194948      73.374090189038     103.118770080000
      3343    5       46.869205066619      68.690637624952     101.559385040000
      3344   11       46.869205066619      71.812939337680     101.559385040000
      3345    3       48.671866799951      37.467620522701     100.000000000000
      3346    1       48.671866799951      37.467620522701     103.118770080000
      3347    9       48.671866799951      40.589922235429     100.000000000000
      3348    7       48.671866799951      40.589922235429     103.118770080000
      3349    2       49.573197661611      39.028771374059     101.559385040000
      3350    8       49.573197661611      42.151073086787     101.559385040000
      3351    6       51.375859394942      39.028771374059     100.000000000000
      3352    4       51.375859394942      39.028771374059     103.118770080000
      3353   12       51.375859394942      42.151073086787     100.000000000000
      3354   10       51.375859394942      42.151073086787     103.118770080000
      3355    5       52.277190266614      37.467620522701     101.559385040000
      3356   11       52.277190266614      40.589922235429     101.559385040000
      3357    3       48.671866799951      43.712223943151     100.000000000000
      3358    1       48.671866799951      43.712223943151     103.118770080000
      3359    9       48.671866799951      46.834525655879     100.000000000000
      3360    7       48.671866799951      46.834525655879     103.118770080000
      3361    2       49.573197661611      45.273374794509     101.559385040000
      3362    8       49.573197661611      48.395676507237     101.559385040000
      3363    6       51.375859394942      45.273374794509     100.000000000000
      3364    4       51.375859394942      45.273374794509     103.118770080000
      3365   12       51.375859394942      48.395676507237     100.000000000000
      3366   10       51.375859394942      48.395676507237     103.118770080000
      3367    5       52.277190266614      43.712223943151     101.559385040000
      3368   11       52.277190266614      46.834525655879     101.559385040000
      3369    3       48.671866799951      49.956827363601     100.000000000000
      3370    1       48.671866799951      49.956827363601     103.118770080000
      3371    9       48.671866799951      53.079129076329     100.000000000000
      3372    7       48.671866799951      53.079129076329     103.118770080000
      3373    2       49.573197661611      51.517978214960     101.559385040000
      3374    8       49.573197661611      54.640279927688     101.559385040000
      3375    6       51.375859394942      51.517978214960     100.000000000000
      3376    4       51.375859394942      51.517978214960     103.118770080000
      3377   12       51.375859394942      54.640279927688     100.000000000000
      3378   10       51.375859394942      54.640279927688     103.118770080000
      3379    5       52.277190266614      49.956827363601     101.559385040000
      3380   11       52.277190266614      53.079129076329     101.559385040000
      3381    3       48.671866799951      56.201430784051     100.000000000000
      3382    1       48.671866799951      56.201430784051     103.118770080000
      3383    9       48.671866799951      59.323732496779     100.000000000000
      3384    7       48.671866799951      59.323732496779     103.118770080000
      3385    2       49.573197661611      57.762581635410     101.559385040000
      3386    8       49.573197661611      60.884883348138     101.559385040000
      3387    6       51.375859394942      57.762581635410     100.000000000000
      3388    4       51.375859394942      57.762581635410     103.118770080000
      3389   12       51.375859394942      60.884883348138     100.000000000000
      3390   10       51.375859394942      60.884883348138     103.118770080000
      3391    5       52.277190266614      56.201430784051     101.559385040000
      3392   11       52.277190266614      59.323732496779     101.559385040000
      3393    3       48.671866799951      62.446034204502     100.000000000000
      3394    1       48.671866799951      62.446034204502     103.118770080000
      3395    9       48.671866799951      65.568335917230     100.000000000000
      3396    7       48.671866799951      65.568335917230     103.118770080000
      3397    2       49.573197661611      64.007185055860     101.559385040000
      3398    8       49.573197661611      67.129486768588     101.559385040000
      3399    6       51.375859394942      64.007185055860     100.000000000000
      3400    4       51.375859394942      64.007185055860     103.118770080000
      3401   12       51.375859394942      67.129486768588     100.000000000000
      3402   10       51.375859394942      67.129486768588     103.118770080000
      3403    5       52.277190266614      62.446034204502     101.559385040000
      3404   11       52.277190266614      65.568335917230     101.559385040000
      3405    3       48.671866799951      68.690637624952     100.000000000000
      3406    1       48.671866799951      68.690637624952     103.118770080000
      3407    9       48.671866799951      71.812939337680     100.000000000000
      3408    7       48.671866799951      71.812939337680     103.118770080000
      3409    2       49.573197661611      70.251788476310     101.559385040000
      3410    8       49.573197661611      73.374090189038     101.559385040000
      3411    6       51.375859394942      70.251788476310     100.000000000000
      3412    4       51.375859394942      70.251788476310     103.118770080000
      3413   12       51.375859394942      73.374090189038     100.000000000000
      3414   10       51.375859394942      73.374090189038     103.118770080000
      3415    5       52.277190266614      68.690637624952     101.559385040000
      3416   11       52.277190266614      71.812939337680     101.559385040000
      3417    3       54.079851999945      37.467620522701     100.000000000000
      3418    1       54.079851999945      37.467620522701     103.118770080000
      3419    9       54.079851999945      40.589922235429     100.000000000000
      3420    7       54.079851999945      40.589922235429     103.118770080000
      3421    2       54.981182861605      39.028771374059     101.559385040000
      3422    8       54.981182861605      42.151073086787     101.559385040000
      3423    6       56.783844594937      39.028771374059     100.000000000000
      3424    4       56.783844594937      39.028771374059     103.118770080000
      3425   12       56.783844594937      42.151073086787     100.000000000000
      3426   10       56.783844594937      42.151073086787     103.118770080000
      3427    5       57.685175466608      37.467620522701     101.559385040000
      3428   11       57.685175466608      40.589922235429     101.559385040000
      3429    3       54.079851999945      43.712223943151     100.000000000000
      3430    1       54.079851999945      43.712223943151     103.118770080000
      3431    9       54.079851999945      46.834525655879     100.000000000000
      3432    7       54.079851999945      46.834525655879     103.118770080000
      3433    2       54.981182861605      45.273374794509     101.559385040000
      3434    8       54.981182861605      48.395676507237     101.559385040000
      3435    6       56.783844594937      45.273374794509     100.000000000000
      3436    4       56.783844594937      45.273374794509     103.118770080000
      3437   12       56.783844594937      48.395676507237     100.000000000000
      3438   10       56.783844594937      48.395676507237     103.118770080000
      3439    5       57.685175466608      43.712223943151     101.559385040000
      3440   11       57.685175466608      46.834525655879     101.559385040000
      3441    3       54.079851999945      49.956827363601     100.000000000000
      3442    1       54.079851999945      49.956827363601     103.118770080000
      3443    9       54.079851999945      53.079129076329     100.000000000000
      3444    7       54.079851999945      53.079129076329     103.118770080000
      3445    2       54.981182861605      51.517978214960     101.559385040000
      3446    8       54.981182861605      54.640279927688     101.559385040000
      3447    6       56.783844594937      51.517978214960     100.000000000000
      3448    4       56.783844594937      51.517978214960     103.118770080000
      3449   12       56.783844594937      54.640279927688     100.000000000000
      3450   10       56.783844594937      54.640279927688     103.118770080000
      3451    5       57.685175466608      49.956827363601     101.559385040000
      3452   11       57.685175466608      53.079129076329     101.559385040000
      3453    3       54.079851999945      56.201430784051     100.000000000000
      3454    1       54.079851999945      56.201430784051     103.118770080000
      3455    9       54.079851999945      59.323732496779     100.000000000000
      3456    7       54.079851999945      59.323732496779     103.118770080000
      3457    2       54.981182861605      57.762581635410     101.559385040000
      3458    8       54.981182861605      60.884883348138     101.559385040000
      3459    6       56.783844594937      57.762581635410     100.000000000000
      3460    4       56.783844594937      57.762581635410     103.118770080000
      3461   12       56.783844594937      60.884883348138     100.000000000000
      3462   10       56.783844594937      60.884883348138     103.118770080000
      3463    5       57.685175466608      56.201430784051     101.559385040000
      3464   11       57.685175466608      59.323732496779     101.559385040000
      3465    3       54.079851999945      62.446034204502     100.000000000000
      3466    1       54.079851999945      62.446034204502     103.118770080000
      3467    9       54.079851999945      65.568335917230     100.000000000000
      3468    7       54.079851999945      65.568335917230     103.118770080000
      3469    2       54.981182861605      64.007185055860     101.559385040000
      3470    8       54.981182861605      67.129486768588     101.559385040000
      3471    6       56.783844594937      64.007185055860     100.000000000000
      3472    4       56.783844594937      64.007185055860     103.118770080000
      3473   12       56.783844594937      67.129486768588     100.000000000000
      3474   10       56.783844594937      67.129486768588     103.118770080000
      3475    5       57.685175466608      62.446034204502     101.559385040000
      3476   11       57.685175466608      65.568335917230     101.559385040000
      3477    3       54.079851999945      68.690637624952     100.000000000000
      3478    1       54.079851999945      68.690637624952     103.118770080000
      3479    9       54.079851999945      71.812939337680     100.000000000000
      3480    7       54.079851999945      71.812939337680     103.118770080000
      3481    2       54.981182861605      70.251788476310     101.559385040000
      3482    8       54.981182861605      73.374090189038     101.559385040000
      3483    6       56.783844594937      70.251788476310     100.000000000000
      3484    4       56.783844594937      70.251788476310     103.118770080000
      3485   12       56.783844594937      73.374090189038     100.000000000000
      3486   10       56.783844594937      73.374090189038     103.118770080000
      3487    5       57.685175466608      68.690637624952     101.559385040000
      3488   11       57.685175466608      71.812939337680     101.559385040000
      3489    3       59.487837199940      37.467620522701     100.000000000000
      3490    1       59.487837199940      37.467620522701     103.118770080000
      3491    9       59.487837199940      40.589922235429     100.000000000000
      3492    7       59.487837199940      40.589922235429     103.118770080000
      3493    2       60.389168061600      39.028771374059     101.559385040000
      3494    8       60.389168061600      42.151073086787     101.559385040000
      3495    6       62.191829794931      39.028771374059     100.000000000000
      3496    4       62.191829794931      39.028771374059     103.118770080000
      3497   12       62.191829794931      42.151073086787     100.000000000000
      3498   10       62.191829794931      42.151073086787     103.118770080000
      3499    5       63.093160666603      37.467620522701     101.559385040000
      3500   11       63.093160666603      40.589922235429     101.559385040000
      3501    3       59.487837199940      43.712223943151     100.000000000000
      3502    1       59.487837199940      43.712223943151     103.118770080000
      3503    9       59.487837199940      46.834525655879     100.000000000000
      3504    7       59.487837199940      46.834525655879     103.118770080000
      3505    2       60.389168061600      45.273374794509     101.559385040000
      3506    8       60.389168061600      48.395676507237     101.559385040000
      3507    6       62.191829794931      45.273374794509     100.000000000000
      3508    4       62.191829794931      45.273374794509     103.118770080000
      3509   12       62.191829794931      48.395676507237     100.000000000000
      3510   10       62.191829794931      48.395676507237     103.118770080000
      3511    5       63.093160666603      43.712223943151     101.559385040000
      3512   11       63.093160666603      46.834525655879     101.559385040000
      3513    3       59.487837199940      49.956827363601     100.000000000000
      3514    1       59.487837199940      49.956827363601     103.118770080000
      3515    9       59.487837199940      53.079129076329     100.000000000000
      3516    7       59.487837199940      53.079129076329     103.118770080000
      3517    2       60.389168061600      51.517978214960     101.559385040000
      3518    8       60.389168061600      54.640279927688     101.559385040000
      3519    6       62.191829794931      51.517978214960     100.000000000000
      3520    4       62.191829794931      51.517978214960     103.118770080000
      3521   12       62.191829794931      54.640279927688     100.000000000000
      3522   10       62.191829794931      54.640279927688     103.118770080000
      3523    5       63.093160666603      49.956827363601     101.559385040000
      3524   11       63.093160666603      53.079129076329     101.559385040000
      3525    3       59.487837199940      56.201430784051     100.000000000000
      3526    1       59.487837199940      56.201430784051     103.118770080000
      3527    9       59.487837199940      59.323732496779     100.000000000000
      3528    7       59.487837199940      59.323732496779     103.118770080000
      3529    2       60.389168061600      57.762581635410     101.559385040000
      3530    8       60.389168061600      60.884883348138     101.559385040000
      3531    6       62.191829794931      57.762581635410     100.000000000000
      3532    4       62.191829794931      57.762581635410     103.118770080000
      3533   12       62.191829794931      60.884883348138     100.000000000000
      3534   10       62.191829794931      60.884883348138     103.118770080000
      3535    5       63.093160666603      56.201430784051     101.559385040000
      3536   11       63.093160666603      59.323732496779     101.559385040000
      3537    3       59.487837199940      62.446034204502     100.000000000000
      3538    1       59.487837199940      62.446034204502     103.118770080000
      3539    9       59.487837199940      65.568335917230     100.000000000000
      3540    7       59.487837199940      65.568335917230     103.118770080000
      3541    2       60.389168061600      64.007185055860     101.559385040000
      3542    8       60.389168061600      67.129486768588     101.559385040000
      3543    6       62.191829794931      64.007185055860     100.000000000000
      3544    4       62.191829794931      64.007185055860     103.118770080000
      3545   12       62.191829794931      67.129486768588     100.000000000000
      3546   10       62.191829794931      67.129486768588     103.118770080000
      3547    5       63.093160666603      62.446034204502     101.559385040000
      3548   11       63.093160666603      65.568335917230     101.559385040000
      3549    3       59.487837199940      68.690637624952     100.000000000000
      3550    1       59.487837199940      68.690637624952     103.118770080000
      3551    9       59.487837199940      71.812939337680     100.000000000000
      3552    7       59.487837199940      71.812939337680     103.118770080000
      3553    2       60.389168061600      70.251788476310     101.559385040000
      3554    8       60.389168061600      73.374090189038     101.559385040000
      3555    6       62.191829794931      70.251788476310     100.000000000000
      3556    4       62.191829794931      70.251788476310     103.118770080000
      3557   12       62.191829794931      73.374090189038     100.000000000000
      3558   10       62.191829794931      73.374090189038     103.118770080000
      3559    5       63.093160666603      68.690637624952     101.559385040000
      3560   11       63.093160666603      71.812939337680     101.559385040000
      3561   14        0.000000000000      37.467620522701     106.818770080000
      3562   13        0.983270030902      39.170694178728     106.818770080000
      3563   14        2.949810103627      39.170694178728     106.818770080000
      3564   13        3.933080145451      37.467620522701     106.818770080000
      3565   14        0.000000000000      40.873767842947     106.818770080000
      3566   13        0.983270030902      42.576841498974     106.818770080000
      3567   14        2.949810103627      42.576841498974     106.818770080000
      3568   13        3.933080145451      40.873767842947     106.818770080000
      3569   14        0.000000000000      44.279915163192     106.818770080000
      3570   13        0.983270030902      45.982988819219     106.818770080000
      3571   14        2.949810103627      45.982988819219     106.818770080000
      3572   13        3.933080145451      44.279915163192     106.818770080000
      3573   14        0.000000000000      47.686062483438     106.818770080000
      3574   13        0.983270030902      49.389136139465     106.818770080000
      3575   14        2.949810103627      49.389136139465     106.818770080000
      3576   13        3.933080145451      47.686062483438     106.818770080000
      3577   14        0.000000000000      51.092209803683     106.818770080000
      3578   13        0.983270030902      52.795283459711     106.818770080000
      3579   14        2.949810103627      52.795283459711     106.818770080000
      3580   13        3.933080145451      51.092209803683     106.818770080000
      3581   14        0.000000000000      54.498357123929     106.818770080000
      3582   13        0.983270030902      56.201430779956     106.818770080000
      3583   14        2.949810103627      56.201430779956     106.818770080000
      3584   13        3.933080145451      54.498357123929     106.818770080000
      3585   14        0.000000000000      57.904504444174     106.818770080000
      3586   13        0.983270030902      59.607578100202     106.818770080000
      3587   14        2.949810103627      59.607578100202     106.818770080000
      3588   13        3.933080145451      57.904504444174     106.818770080000
      3589   14        0.000000000000      61.310651764420     106.818770080000
      3590   13        0.983270030902      63.013725420447     106.818770080000
      3591   14        2.949810103627      63.013725420447     106.818770080000
      3592   13        3.933080145451      61.310651764420     106.818770080000
      3593   14        0.000000000000      64.716799084665     106.818770080000
      3594   13        0.983270030902      66.419872740693     106.818770080000
      3595   14        2.949810103627      66.419872740693     106.818770080000
      3596   13        3.933080145451      64.716799084665     106.818770080000
      3597   14        0.000000000000      68.122946404911     106.818770080000
      3598   13        0.983270030902      69.826020060938     106.818770080000
      3599   14        2.949810103627      69.826020060938     106.818770080000
      3600   13        3.933080145451      68.122946404911     106.818770080000
      3601   14        0.000000000000      71.529093725156     106.818770080000
      3602   13        0.983270030902      73.232167381184     106.818770080000
      3603   14        2.949810103627      73.232167381184     106.818770080000
      3604   13        3.933080145451      71.529093725156     106.818770080000
      3605   14        5.899620218176      37.467620522701     106.818770080000
      3606   13        6.882890249078      39.170694178728     106.818770080000
      3607   14        8.849430321803      39.170694178728     106.818770080000
      3608   13        9.832700363627      37.467620522701     106.818770080000
      3609   14        5.899620218176      40.873767842947     106.818770080000
      3610   13        6.882890249078      42.576841498974     106.818770080000
      3611   14        8.849430321803      42.576841498974     106.818770080000
      3612   13        9.832700363627      40.873767842947     106.818770080000
      3613   14        5.899620218176      44.279915163192     106.818770080000
      3614   13        6.882890249078      45.982988819219     106.818770080000
      3615   14        8.849430321803      45.982988819219     106.818770080000
      3616   13        9.832700363627      44.279915163192     106.818770080000
      3617   14        5.899620218176      47.686062483438     106.818770080000
      3618   13        6.882890249078      49.389136139465     106.818770080000
      3619   14        8.849430321803      49.389136139465     106.818770080000
      3620   13        9.832700363627      47.686062483438     106.818770080000
      3621   14        5.899620218176      51.092209803683     106.818770080000
      3622   13        6.882890249078      52.795283459711     106.818770080000
      3623   14        8.849430321803      52.795283459711     106.818770080000
      3624   13        9.832700363627      51.092209803683     106.818770080000
      3625   14        5.899620218176      54.498357123929     106.818770080000
      3626   13        6.882890249078      56.201430779956     106.818770080000
      3627   14        8.849430321803      56.201430779956     106.818770080000
      3628   13        9.832700363627      54.498357123929     106.818770080000
      3629   14        5.899620218176      57.904504444174     106.818770080000
      3630   13        6.882890249078      59.607578100202     106.818770080000
      3631   14        8.849430321803      59.607578100202     106.818770080000
      3632   13        9.832700363627      57.904504444174     106.818770080000
      3633   14        5.899620218176      61.310651764420     106.818770080000
      3634   13        6.882890249078      63.013725420447     106.818770080000
      3635   14        8.849430321803      63.013725420447     106.818770080000
      3636   13        9.832700363627      61.310651764420     106.818770080000
      3637   14        5.899620218176      64.716799084665     106.818770080000
      3638   13        6.882890249078      66.419872740693     106.818770080000
      3639   14        8.849430321803      66.419872740693     106.818770080000
      3640   13        9.832700363627      64.716799084665     106.818770080000
      3641   14        5.899620218176      68.122946404911     106.818770080000
      3642   13        6.882890249078      69.826020060938     106.818770080000
      3643   14        8.849430321803      69.826020060938     106.818770080000
      3644   13        9.832700363627      68.122946404911     106.818770080000
      3645   14        5.899620218176      71.529093725156     106.818770080000
      3646   13        6.882890249078      73.232167381184     106.818770080000
      3647   14        8.849430321803      73.232167381184     106.818770080000
      3648   13        9.832700363627      71.529093725156     106.818770080000
      3649   14       11.799240436352      37.467620522701     106.818770080000
      3650   13       12.782510467254      39.170694178728     106.818770080000
      3651   14       14.749050539979      39.170694178728     106.818770080000
      3652   13       15.732320581803      37.467620522701     106.818770080000
      3653   14       11.799240436352      40.873767842947     106.818770080000
      3654   13       12.782510467254      42.576841498974     106.818770080000
      3655   14       14.749050539979      42.576841498974     106.818770080000
      3656   13       15.732320581803      40.873767842947     106.818770080000
      3657   14       11.799240436352      44.279915163192     106.818770080000
      3658   13       12.782510467254      45.982988819219     106.818770080000
      3659   14       14.749050539979      45.982988819219     106.818770080000
      3660   13       15.732320581803      44.279915163192     106.818770080000
      3661   14       11.799240436352      47.686062483438     106.818770080000
      3662   13       12.782510467254      49.389136139465     106.818770080000
      3663   14       14.749050539979      49.389136139465     106.818770080000
      3664   13       15.732320581803      47.686062483438     106.818770080000
      3665   14       11.799240436352      51.092209803683     106.818770080000
      3666   13       12.782510467254      52.795283459711     106.818770080000
      3667   14       14.749050539979      52.795283459711     106.818770080000
      3668   13       15.732320581803      51.092209803683     106.818770080000
      3669   14       11.799240436352      54.498357123929     106.818770080000
      3670   13       12.782510467254      56.201430779956     106.818770080000
      3671   14       14.749050539979      56.201430779956     106.818770080000
      3672   13       15.732320581803      54.498357123929     106.818770080000
      3673   14       11.799240436352      57.904504444174     106.818770080000
      3674   13       12.782510467254      59.607578100202     106.818770080000
      3675   14       14.749050539979      59.607578100202     106.818770080000
      3676   13       15.732320581803      57.904504444174     106.818770080000
      3677   14       11.799240436352      61.310651764420     106.818770080000
      3678   13       12.782510467254      63.013725420447     106.818770080000
      3679   14       14.749050539979      63.013725420447     106.818770080000
      3680   13       15.732320581803      61.310651764420     106.818770080000
      3681   14       11.799240436352      64.716799084665     106.818770080000
      3682   13       12.782510467254      66.419872740693     106.818770080000
      3683   14       14.749050539979      66.419872740693     106.818770080000
      3684   13       15.732320581803      64.716799084665     106.818770080000
      3685   14       11.799240436352      68.122946404911     106.818770080000
      3686   13       12.782510467254      69.826020060938     106.818770080000
      3687   14       14.749050539979      69.826020060938     106.818770080000
      3688   13       15.732320581803      68.122946404911     106.818770080000
      3689   14       11.799240436352      71.529093725156     106.818770080000
      3690   13       12.782510467254      73.232167381184     106.818770080000
      3691   14       14.749050539979      73.232167381184     106.818770080000
      3692   13       15.732320581803      71.529093725156     106.818770080000
      3693   14       17.698860654528      37.467620522701     106.818770080000
      3694   13       18.682130685429      39.170694178728     106.818770080000
      3695   14       20.648670758155      39.170694178728     106.818770080000
      3696   13       21.631940799978      37.467620522701     106.818770080000
      3697   14       17.698860654528      40.873767842947     106.818770080000
      3698   13       18.682130685429      42.576841498974     106.818770080000
      3699   14       20.648670758155      42.576841498974     106.818770080000
      3700   13       21.631940799978      40.873767842947     106.818770080000
      3701   14       17.698860654528      44.279915163192     106.818770080000
      3702   13       18.682130685429      45.982988819219     106.818770080000
      3703   14       20.648670758155      45.982988819219     106.818770080000
      3704   13       21.631940799978      44.279915163192     106.818770080000
      3705   14       17.698860654528      47.686062483438     106.818770080000
      3706   13       18.682130685429      49.389136139465     106.818770080000
      3707   14       20.648670758155      49.389136139465     106.818770080000
      3708   13       21.631940799978      47.686062483438     106.818770080000
      3709   14       17.698860654528      51.092209803683     106.818770080000
      3710   13       18.682130685429      52.795283459711     106.818770080000
      3711   14       20.648670758155      52.795283459711     106.818770080000
      3712   13       21.631940799978      51.092209803683     106.818770080000
      3713   14       17.698860654528      54.498357123929     106.818770080000
      3714   13       18.682130685429      56.201430779956     106.818770080000
      3715   14       20.648670758155      56.201430779956     106.818770080000
      3716   13       21.631940799978      54.498357123929     106.818770080000
      3717   14       17.698860654528      57.904504444174     106.818770080000
      3718   13       18.682130685429      59.607578100202     106.818770080000
      3719   14       20.648670758155      59.607578100202     106.818770080000
      3720   13       21.631940799978      57.904504444174     106.818770080000
      3721   14       17.698860654528      61.310651764420     106.818770080000
      3722   13       18.682130685429      63.013725420447     106.818770080000
      3723   14       20.648670758155      63.013725420447     106.818770080000
      3724   13       21.631940799978      61.310651764420     106.818770080000
      3725   14       17.698860654528      64.716799084665     106.818770080000
      3726   13       18.682130685429      66.419872740693     106.818770080000
      3727   14       20.648670758155      66.419872740693     106.818770080000
      3728   13       21.631940799978      64.716799084665     106.818770080000
      3729   14       17.698860654528      68.122946404911     106.818770080000
      3730   13       18.682130685429      69.826020060938     106.818770080000
      3731   14       20.648670758155      69.826020060938     106.818770080000
      3732   13       21.631940799978      68.122946404911     106.818770080000
      3733   14       17.698860654528      71.529093725156     106.818770080000
      3734   13       18.682130685429      73.232167381184     106.818770080000
      3735   14       20.648670758155      73.232167381184     106.818770080000
      3736   13       21.631940799978      71.529093725156     106.818770080000
      3737   14       23.598480872703      37.467620522701     106.818770080000
      3738   13       24.581750903605      39.170694178728     106.818770080000
      3739   14       26.548290976331      39.170694178728     106.818770080000
      3740   13       27.531561018154      37.467620522701     106.818770080000
      3741   14       23.598480872703      40.873767842947     106.818770080000
      3742   13       24.581750903605      42.576841498974     106.818770080000
      3743   14       26.548290976331      42.576841498974     106.818770080000
      3744   13       27.531561018154      40.873767842947     106.818770080000
      3745   14       23.598480872703      44.279915163192     106.818770080000
      3746   13       24.581750903605      45.982988819219     106.818770080000
      3747   14       26.548290976331      45.982988819219     106.818770080000
      3748   13       27.531561018154      44.279915163192     106.818770080000
      3749   14       23.598480872703      47.686062483438     106.818770080000
      3750   13       24.581750903605      49.389136139465     106.818770080000
      3751   14       26.548290976331      49.389136139465     106.818770080000
      3752   13       27.531561018154      47.686062483438     106.818770080000
      3753   14       23.598480872703      51.092209803683     106.818770080000
      3754   13       24.581750903605      52.795283459711     106.818770080000
      3755   14       26.548290976331      52.795283459711     106.818770080000
      3756   13       27.531561018154      51.092209803683     106.818770080000
      3757   14       23.598480872703      54.498357123929     106.818770080000
      3758   13       24.581750903605      56.201430779956     106.818770080000
      3759   14       26.548290976331      56.201430779956     106.818770080000
      3760   13       27.531561018154      54.498357123929     106.818770080000
      3761   14       23.598480872703      57.904504444174     106.818770080000
      3762   13       24.581750903605      59.607578100202     106.818770080000
      3763   14       26.548290976331      59.607578100202     106.818770080000
      3764   13       27.531561018154      57.904504444174     106.818770080000
      3765   14       23.598480872703      61.310651764420     106.818770080000
      3766   13       24.581750903605      63.013725420447     106.818770080000
      3767   14       26.548290976331      63.013725420447     106.818770080000
      3768   13       27.531561018154      61.310651764420     106.818770080000
      3769   14       23.598480872703      64.716799084665     106.818770080000
      3770   13       24.581750903605      66.419872740693     106.818770080000
      3771   14       26.548290976331      66.419872740693     106.818770080000
      3772   13       27.531561018154      64.716799084665     106.818770080000
      3773   14       23.598480872703      68.122946404911     106.818770080000
      3774   13       24.581750903605      69.826020060938     106.818770080000
      3775   14       26.548290976331      69.826020060938     106.818770080000
      3776   13       27.531561018154      68.122946404911     106.818770080000
      3777   14       23.598480872703      71.529093725156     106.818770080000
      3778   13       24.581750903605      73.232167381184     106.818770080000
      3779   14       26.548290976331      73.232167381184     106.818770080000
      3780   13       27.531561018154      71.529093725156     106.818770080000
      3781   14       29.498101090879      37.467620522701     106.818770080000
      3782   13       30.481371121781      39.170694178728     106.818770080000
      3783   14       32.447911194507      39.170694178728     106.818770080000
      3784   13       33.431181236330      37.467620522701     106.818770080000
      3785   14       29.498101090879      40.873767842947     106.818770080000
      3786   13       30.481371121781      42.576841498974     106.818770080000
      3787   14       32.447911194507      42.576841498974     106.818770080000
      3788   13       33.431181236330      40.873767842947     106.818770080000
      3789   14       29.498101090879      44.279915163192     106.818770080000
      3790   13       30.481371121781      45.982988819219     106.818770080000
      3791   14       32.447911194507      45.982988819219     106.818770080000
      3792   13       33.431181236330      44.279915163192     106.818770080000
      3793   14       29.498101090879      47.686062483438     106.818770080000
      3794   13       30.481371121781      49.389136139465     106.818770080000
      3795   14       32.447911194507      49.389136139465     106.818770080000
      3796   13       33.431181236330      47.686062483438     106.818770080000
      3797   14       29.498101090879      51.092209803683     106.818770080000
      3798   13       30.481371121781      52.795283459711     106.818770080000
      3799   14       32.447911194507      52.795283459711     106.818770080000
      3800   13       33.431181236330      51.092209803683     106.818770080000
      3801   14       29.498101090879      54.498357123929     106.818770080000
      3802   13       30.481371121781      56.201430779956     106.818770080000
      3803   14       32.447911194507      56.201430779956     106.818770080000
      3804   13       33.431181236330      54.498357123929     106.818770080000
      3805   14       29.498101090879      57.904504444174     106.818770080000
      3806   13       30.481371121781      59.607578100202     106.818770080000
      3807   14       32.447911194507      59.607578100202     106.818770080000
      3808   13       33.431181236330      57.904504444174     106.818770080000
      3809   14       29.498101090879      61.310651764420     106.818770080000
      3810   13       30.481371121781      63.013725420447     106.818770080000
      3811   14       32.447911194507      63.013725420447     106.818770080000
      3812   13       33.431181236330      61.310651764420     106.818770080000
      3813   14       29.498101090879      64.716799084665     106.818770080000
      3814   13       30.481371121781      66.419872740693     106.818770080000
      3815   14       32.447911194507      66.419872740693     106.818770080000
      3816   13       33.431181236330      64.716799084665     106.818770080000
      3817   14       29.498101090879      68.122946404911     106.818770080000
      3818   13       30.481371121781      69.826020060938     106.818770080000
      3819   14       32.447911194507      69.826020060938     106.818770080000
      3820   13       33.431181236330      68.122946404911     106.818770080000
      3821   14       29.498101090879      71.529093725156     106.818770080000
      3822   13       30.481371121781      73.232167381184     106.818770080000
      3823   14       32.447911194507      73.232167381184     106.818770080000
      3824   13       33.431181236330      71.529093725156     106.818770080000
      3825   14       35.397721309055      37.467620522701     106.818770080000
      3826   13       36.380991339957      39.170694178728     106.818770080000
      3827   14       38.347531412682      39.170694178728     106.818770080000
      3828   13       39.330801454506      37.467620522701     106.818770080000
      3829   14       35.397721309055      40.873767842947     106.818770080000
      3830   13       36.380991339957      42.576841498974     106.818770080000
      3831   14       38.347531412682      42.576841498974     106.818770080000
      3832   13       39.330801454506      40.873767842947     106.818770080000
      3833   14       35.397721309055      44.279915163192     106.818770080000
      3834   13       36.380991339957      45.982988819219     106.818770080000
      3835   14       38.347531412682      45.982988819219     106.818770080000
      3836   13       39.330801454506      44.279915163192     106.818770080000
      3837   14       35.397721309055      47.686062483438     106.818770080000
      3838   13       36.380991339957      49.389136139465     106.818770080000
      3839   14       38.347531412682      49.389136139465     106.818770080000
      3840   13       39.330801454506      47.686062483438     106.818770080000
      3841   14       35.397721309055      51.092209803683     106.818770080000
      3842   13       36.380991339957      52.795283459711     106.818770080000
      3843   14       38.347531412682      52.795283459711     106.818770080000
      3844   13       39.330801454506      51.092209803683     106.818770080000
      3845   14       35.397721309055      54.498357123929     106.818770080000
      3846   13       36.380991339957      56.201430779956     106.818770080000
      3847   14       38.347531412682      56.201430779956     106.818770080000
      3848   13       39.330801454506      54.498357123929     106.818770080000
      3849   14       35.397721309055      57.904504444174     106.818770080000
      3850   13       36.380991339957      59.607578100202     106.818770080000
      3851   14       38.347531412682      59.607578100202     106.818770080000
      3852   13       39.330801454506      57.904504444174     106.818770080000
      3853   14       35.397721309055      61.310651764420     106.818770080000
      3854   13       36.380991339957      63.013725420447     106.818770080000
      3855   14       38.347531412682      63.013725420447     106.818770080000
      3856   13       39.330801454506      61.310651764420     106.818770080000
      3857   14       35.397721309055      64.716799084665     106.818770080000
      3858   13       36.380991339957      66.419872740693     106.818770080000
      3859   14       38.347531412682      66.419872740693     106.818770080000
      3860   13       39.330801454506      64.716799084665     106.818770080000
      3861   14       35.397721309055      68.122946404911     106.818770080000
      3862   13       36.380991339957      69.826020060938     106.818770080000
      3863   14       38.347531412682      69.826020060938     106.818770080000
      3864   13       39.330801454506      68.122946404911     106.818770080000
      3865   14       35.397721309055      71.529093725156     106.818770080000
      3866   13       36.380991339957      73.232167381184     106.818770080000
      3867   14       38.347531412682      73.232167381184     106.818770080000
      3868   13       39.330801454506      71.529093725156     106.818770080000
      3869   14       41.297341527231      37.467620522701     106.818770080000
      3870   13       42.280611558133      39.170694178728     106.818770080000
      3871   14       44.247151630858      39.170694178728     106.818770080000
      3872   13       45.230421672682      37.467620522701     106.818770080000
      3873   14       41.297341527231      40.873767842947     106.818770080000
      3874   13       42.280611558133      42.576841498974     106.818770080000
      3875   14       44.247151630858      42.576841498974     106.818770080000
      3876   13       45.230421672682      40.873767842947     106.818770080000
      3877   14       41.297341527231      44.279915163192     106.818770080000
      3878   13       42.280611558133      45.982988819219     106.818770080000
      3879   14       44.247151630858      45.982988819219     106.818770080000
      3880   13       45.230421672682      44.279915163192     106.818770080000
      3881   14       41.297341527231      47.686062483438     106.818770080000
      3882   13       42.280611558133      49.389136139465     106.818770080000
      3883   14       44.247151630858      49.389136139465     106.818770080000
      3884   13       45.230421672682      47.686062483438     106.818770080000
      3885   14       41.297341527231      51.092209803683     106.818770080000
      3886   13       42.280611558133      52.795283459711     106.818770080000
      3887   14       44.247151630858      52.795283459711     106.818770080000
      3888   13       45.230421672682      51.092209803683     106.818770080000
      3889   14       41.297341527231      54.498357123929     106.818770080000
      3890   13       42.280611558133      56.201430779956     106.818770080000
      3891   14       44.247151630858      56.201430779956     106.818770080000
      3892   13       45.230421672682      54.498357123929     106.818770080000
      3893   14       41.297341527231      57.904504444174     106.818770080000
      3894   13       42.280611558133      59.607578100202     106.818770080000
      3895   14       44.247151630858      59.607578100202     106.818770080000
      3896   13       45.230421672682      57.904504444174     106.818770080000
      3897   14       41.297341527231      61.310651764420     106.818770080000
      3898   13       42.280611558133      63.013725420447     106.818770080000
      3899   14       44.247151630858      63.013725420447     106.818770080000
      3900   13       45.230421672682      61.310651764420     106.818770080000
      3901   14       41.297341527231      64.716799084665     106.818770080000
      3902   13       42.280611558133      66.419872740693     106.818770080000
      3903   14       44.247151630858      66.419872740693     106.818770080000
      3904   13       45.230421672682      64.716799084665     106.818770080000
      3905   14       41.297341527231      68.122946404911     106.818770080000
      3906   13       42.280611558133      69.826020060938     106.818770080000
      3907   14       44.247151630858      69.826020060938     106.818770080000
      3908   13       45.230421672682      68.122946404911     106.818770080000
      3909   14       41.297341527231      71.529093725156     106.818770080000
      3910   13       42.280611558133      73.232167381184     106.818770080000
      3911   14       44.247151630858      73.232167381184     106.818770080000
      3912   13       45.230421672682      71.529093725156     106.818770080000
      3913   14       47.196961745407      37.467620522701     106.818770080000
      3914   13       48.180231776309      39.170694178728     106.818770080000
      3915   14       50.146771849034      39.170694178728     106.818770080000
      3916   13       51.130041890858      37.467620522701     106.818770080000
      3917   14       47.196961745407      40.873767842947     106.818770080000
      3918   13       48.180231776309      42.576841498974     106.818770080000
      3919   14       50.146771849034      42.576841498974     106.818770080000
      3920   13       51.130041890858      40.873767842947     106.818770080000
      3921   14       47.196961745407      44.279915163192     106.818770080000
      3922   13       48.180231776309      45.982988819219     106.818770080000
      3923   14       50.146771849034      45.982988819219     106.818770080000
      3924   13       51.130041890858      44.279915163192     106.818770080000
      3925   14       47.196961745407      47.686062483438     106.818770080000
      3926   13       48.180231776309      49.389136139465     106.818770080000
      3927   14       50.146771849034      49.389136139465     106.818770080000
      3928   13       51.130041890858      47.686062483438     106.818770080000
      3929   14       47.196961745407      51.092209803683     106.818770080000
      3930   13       48.180231776309      52.795283459711     106.818770080000
      3931   14       50.146771849034      52.795283459711     106.818770080000
      3932   13       51.130041890858      51.092209803683     106.818770080000
      3933   14       47.196961745407      54.498357123929     106.818770080000
      3934   13       48.180231776309      56.201430779956     106.818770080000
      3935   14       50.146771849034      56.201430779956     106.818770080000
      3936   13       51.130041890858      54.498357123929     106.818770080000
      3937   14       47.196961745407      57.904504444174     106.818770080000
      3938   13       48.180231776309      59.607578100202     106.818770080000
      3939   14       50.146771849034      59.607578100202     106.818770080000
      3940   13       51.130041890858      57.904504444174     106.818770080000
      3941   14       47.196961745407      61.310651764420     106.818770080000
      3942   13       48.180231776309      63.013725420447     106.818770080000
      3943   14       50.146771849034      63.013725420447     106.818770080000
      3944   13       51.130041890858      61.310651764420     106.818770080000
      3945   14       47.196961745407      64.716799084665     106.818770080000
      3946   13       48.180231776309      66.419872740693     106.818770080000
      3947   14       50.146771849034      66.419872740693     106.818770080000
      3948   13       51.130041890858      64.716799084665     106.818770080000
      3949   14       47.196961745407      68.122946404911     106.818770080000
      3950   13       48.180231776309      69.826020060938     106.818770080000
      3951   14       50.146771849034      69.826020060938     106.818770080000
      3952   13       51.130041890858      68.122946404911     106.818770080000
      3953   14       47.196961745407      71.529093725156     106.818770080000
      3954   13       48.180231776309      73.232167381184     106.818770080000
      3955   14       50.146771849034      73.232167381184     106.818770080000
      3956   13       51.130041890858      71.529093725156     106.818770080000
      3957   14       53.096581963583      37.467620522701     106.818770080000
      3958   13       54.079851994484      39.170694178728     106.818770080000
      3959   14       56.046392067210      39.170694178728     106.818770080000
      3960   13       57.029662109033      37.467620522701     106.818770080000
      3961   14       53.096581963583      40.873767842947     106.818770080000
      3962   13       54.079851994484      42.576841498974     106.818770080000
      3963   14       56.046392067210      42.576841498974     106.818770080000
      3964   13       57.029662109033      40.873767842947     106.818770080000
      3965   14       53.096581963583      44.279915163192     106.818770080000
      3966   13       54.079851994484      45.982988819219     106.818770080000
      3967   14       56.046392067210      45.982988819219     106.818770080000
      3968   13       57.029662109033      44.279915163192     106.818770080000
      3969   14       53.096581963583      47.686062483438     106.818770080000
      3970   13       54.079851994484      49.389136139465     106.818770080000
      3971   14       56.046392067210      49.389136139465     106.818770080000
      3972   13       57.029662109033      47.686062483438     106.818770080000
      3973   14       53.096581963583      51.092209803683     106.818770080000
      3974   13       54.079851994484      52.795283459711     106.818770080000
      3975   14       56.046392067210      52.795283459711     106.818770080000
      3976   13       57.029662109033      51.092209803683     106.818770080000
      3977   14       53.096581963583      54.498357123929     106.818770080000
      3978   13       54.079851994484      56.201430779956     106.818770080000
      3979   14       56.046392067210      56.201430779956     106.818770080000
      3980   13       57.029662109033      54.498357123929     106.818770080000
      3981   14       53.096581963583      57.904504444174     106.818770080000
      3982   13       54.079851994484      59.607578100202     106.818770080000
      3983   14       56.046392067210      59.607578100202     106.818770080000
      3984   13       57.029662109033      57.904504444174     106.818770080000
      3985   14       53.096581963583      61.310651764420     106.818770080000
      3986   13       54.079851994484      63.013725420447     106.818770080000
      3987   14       56.046392067210      63.013725420447     106.818770080000
      3988   13       57.029662109033      61.310651764420     106.818770080000
      3989   14       53.096581963583      64.716799084665     106.818770080000
      3990   13       54.079851994484      66.419872740693     106.818770080000
      3991   14       56.046392067210      66.419872740693     106.818770080000
      3992   13       57.029662109033      64.716799084665     106.818770080000
      3993   14       53.096581963583      68.122946404911     106.818770080000
      3994   13       54.079851994484      69.826020060938     106.818770080000
      3995   14       56.046392067210      69.826020060938     106.818770080000
      3996   13       57.029662109033      68.122946404911     106.818770080000
      3997   14       53.096581963583      71.529093725156     106.818770080000
      3998   13       54.079851994484      73.232167381184     106.818770080000
      3999   14       56.046392067210      73.232167381184     106.818770080000
      4000   13       57.029662109033      71.529093725156     106.818770080000
      4001   14       58.996202181758      37.467620522701     106.818770080000
      4002   13       59.979472212660      39.170694178728     106.818770080000
      4003   14       61.946012285386      39.170694178728     106.818770080000
      4004   13       62.929282327209      37.467620522701     106.818770080000
      4005   14       58.996202181758      40.873767842947     106.818770080000
      4006   13       59.979472212660      42.576841498974     106.818770080000
      4007   14       61.946012285386      42.576841498974     106.818770080000
      4008   13       62.929282327209      40.873767842947     106.818770080000
      4009   14       58.996202181758      44.279915163192     106.818770080000
      4010   13       59.979472212660      45.982988819219     106.818770080000
      4011   14       61.946012285386      45.982988819219     106.818770080000
      4012   13       62.929282327209      44.279915163192     106.818770080000
      4013   14       58.996202181758      47.686062483438     106.818770080000
      4014   13       59.979472212660      49.389136139465     106.818770080000
      4015   14       61.946012285386      49.389136139465     106.818770080000
      4016   13       62.929282327209      47.686062483438     106.818770080000
      4017   14       58.996202181758      51.092209803683     106.818770080000
      4018   13       59.979472212660      52.795283459711     106.818770080000
      4019   14       61.946012285386      52.795283459711     106.818770080000
      4020   13       62.929282327209      51.092209803683     106.818770080000
      4021   14       58.996202181758      54.498357123929     106.818770080000
      4022   13       59.979472212660      56.201430779956     106.818770080000
      4023   14       61.946012285386      56.201430779956     106.818770080000
      4024   13       62.929282327209      54.498357123929     106.818770080000
      4025   14       58.996202181758      57.904504444174     106.818770080000
      4026   13       59.979472212660      59.607578100202     106.818770080000
      4027   14       61.946012285386      59.607578100202     106.818770080000
      4028   13       62.929282327209      57.904504444174     106.818770080000
      4029   14       58.996202181758      61.310651764420     106.818770080000
      4030   13       59.979472212660      63.013725420447     106.818770080000
      4031   14       61.946012285386      63.013725420447     106.818770080000
      4032   13       62.929282327209      61.310651764420     106.818770080000
      4033   14       58.996202181758      64.716799084665     106.818770080000
      4034   13       59.979472212660      66.419872740693     106.818770080000
      4035   14       61.946012285386      66.419872740693     106.818770080000
      4036   13       62.929282327209      64.716799084665     106.818770080000
      4037   14       58.996202181758      68.122946404911     106.818770080000
      4038   13       59.979472212660      69.826020060938     106.818770080000
      4039   14       61.946012285386      69.826020060938     106.818770080000
      4040   13       62.929282327209      68.122946404911     106.818770080000
      4041   14       58.996202181758      71.529093725156     106.818770080000
      4042   13       59.979472212660      73.232167381184     106.818770080000
      4043   14       61.946012285386      73.232167381184     106.818770080000
      4044   13       62.929282327209      71.529093725156     106.818770080000
      4045    3       64.895822399934      37.467620522701     100.000000000000
      4046    1       64.895822399934      37.467620522701     103.118770080000
      4047    9       64.895822399934      40.589922235429     100.000000000000
      4048    7       64.895822399934      40.589922235429     103.118770080000
      4049    2       65.797153261594      39.028771374059     101.559385040000
      4050    8       65.797153261594      42.151073086787     101.559385040000
      4051    6       67.599814994926      39.028771374059     100.000000000000
      4052    4       67.599814994926      39.028771374059     103.118770080000
      4053   12       67.599814994926      42.151073086787     100.000000000000
      4054   10       67.599814994926      42.151073086787     103.118770080000
      4055    5       68.501145866597      37.467620522701     101.559385040000
      4056   11       68.501145866597      40.589922235429     101.559385040000
      4057    3       64.895822399934      43.712223943151     100.000000000000
      4058    1       64.895822399934      43.712223943151     103.118770080000
      4059    9       64.895822399934      46.834525655879     100.000000000000
      4060    7       64.895822399934      46.834525655879     103.118770080000
      4061    2       65.797153261594      45.273374794509     101.559385040000
      4062    8       65.797153261594      48.395676507237     101.559385040000
      4063    6       67.599814994926      45.273374794509     100.000000000000
      4064    4       67.599814994926      45.273374794509     103.118770080000
      4065   12       67.599814994926      48.395676507237     100.000000000000
      4066   10       67.599814994926      48.395676507237     103.118770080000
      4067    5       68.501145866597      43.712223943151     101.559385040000
      4068   11       68.501145866597      46.834525655879     101.559385040000
      4069    3       64.895822399934      49.956827363601     100.000000000000
      4070    1       64.895822399934      49.956827363601     103.118770080000
      4071    9       64.895822399934      53.079129076329     100.000000000000
      4072    7       64.895822399934      53.079129076329     103.118770080000
      4073    2       65.797153261594      51.517978214960     101.559385040000
      4074    8       65.797153261594      54.640279927688     101.559385040000
      4075    6       67.599814994926      51.517978214960     100.000000000000
      4076    4       67.599814994926      51.517978214960     103.118770080000
      4077   12       67.599814994926      54.640279927688     100.000000000000
      4078   10       67.599814994926      54.640279927688     103.118770080000
      4079    5       68.501145866597      49.956827363601     101.559385040000
      4080   11       68.501145866597      53.079129076329     101.559385040000
      4081    3       64.895822399934      56.201430784051     100.000000000000
      4082    1       64.895822399934      56.201430784051     103.118770080000
      4083    9       64.895822399934      59.323732496779     100.000000000000
      4084    7       64.895822399934      59.323732496779     103.118770080000
      4085    2       65.797153261594      57.762581635410     101.559385040000
      4086    8       65.797153261594      60.884883348138     101.559385040000
      4087    6       67.599814994926      57.762581635410     100.000000000000
      4088    4       67.599814994926      57.762581635410     103.118770080000
      4089   12       67.599814994926      60.884883348138     100.000000000000
      4090   10       67.599814994926      60.884883348138     103.118770080000
      4091    5       68.501145866597      56.201430784051     101.559385040000
      4092   11       68.501145866597      59.323732496779     101.559385040000
      4093    3       64.895822399934      62.446034204502     100.000000000000
      4094    1       64.895822399934      62.446034204502     103.118770080000
      4095    9       64.895822399934      65.568335917230     100.000000000000
      4096    7       64.895822399934      65.568335917230     103.118770080000
      4097    2       65.797153261594      64.007185055860     101.559385040000
      4098    8       65.797153261594      67.129486768588     101.559385040000
      4099    6       67.599814994926      64.007185055860     100.000000000000
      4100    4       67.599814994926      64.007185055860     103.118770080000
      4101   12       67.599814994926      67.129486768588     100.000000000000
      4102   10       67.599814994926      67.129486768588     103.118770080000
      4103    5       68.501145866597      62.446034204502     101.559385040000
      4104   11       68.501145866597      65.568335917230     101.559385040000
      4105    3       64.895822399934      68.690637624952     100.000000000000
      4106    1       64.895822399934      68.690637624952     103.118770080000
      4107    9       64.895822399934      71.812939337680     100.000000000000
      4108    7       64.895822399934      71.812939337680     103.118770080000
      4109    2       65.797153261594      70.251788476310     101.559385040000
      4110    8       65.797153261594      73.374090189038     101.559385040000
      4111    6       67.599814994926      70.251788476310     100.000000000000
      4112    4       67.599814994926      70.251788476310     103.118770080000
      4113   12       67.599814994926      73.374090189038     100.000000000000
      4114   10       67.599814994926      73.374090189038     103.118770080000
      4115    5       68.501145866597      68.690637624952     101.559385040000
      4116   11       68.501145866597      71.812939337680     101.559385040000
      4117    3       70.303807599929      37.467620522701     100.000000000000
      4118    1       70.303807599929      37.467620522701     103.118770080000
      4119    9       70.303807599929      40.589922235429     100.000000000000
      4120    7       70.303807599929      40.589922235429     103.118770080000
      4121    2       71.205138461589      39.028771374059     101.559385040000
      4122    8       71.205138461589      42.151073086787     101.559385040000
      4123    6       73.007800194920      39.028771374059     100.000000000000
      4124    4       73.007800194920      39.028771374059     103.118770080000
      4125   12       73.007800194920      42.151073086787     100.000000000000
      4126   10       73.007800194920      42.151073086787     103.118770080000
      4127    5       73.909131066592      37.467620522701     101.559385040000
      4128   11       73.909131066592      40.589922235429     101.559385040000
      4129    3       70.303807599929      43.712223943151     100.000000000000
      4130    1       70.303807599929      43.712223943151     103.118770080000
      4131    9       70.303807599929      46.834525655879     100.000000000000
      4132    7       70.303807599929      46.834525655879     103.118770080000
      4133    2       71.205138461589      45.273374794509     101.559385040000
      4134    8       71.205138461589      48.395676507237     101.559385040000
      4135    6       73.007800194920      45.273374794509     100.000000000000
      4136    4       73.007800194920      45.273374794509     103.118770080000
      4137   12       73.007800194920      48.395676507237     100.000000000000
      4138   10       73.007800194920      48.395676507237     103.118770080000
      4139    5       73.909131066592      43.712223943151     101.559385040000
      4140   11       73.909131066592      46.834525655879     101.559385040000
      4141    3       70.303807599929      49.956827363601     100.000000000000
      4142    1       70.303807599929      49.956827363601     103.118770080000
      4143    9       70.303807599929      53.079129076329     100.000000000000
      4144    7       70.303807599929      53.079129076329     103.118770080000
      4145    2       71.205138461589      51.517978214960     101.559385040000
      4146    8       71.205138461589      54.640279927688     101.559385040000
      4147    6       73.007800194920      51.517978214960     100.000000000000
      4148    4       73.007800194920      51.517978214960     103.118770080000
      4149   12       73.007800194920      54.640279927688     100.000000000000
      4150   10       73.007800194920      54.640279927688     103.118770080000
      4151    5       73.909131066592      49.956827363601     101.559385040000
      4152   11       73.909131066592      53.079129076329     101.559385040000
      4153    3       70.303807599929      56.201430784051     100.000000000000
      4154    1       70.303807599929      56.201430784051     103.118770080000
      4155    9       70.303807599929      59.323732496779     100.000000000000
      4156    7       70.303807599929      59.323732496779     103.118770080000
      4157    2       71.205138461589      57.762581635410     101.559385040000
      4158    8       71.205138461589      60.884883348138     101.559385040000
      4159    6       73.007800194920      57.762581635410     100.000000000000
      4160    4       73.007800194920      57.762581635410     103.118770080000
      4161   12       73.007800194920      60.884883348138     100.000000000000
      4162   10       73.007800194920      60.884883348138     103.118770080000
      4163    5       73.909131066592      56.201430784051     101.559385040000
      4164   11       73.909131066592      59.323732496779     101.559385040000
      4165    3       70.303807599929      62.446034204502     100.000000000000
      4166    1       70.303807599929      62.446034204502     103.118770080000
      4167    9       70.303807599929      65.568335917230     100.000000000000
      4168    7       70.303807599929      65.568335917230     103.118770080000
      4169    2       71.205138461589      64.007185055860     101.559385040000
      4170    8       71.205138461589      67.129486768588     101.559385040000
      4171    6       73.007800194920      64.007185055860     100.000000000000
      4172    4       73.007800194920      64.007185055860     103.118770080000
      4173   12       73.007800194920      67.129486768588     100.000000000000
      4174   10       73.007800194920      67.129486768588     103.118770080000
      4175    5       73.909131066592      62.446034204502     101.559385040000
      4176   11       73.909131066592      65.568335917230     101.559385040000
      4177    3       70.303807599929      68.690637624952     100.000000000000
      4178    1       70.303807599929      68.690637624952     103.118770080000
      4179    9       70.303807599929      71.812939337680     100.000000000000
      4180    7       70.303807599929      71.812939337680     103.118770080000
      4181    2       71.205138461589      70.251788476310     101.559385040000
      4182    8       71.205138461589      73.374090189038     101.559385040000
      4183    6       73.007800194920      70.251788476310     100.000000000000
      4184    4       73.007800194920      70.251788476310     103.118770080000
      4185   12       73.007800194920      73.374090189038     100.000000000000
      4186   10       73.007800194920      73.374090189038     103.118770080000
      4187    5       73.909131066592      68.690637624952     101.559385040000
      4188   11       73.909131066592      71.812939337680     101.559385040000
      4189    3       75.711792799923      37.467620522701     100.000000000000
      4190    1       75.711792799923      37.467620522701     103.118770080000
      4191    9       75.711792799923      40.589922235429     100.000000000000
      4192    7       75.711792799923      40.589922235429     103.118770080000
      4193    2       76.613123661583      39.028771374059     101.559385040000
      4194    8       76.613123661583      42.151073086787     101.559385040000
      4195    6       78.415785394915      39.028771374059     100.000000000000
      4196    4       78.415785394915      39.028771374059     103.118770080000
      4197   12       78.415785394915      42.151073086787     100.000000000000
      4198   10       78.415785394915      42.151073086787     103.118770080000
      4199    5       79.317116266586      37.467620522701     101.559385040000
      4200   11       79.317116266586      40.589922235429     101.559385040000
      4201    3       75.711792799923      43.712223943151     100.000000000000
      4202    1       75.711792799923      43.712223943151     103.118770080000
      4203    9       75.711792799923      46.834525655879     100.000000000000
      4204    7       75.711792799923      46.834525655879     103.118770080000
      4205    2       76.613123661583      45.273374794509     101.559385040000
      4206    8       76.613123661583      48.395676507237     101.559385040000
      4207    6       78.415785394915      45.273374794509     100.000000000000
      4208    4       78.415785394915      45.273374794509     103.118770080000
      4209   12       78.415785394915      48.395676507237     100.000000000000
      4210   10       78.415785394915      48.395676507237     103.118770080000
      4211    5       79.317116266586      43.712223943151     101.559385040000
      4212   11       79.317116266586      46.834525655879     101.559385040000
      4213    3       75.711792799923      49.956827363601     100.000000000000
      4214    1       75.711792799923      49.956827363601     103.118770080000
      4215    9       75.711792799923      53.079129076329     100.000000000000
      4216    7       75.711792799923      53.079129076329     103.118770080000
      4217    2       76.613123661583      51.517978214960     101.559385040000
      4218    8       76.613123661583      54.640279927688     101.559385040000
      4219    6       78.415785394915      51.517978214960     100.000000000000
      4220    4       78.415785394915      51.517978214960     103.118770080000
      4221   12       78.415785394915      54.640279927688     100.000000000000
      4222   10       78.415785394915      54.640279927688     103.118770080000
      4223    5       79.317116266586      49.956827363601     101.559385040000
      4224   11       79.317116266586      53.079129076329     101.559385040000
      4225    3       75.711792799923      56.201430784051     100.000000000000
      4226    1       75.711792799923      56.201430784051     103.118770080000
      4227    9       75.711792799923      59.323732496779     100.000000000000
      4228    7       75.711792799923      59.323732496779     103.118770080000
      4229    2       76.613123661583      57.762581635410     101.559385040000
      4230    8       76.613123661583      60.884883348138     101.559385040000
      4231    6       78.415785394915      57.762581635410     100.000000000000
      4232    4       78.415785394915      57.762581635410     103.118770080000
      4233   12       78.415785394915      60.884883348138     100.000000000000
      4234   10       78.415785394915      60.884883348138     103.118770080000
      4235    5       79.317116266586      56.201430784051     101.559385040000
      4236   11       79.317116266586      59.323732496779     101.559385040000
      4237    3       75.711792799923      62.446034204502     100.000000000000
      4238    1       75.711792799923      62.446034204502     103.118770080000
      4239    9       75.711792799923      65.568335917230     100.000000000000
      4240    7       75.711792799923      65.568335917230     103.118770080000
      4241    2       76.613123661583      64.007185055860     101.559385040000
      4242    8       76.613123661583      67.129486768588     101.559385040000
      4243    6       78.415785394915      64.007185055860     100.000000000000
      4244    4       78.415785394915      64.007185055860     103.118770080000
      4245   12       78.415785394915      67.129486768588     100.000000000000
      4246   10       78.415785394915      67.129486768588     103.118770080000
      4247    5       79.317116266586      62.446034204502     101.559385040000
      4248   11       79.317116266586      65.568335917230     101.559385040000
      4249    3       75.711792799923      68.690637624952     100.000000000000
      4250    1       75.711792799923      68.690637624952     103.118770080000
      4251    9       75.711792799923      71.812939337680     100.000000000000
      4252    7       75.711792799923      71.812939337680     103.118770080000
      4253    2       76.613123661583      70.251788476310     101.559385040000
      4254    8       76.613123661583      73.374090189038     101.559385040000
      4255    6       78.415785394915      70.251788476310     100.000000000000
      4256    4       78.415785394915      70.251788476310     103.118770080000
      4257   12       78.415785394915      73.374090189038     100.000000000000
      4258   10       78.415785394915      73.374090189038     103.118770080000
      4259    5       79.317116266586      68.690637624952     101.559385040000
      4260   11       79.317116266586      71.812939337680     101.559385040000
      4261    3       81.119777999918      37.467620522701     100.000000000000
      4262    1       81.119777999918      37.467620522701     103.118770080000
      4263    9       81.119777999918      40.589922235429     100.000000000000
      4264    7       81.119777999918      40.589922235429     103.118770080000
      4265    2       82.021108861578      39.028771374059     101.559385040000
      4266    8       82.021108861578      42.151073086787     101.559385040000
      4267    6       83.823770594909      39.028771374059     100.000000000000
      4268    4       83.823770594909      39.028771374059     103.118770080000
      4269   12       83.823770594909      42.151073086787     100.000000000000
      4270   10       83.823770594909      42.151073086787     103.118770080000
      4271    5       84.725101466581      37.467620522701     101.559385040000
      4272   11       84.725101466581      40.589922235429     101.559385040000
      4273    3       81.119777999918      43.712223943151     100.000000000000
      4274    1       81.119777999918      43.712223943151     103.118770080000
      4275    9       81.119777999918      46.834525655879     100.000000000000
      4276    7       81.119777999918      46.834525655879     103.118770080000
      4277    2       82.021108861578      45.273374794509     101.559385040000
      4278    8       82.021108861578      48.395676507237     101.559385040000
      4279    6       83.823770594909      45.273374794509     100.000000000000
      4280    4       83.823770594909      45.273374794509     103.118770080000
      4281   12       83.823770594909      48.395676507237     100.000000000000
      4282   10       83.823770594909      48.395676507237     103.118770080000
      4283    5       84.725101466581      43.712223943151     101.559385040000
      4284   11       84.725101466581      46.834525655879     101.559385040000
      4285    3       81.119777999918      49.956827363601     100.000000000000
      4286    1       81.119777999918      49.956827363601     103.118770080000
      4287    9       81.119777999918      53.079129076329     100.000000000000
      4288    7       81.119777999918      53.079129076329     103.118770080000
      4289    2       82.021108861578      51.517978214960     101.559385040000
      4290    8       82.021108861578      54.640279927688     101.559385040000
      4291    6       83.823770594909      51.517978214960     100.000000000000
      4292    4       83.823770594909      51.517978214960     103.118770080000
      4293   12       83.823770594909      54.640279927688     100.000000000000
      4294   10       83.823770594909      54.640279927688     103.118770080000
      4295    5       84.725101466581      49.956827363601     101.559385040000
      4296   11       84.725101466581      53.079129076329     101.559385040000
      4297    3       81.119777999918      56.201430784051     100.000000000000
      4298    1       81.119777999918      56.201430784051     103.118770080000
      4299    9       81.119777999918      59.323732496779     100.000000000000
      4300    7       81.119777999918      59.323732496779     103.118770080000
      4301    2       82.021108861578      57.762581635410     101.559385040000
      4302    8       82.021108861578      60.884883348138     101.559385040000
      4303    6       83.823770594909      57.762581635410     100.000000000000
      4304    4       83.823770594909      57.762581635410     103.118770080000
      4305   12       83.823770594909      60.884883348138     100.000000000000
      4306   10       83.823770594909      60.884883348138     103.118770080000
      4307    5       84.725101466581      56.201430784051     101.559385040000
      4308   11       84.725101466581      59.323732496779     101.559385040000
      4309    3       81.119777999918      62.446034204502     100.000000000000
      4310    1       81.119777999918      62.446034204502     103.118770080000
      4311    9       81.119777999918      65.568335917230     100.000000000000
      4312    7       81.119777999918      65.568335917230     103.118770080000
      4313    2       82.021108861578      64.007185055860     101.559385040000
      4314    8       82.021108861578      67.129486768588     101.559385040000
      4315    6       83.823770594909      64.007185055860     100.000000000000
      4316    4       83.823770594909      64.007185055860     103.118770080000
      4317   12       83.823770594909      67.129486768588     100.000000000000
      4318   10       83.823770594909      67.129486768588     103.118770080000
      4319    5       84.725101466581      62.446034204502     101.559385040000
      4320   11       84.725101466581      65.568335917230     101.559385040000
      4321    3       81.119777999918      68.690637624952     100.000000000000
      4322    1       81.119777999918      68.690637624952     103.118770080000
      4323    9       81.119777999918      71.812939337680     100.000000000000
      4324    7       81.119777999918      71.812939337680     103.118770080000
      4325    2       82.021108861578      70.251788476310     101.559385040000
      4326    8       82.021108861578      73.374090189038     101.559385040000
      4327    6       83.823770594909      70.251788476310     100.000000000000
      4328    4       83.823770594909      70.251788476310     103.118770080000
      4329   12       83.823770594909      73.374090189038     100.000000000000
      4330   10       83.823770594909      73.374090189038     103.118770080000
      4331    5       84.725101466581      68.690637624952     101.559385040000
      4332   11       84.725101466581      71.812939337680     101.559385040000
      4333    3       86.527763199912      37.467620522701     100.000000000000
      4334    1       86.527763199912      37.467620522701     103.118770080000
      4335    9       86.527763199912      40.589922235429     100.000000000000
      4336    7       86.527763199912      40.589922235429     103.118770080000
      4337    2       87.429094061572      39.028771374059     101.559385040000
      4338    8       87.429094061572      42.151073086787     101.559385040000
      4339    6       89.231755794904      39.028771374059     100.000000000000
      4340    4       89.231755794904      39.028771374059     103.118770080000
      4341   12       89.231755794904      42.151073086787     100.000000000000
      4342   10       89.231755794904      42.151073086787     103.118770080000
      4343    5       90.133086666575      37.467620522701     101.559385040000
      4344   11       90.133086666575      40.589922235429     101.559385040000
      4345    3       86.527763199912      43.712223943151     100.000000000000
      4346    1       86.527763199912      43.712223943151     103.118770080000
      4347    9       86.527763199912      46.834525655879     100.000000000000
      4348    7       86.527763199912      46.834525655879     103.118770080000
      4349    2       87.429094061572      45.273374794509     101.559385040000
      4350    8       87.429094061572      48.395676507237     101.559385040000
      4351    6       89.231755794904      45.273374794509     100.000000000000
      4352    4       89.231755794904      45.273374794509     103.118770080000
      4353   12       89.231755794904      48.395676507237     100.000000000000
      4354   10       89.231755794904      48.395676507237     103.118770080000
      4355    5       90.133086666575      43.712223943151     101.559385040000
      4356   11       90.133086666575      46.834525655879     101.559385040000
      4357    3       86.527763199912      49.956827363601     100.000000000000
      4358    1       86.527763199912      49.956827363601     103.118770080000
      4359    9       86.527763199912      53.079129076329     100.000000000000
      4360    7       86.527763199912      53.079129076329     103.118770080000
      4361    2       87.429094061572      51.517978214960     101.559385040000
      4362    8       87.429094061572      54.640279927688     101.559385040000
      4363    6       89.231755794904      51.517978214960     100.000000000000
      4364    4       89.231755794904      51.517978214960     103.118770080000
      4365   12       89.231755794904      54.640279927688     100.000000000000
      4366   10       89.231755794904      54.640279927688     103.118770080000
      4367    5       90.133086666575      49.956827363601     101.559385040000
      4368   11       90.133086666575      53.079129076329     101.559385040000
      4369    3       86.527763199912      56.201430784051     100.000000000000
      4370    1       86.527763199912      56.201430784051     103.118770080000
      4371    9       86.527763199912      59.323732496779     100.000000000000
      4372    7       86.527763199912      59.323732496779     103.118770080000
      4373    2       87.429094061572      57.762581635410     101.559385040000
      4374    8       87.429094061572      60.884883348138     101.559385040000
      4375    6       89.231755794904      57.762581635410     100.000000000000
      4376    4       89.231755794904      57.762581635410     103.118770080000
      4377   12       89.231755794904      60.884883348138     100.000000000000
      4378   10       89.231755794904      60.884883348138     103.118770080000
      4379    5       90.133086666575      56.201430784051     101.559385040000
      4380   11       90.133086666575      59.323732496779     101.559385040000
      4381    3       86.527763199912      62.446034204502     100.000000000000
      4382    1       86.527763199912      62.446034204502     103.118770080000
      4383    9       86.527763199912      65.568335917230     100.000000000000
      4384    7       86.527763199912      65.568335917230     103.118770080000
      4385    2       87.429094061572      64.007185055860     101.559385040000
      4386    8       87.429094061572      67.129486768588     101.559385040000
      4387    6       89.231755794904      64.007185055860     100.000000000000
      4388    4       89.231755794904      64.007185055860     103.118770080000
      4389   12       89.231755794904      67.129486768588     100.000000000000
      4390   10       89.231755794904      67.129486768588     103.118770080000
      4391    5       90.133086666575      62.446034204502     101.559385040000
      4392   11       90.133086666575      65.568335917230     101.559385040000
      4393    3       86.527763199912      68.690637624952     100.000000000000
      4394    1       86.527763199912      68.690637624952     103.118770080000
      4395    9       86.527763199912      71.812939337680     100.000000000000
      4396    7       86.527763199912      71.812939337680     103.118770080000
      4397    2       87.429094061572      70.251788476310     101.559385040000
      4398    8       87.429094061572      73.374090189038     101.559385040000
      4399    6       89.231755794904      70.251788476310     100.000000000000
      4400    4       89.231755794904      70.251788476310     103.118770080000
      4401   12       89.231755794904      73.374090189038     100.000000000000
      4402   10       89.231755794904      73.374090189038     103.118770080000
      4403    5       90.133086666575      68.690637624952     101.559385040000
      4404   11       90.133086666575      71.812939337680     101.559385040000
      4405    3       91.935748399907      37.467620522701     100.000000000000
      4406    1       91.935748399907      37.467620522701     103.118770080000
      4407    9       91.935748399907      40.589922235429     100.000000000000
      4408    7       91.935748399907      40.589922235429     103.118770080000
      4409    2       92.837079261567      39.028771374059     101.559385040000
      4410    8       92.837079261567      42.151073086787     101.559385040000
      4411    6       94.639740994898      39.028771374059     100.000000000000
      4412    4       94.639740994898      39.028771374059     103.118770080000
      4413   12       94.639740994898      42.151073086787     100.000000000000
      4414   10       94.639740994898      42.151073086787     103.118770080000
      4415    5       95.541071866570      37.467620522701     101.559385040000
      4416   11       95.541071866570      40.589922235429     101.559385040000
      4417    3       91.935748399907      43.712223943151     100.000000000000
      4418    1       91.935748399907      43.712223943151     103.118770080000
      4419    9       91.935748399907      46.834525655879     100.000000000000
      4420    7       91.935748399907      46.834525655879     103.118770080000
      4421    2       92.837079261567      45.273374794509     101.559385040000
      4422    8       92.837079261567      48.395676507237     101.559385040000
      4423    6       94.639740994898      45.273374794509     100.000000000000
      4424    4       94.639740994898      45.273374794509     103.118770080000
      4425   12       94.639740994898      48.395676507237     100.000000000000
      4426   10       94.639740994898      48.395676507237     103.118770080000
      4427    5       95.541071866570      43.712223943151     101.559385040000
      4428   11       95.541071866570      46.834525655879     101.559385040000
      4429    3       91.935748399907      49.956827363601     100.000000000000
      4430    1       91.935748399907      49.956827363601     103.118770080000
      4431    9       91.935748399907      53.079129076329     100.000000000000
      4432    7       91.935748399907      53.079129076329     103.118770080000
      4433    2       92.837079261567      51.517978214960     101.559385040000
      4434    8       92.837079261567      54.640279927688     101.559385040000
      4435    6       94.639740994898      51.517978214960     100.000000000000
      4436    4       94.639740994898      51.517978214960     103.118770080000
      4437   12       94.639740994898      54.640279927688     100.000000000000
      4438   10       94.639740994898      54.640279927688     103.118770080000
      4439    5       95.541071866570      49.956827363601     101.559385040000
      4440   11       95.541071866570      53.079129076329     101.559385040000
      4441    3       91.935748399907      56.201430784051     100.000000000000
      4442    1       91.935748399907      56.201430784051     103.118770080000
      4443    9       91.935748399907      59.323732496779     100.000000000000
      4444    7       91.935748399907      59.323732496779     103.118770080000
      4445    2       92.837079261567      57.762581635410     101.559385040000
      4446    8       92.837079261567      60.884883348138     101.559385040000
      4447    6       94.639740994898      57.762581635410     100.000000000000
      4448    4       94.639740994898      57.762581635410     103.118770080000
      4449   12       94.639740994898      60.884883348138     100.000000000000
      4450   10       94.639740994898      60.884883348138     103.118770080000
      4451    5       95.541071866570      56.201430784051     101.559385040000
      4452   11       95.541071866570      59.323732496779     101.559385040000
      4453    3       91.935748399907      62.446034204502     100.000000000000
      4454    1       91.935748399907      62.446034204502     103.118770080000
      4455    9       91.935748399907      65.568335917230     100.000000000000
      4456    7       91.935748399907      65.568335917230     103.118770080000
      4457    2       92.837079261567      64.007185055860     101.559385040000
      4458    8       92.837079261567      67.129486768588     101.559385040000
      4459    6       94.639740994898      64.007185055860     100.000000000000
      4460    4       94.639740994898      64.007185055860     103.118770080000
      4461   12       94.639740994898      67.129486768588     100.000000000000
      4462   10       94.639740994898      67.129486768588     103.118770080000
      4463    5       95.541071866570      62.446034204502     101.559385040000
      4464   11       95.541071866570      65.568335917230     101.559385040000
      4465    3       91.935748399907      68.690637624952     100.000000000000
      4466    1       91.935748399907      68.690637624952     103.118770080000
      4467    9       91.935748399907      71.812939337680     100.000000000000
      4468    7       91.935748399907      71.812939337680     103.118770080000
      4469    2       92.837079261567      70.251788476310     101.559385040000
      4470    8       92.837079261567      73.374090189038     101.559385040000
      4471    6       94.639740994898      70.251788476310     100.000000000000
      4472    4       94.639740994898      70.251788476310     103.118770080000
      4473   12       94.639740994898      73.374090189038     100.000000000000
      4474   10       94.639740994898      73.374090189038     103.118770080000
      4475    5       95.541071866570      68.690637624952     101.559385040000
      4476   11       95.541071866570      71.812939337680     101.559385040000
      4477    3       97.343733599901      37.467620522701     100.000000000000
      4478    1       97.343733599901      37.467620522701     103.118770080000
      4479    9       97.343733599901      40.589922235429     100.000000000000
      4480    7       97.343733599901      40.589922235429     103.118770080000
      4481    2       98.245064461561      39.028771374059     101.559385040000
      4482    8       98.245064461561      42.151073086787     101.559385040000
      4483    6      100.047726194893      39.028771374059     100.000000000000
      4484    4      100.047726194893      39.028771374059     103.118770080000
      4485   12      100.047726194893      42.151073086787     100.000000000000
      4486   10      100.047726194893      42.151073086787     103.118770080000
      4487    5      100.949057066564      37.467620522701     101.559385040000
      4488   11      100.949057066564      40.589922235429     101.559385040000
      4489    3       97.343733599901      43.712223943151     100.000000000000
      4490    1       97.343733599901      43.712223943151     103.118770080000
      4491    9       97.343733599901      46.834525655879     100.000000000000
      4492    7       97.343733599901      46.834525655879     103.118770080000
      4493    2       98.245064461561      45.273374794509     101.559385040000
      4494    8       98.245064461561      48.395676507237     101.559385040000
      4495    6      100.047726194893      45.273374794509     100.000000000000
      4496    4      100.047726194893      45.273374794509     103.118770080000
      4497   12      100.047726194893      48.395676507237     100.000000000000
      4498   10      100.047726194893      48.395676507237     103.118770080000
      4499    5      100.949057066564      43.712223943151     101.559385040000
      4500   11      100.949057066564      46.834525655879     101.559385040000
      4501    3       97.343733599901      49.956827363601     100.000000000000
      4502    1       97.343733599901      49.956827363601     103.118770080000
      4503    9       97.343733599901      53.079129076329     100.000000000000
      4504    7       97.343733599901      53.079129076329     103.118770080000
      4505    2       98.245064461561      51.517978214960     101.559385040000
      4506    8       98.245064461561      54.640279927688     101.559385040000
      4507    6      100.047726194893      51.517978214960     100.000000000000
      4508    4      100.047726194893      51.517978214960     103.118770080000
      4509   12      100.047726194893      54.640279927688     100.000000000000
      4510   10      100.047726194893      54.640279927688     103.118770080000
      4511    5      100.949057066564      49.956827363601     101.559385040000
      4512   11      100.949057066564      53.079129076329     101.559385040000
      4513    3       97.343733599901      56.201430784051     100.000000000000
      4514    1       97.343733599901      56.201430784051     103.118770080000
      4515    9       97.343733599901      59.323732496779     100.000000000000
      4516    7       97.343733599901      59.323732496779     103.118770080000
      4517    2       98.245064461561      57.762581635410     101.559385040000
      4518    8       98.245064461561      60.884883348138     101.559385040000
      4519    6      100.047726194893      57.762581635410     100.000000000000
      4520    4      100.047726194893      57.762581635410     103.118770080000
      4521   12      100.047726194893      60.884883348138     100.000000000000
      4522   10      100.047726194893      60.884883348138     103.118770080000
      4523    5      100.949057066564      56.201430784051     101.559385040000
      4524   11      100.949057066564      59.323732496779     101.559385040000
      4525    3       97.343733599901      62.446034204502     100.000000000000
      4526    1       97.343733599901      62.446034204502     103.118770080000
      4527    9       97.343733599901      65.568335917230     100.000000000000
      4528    7       97.343733599901      65.568335917230     103.118770080000
      4529    2       98.245064461561      64.007185055860     101.559385040000
      4530    8       98.245064461561      67.129486768588     101.559385040000
      4531    6      100.047726194893      64.007185055860     100.000000000000
      4532    4      100.047726194893      64.007185055860     103.118770080000
      4533   12      100.047726194893      67.129486768588     100.000000000000
      4534   10      100.047726194893      67.129486768588     103.118770080000
      4535    5      100.949057066564      62.446034204502     101.559385040000
      4536   11      100.949057066564      65.568335917230     101.559385040000
      4537    3       97.343733599901      68.690637624952     100.000000000000
      4538    1       97.343733599901      68.690637624952     103.118770080000
      4539    9       97.343733599901      71.812939337680     100.000000000000
      4540    7       97.343733599901      71.812939337680     103.118770080000
      4541    2       98.245064461561      70.251788476310     101.559385040000
      4542    8       98.245064461561      73.374090189038     101.559385040000
      4543    6      100.047726194893      70.251788476310     100.000000000000
      4544    4      100.047726194893      70.251788476310     103.118770080000
      4545   12      100.047726194893      73.374090189038     100.000000000000
      4546   10      100.047726194893      73.374090189038     103.118770080000
      4547    5      100.949057066564      68.690637624952     101.559385040000
      4548   11      100.949057066564      71.812939337680     101.559385040000
      4549    3      102.751718799896      37.467620522701     100.000000000000
      4550    1      102.751718799896      37.467620522701     103.118770080000
      4551    9      102.751718799896      40.589922235429     100.000000000000
      4552    7      102.751718799896      40.589922235429     103.118770080000
      4553    2      103.653049661556      39.028771374059     101.559385040000
      4554    8      103.653049661556      42.151073086787     101.559385040000
      4555    6      105.455711394887      39.028771374059     100.000000000000
      4556    4      105.455711394887      39.028771374059     103.118770080000
      4557   12      105.455711394887      42.151073086787     100.000000000000
      4558   10      105.455711394887      42.151073086787     103.118770080000
      4559    5      106.357042266559      37.467620522701     101.559385040000
      4560   11      106.357042266559      40.589922235429     101.559385040000
      4561    3      102.751718799896      43.712223943151     100.000000000000
      4562    1      102.751718799896      43.712223943151     103.118770080000
      4563    9      102.751718799896      46.834525655879     100.000000000000
      4564    7      102.751718799896      46.834525655879     103.118770080000
      4565    2      103.653049661556      45.273374794509     101.559385040000
      4566    8      103.653049661556      48.395676507237     101.559385040000
      4567    6      105.455711394887      45.273374794509     100.000000000000
      4568    4      105.455711394887      45.273374794509     103.118770080000
      4569   12      105.455711394887      48.395676507237     100.000000000000
      4570   10      105.455711394887      48.395676507237     103.118770080000
      4571    5      106.357042266559      43.712223943151     101.559385040000
      4572   11      106.357042266559      46.834525655879     101.559385040000
      4573    3      102.751718799896      49.956827363601     100.000000000000
      4574    1      102.751718799896      49.956827363601     103.118770080000
      4575    9      102.751718799896      53.079129076329     100.000000000000
      4576    7      102.751718799896      53.079129076329     103.118770080000
      4577    2      103.653049661556      51.517978214960     101.559385040000
      4578    8      103.653049661556      54.640279927688     101.559385040000
      4579    6      105.455711394887      51.517978214960     100.000000000000
      4580    4      105.455711394887      51.517978214960     103.118770080000
      4581   12      105.455711394887      54.640279927688     100.000000000000
      4582   10      105.455711394887      54.640279927688     103.118770080000
      4583    5      106.357042266559      49.956827363601     101.559385040000
      4584   11      106.357042266559      53.079129076329     101.559385040000
      4585    3      102.751718799896      56.201430784051     100.000000000000
      4586    1      102.751718799896      56.201430784051     103.118770080000
      4587    9      102.751718799896      59.323732496779     100.000000000000
      4588    7      102.751718799896      59.323732496779     103.118770080000
      4589    2      103.653049661556      57.762581635410     101.559385040000
      4590    8      103.653049661556      60.884883348138     101.559385040000
      4591    6      105.455711394887      57.762581635410     100.000000000000
      4592    4      105.455711394887      57.762581635410     103.118770080000
      4593   12      105.455711394887      60.884883348138     100.000000000000
      4594   10      105.455711394887      60.884883348138     103.118770080000
      4595    5      106.357042266559      56.201430784051     101.559385040000
      4596   11      106.357042266559      59.323732496779     101.559385040000
      4597    3      102.751718799896      62.446034204502     100.000000000000
      4598    1      102.751718799896      62.446034204502     103.118770080000
      4599    9      102.751718799896      65.568335917230     100.000000000000
      4600    7      102.751718799896      65.568335917230     103.118770080000
      4601    2      103.653049661556      64.007185055860     101.559385040000
      4602    8      103.653049661556      67.129486768588     101.559385040000
      4603    6      105.455711394887      64.007185055860     100.000000000000
      4604    4      105.455711394887      64.007185055860     103.118770080000
      4605   12      105.455711394887      67.129486768588     100.000000000000
      4606   10      105.455711394887      67.129486768588     103.118770080000
      4607    5      106.357042266559      62.446034204502     101.559385040000
      4608   11      106.357042266559      65.568335917230     101.559385040000
      4609    3      102.751718799896      68.690637624952     100.000000000000
      4610    1      102.751718799896      68.690637624952     103.118770080000
      4611    9      102.751718799896      71.812939337680     100.000000000000
      4612    7      102.751718799896      71.812939337680     103.118770080000
      4613    2      103.653049661556      70.251788476310     101.559385040000
      4614    8      103.653049661556      73.374090189038     101.559385040000
      4615    6      105.455711394887      70.251788476310     100.000000000000
      4616    4      105.455711394887      70.251788476310     103.118770080000
      4617   12      105.455711394887      73.374090189038     100.000000000000
      4618   10      105.455711394887      73.374090189038     103.118770080000
      4619    5      106.357042266559      68.690637624952     101.559385040000
      4620   11      106.357042266559      71.812939337680     101.559385040000
      4621    3      108.159703999890      37.467620522701     100.000000000000
      4622    1      108.159703999890      37.467620522701     103.118770080000
      4623    9      108.159703999890      40.589922235429     100.000000000000
      4624    7      108.159703999890      40.589922235429     103.118770080000
      4625    2      109.061034861550      39.028771374059     101.559385040000
      4626    8      109.061034861550      42.151073086787     101.559385040000
      4627    6      110.863696594882      39.028771374059     100.000000000000
      4628    4      110.863696594882      39.028771374059     103.118770080000
      4629   12      110.863696594882      42.151073086787     100.000000000000
      4630   10      110.863696594882      42.151073086787     103.118770080000
      4631    5      111.765027466553      37.467620522701     101.559385040000
      4632   11      111.765027466553      40.589922235429     101.559385040000
      4633    3      108.159703999890      43.712223943151     100.000000000000
      4634    1      108.159703999890      43.712223943151     103.118770080000
      4635    9      108.159703999890      46.834525655879     100.000000000000
      4636    7      108.159703999890      46.834525655879     103.118770080000
      4637    2      109.061034861550      45.273374794509     101.559385040000
      4638    8      109.061034861550      48.395676507237     101.559385040000
      4639    6      110.863696594882      45.273374794509     100.000000000000
      4640    4      110.863696594882      45.273374794509     103.118770080000
      4641   12      110.863696594882      48.395676507237     100.000000000000
      4642   10      110.863696594882      48.395676507237     103.118770080000
      4643    5      111.765027466553      43.712223943151     101.559385040000
      4644   11      111.765027466553      46.834525655879     101.559385040000
      4645    3      108.159703999890      49.956827363601     100.000000000000
      4646    1      108.159703999890      49.956827363601     103.118770080000
      4647    9      108.159703999890      53.079129076329     100.000000000000
      4648    7      108.159703999890      53.079129076329     103.118770080000
      4649    2      109.061034861550      51.517978214960     101.559385040000
      4650    8      109.061034861550      54.640279927688     101.559385040000
      4651    6      110.863696594882      51.517978214960     100.000000000000
      4652    4      110.863696594882      51.517978214960     103.118770080000
      4653   12      110.863696594882      54.640279927688     100.000000000000
      4654   10      110.863696594882      54.640279927688     103.118770080000
      4655    5      111.765027466553      49.956827363601     101.559385040000
      4656   11      111.765027466553      53.079129076329     101.559385040000
      4657    3      108.159703999890      56.201430784051     100.000000000000
      4658    1      108.159703999890      56.201430784051     103.118770080000
      4659    9      108.159703999890      59.323732496779     100.000000000000
      4660    7      108.159703999890      59.323732496779     103.118770080000
      4661    2      109.061034861550      57.762581635410     101.559385040000
      4662    8      109.061034861550      60.884883348138     101.559385040000
      4663    6      110.863696594882      57.762581635410     100.000000000000
      4664    4      110.863696594882      57.762581635410     103.118770080000
      4665   12      110.863696594882      60.884883348138     100.000000000000
      4666   10      110.863696594882      60.884883348138     103.118770080000
      4667    5      111.765027466553      56.201430784051     101.559385040000
      4668   11      111.765027466553      59.323732496779     101.559385040000
      4669    3      108.159703999890      62.446034204502     100.000000000000
      4670    1      108.159703999890      62.446034204502     103.118770080000
      4671    9      108.159703999890      65.568335917230     100.000000000000
      4672    7      108.159703999890      65.568335917230     103.118770080000
      4673    2      109.061034861550      64.007185055860     101.559385040000
      4674    8      109.061034861550      67.129486768588     101.559385040000
      4675    6      110.863696594882      64.007185055860     100.000000000000
      4676    4      110.863696594882      64.007185055860     103.118770080000
      4677   12      110.863696594882      67.129486768588     100.000000000000
      4678   10      110.863696594882      67.129486768588     103.118770080000
      4679    5      111.765027466553      62.446034204502     101.559385040000
      4680   11      111.765027466553      65.568335917230     101.559385040000
      4681    3      108.159703999890      68.690637624952     100.000000000000
      4682    1      108.159703999890      68.690637624952     103.118770080000
      4683    9      108.159703999890      71.812939337680     100.000000000000
      4684    7      108.159703999890      71.812939337680     103.118770080000
      4685    2      109.061034861550      70.251788476310     101.559385040000
      4686    8      109.061034861550      73.374090189038     101.559385040000
      4687    6      110.863696594882      70.251788476310     100.000000000000
      4688    4      110.863696594882      70.251788476310     103.118770080000
      4689   12      110.863696594882      73.374090189038     100.000000000000
      4690   10      110.863696594882      73.374090189038     103.118770080000
      4691    5      111.765027466553      68.690637624952     101.559385040000
      4692   11      111.765027466553      71.812939337680     101.559385040000
      4693    3      113.567689199885      37.467620522701     100.000000000000
      4694    1      113.567689199885      37.467620522701     103.118770080000
      4695    9      113.567689199885      40.589922235429     100.000000000000
      4696    7      113.567689199885      40.589922235429     103.118770080000
      4697    2      114.469020061545      39.028771374059     101.559385040000
      4698    8      114.469020061545      42.151073086787     101.559385040000
      4699    6      116.271681794876      39.028771374059     100.000000000000
      4700    4      116.271681794876      39.028771374059     103.118770080000
      4701   12      116.271681794876      42.151073086787     100.000000000000
      4702   10      116.271681794876      42.151073086787     103.118770080000
      4703    5      117.173012666548      37.467620522701     101.559385040000
      4704   11      117.173012666548      40.589922235429     101.559385040000
      4705    3      113.567689199885      43.712223943151     100.000000000000
      4706    1      113.567689199885      43.712223943151     103.118770080000
      4707    9      113.567689199885      46.834525655879     100.000000000000
      4708    7      113.567689199885      46.834525655879     103.118770080000
      4709    2      114.469020061545      45.273374794509     101.559385040000
      4710    8      114.469020061545      48.395676507237     101.559385040000
      4711    6      116.271681794876      45.273374794509     100.000000000000
      4712    4      116.271681794876      45.273374794509     103.118770080000
      4713   12      116.271681794876      48.395676507237     100.000000000000
      4714   10      116.271681794876      48.395676507237     103.118770080000
      4715    5      117.173012666548      43.712223943151     101.559385040000
      4716   11      117.173012666548      46.834525655879     101.559385040000
      4717    3      113.567689199885      49.956827363601     100.000000000000
      4718    1      113.567689199885      49.956827363601     103.118770080000
      4719    9      113.567689199885      53.079129076329     100.000000000000
      4720    7      113.567689199885      53.079129076329     103.118770080000
      4721    2      114.469020061545      51.517978214960     101.559385040000
      4722    8      114.469020061545      54.640279927688     101.559385040000
      4723    6      116.271681794876      51.517978214960     100.000000000000
      4724    4      116.271681794876      51.517978214960     103.118770080000
      4725   12      116.271681794876      54.640279927688     100.000000000000
      4726   10      116.271681794876      54.640279927688     103.118770080000
      4727    5      117.173012666548      49.956827363601     101.559385040000
      4728   11      117.173012666548      53.079129076329     101.559385040000
      4729    3      113.567689199885      56.201430784051     100.000000000000
      4730    1      113.567689199885      56.201430784051     103.118770080000
      4731    9      113.567689199885      59.323732496779     100.000000000000
      4732    7      113.567689199885      59.323732496779     103.118770080000
      4733    2      114.469020061545      57.762581635410     101.559385040000
      4734    8      114.469020061545      60.884883348138     101.559385040000
      4735    6      116.271681794876      57.762581635410     100.000000000000
      4736    4      116.271681794876      57.762581635410     103.118770080000
      4737   12      116.271681794876      60.884883348138     100.000000000000
      4738   10      116.271681794876      60.884883348138     103.118770080000
      4739    5      117.173012666548      56.201430784051     101.559385040000
      4740   11      117.173012666548      59.323732496779     101.559385040000
      4741    3      113.567689199885      62.446034204502     100.000000000000
      4742    1      113.567689199885      62.446034204502     103.118770080000
      4743    9      113.567689199885      65.568335917230     100.000000000000
      4744    7      113.567689199885      65.568335917230     103.118770080000
      4745    2      114.469020061545      64.007185055860     101.559385040000
      4746    8      114.469020061545      67.129486768588     101.559385040000
      4747    6      116.271681794876      64.007185055860     100.000000000000
      4748    4      116.271681794876      64.007185055860     103.118770080000
      4749   12      116.271681794876      67.129486768588     100.000000000000
      4750   10      116.271681794876      67.129486768588     103.118770080000
      4751    5      117.173012666548      62.446034204502     101.559385040000
      4752   11      117.173012666548      65.568335917230     101.559385040000
      4753    3      113.567689199885      68.690637624952     100.000000000000
      4754    1      113.567689199885      68.690637624952     103.118770080000
      4755    9      113.567689199885      71.812939337680     100.000000000000
      4756    7      113.567689199885      71.812939337680     103.118770080000
      4757    2      114.469020061545      70.251788476310     101.559385040000
      4758    8      114.469020061545      73.374090189038     101.559385040000
      4759    6      116.271681794876      70.251788476310     100.000000000000
      4760    4      116.271681794876      70.251788476310     103.118770080000
      4761   12      116.271681794876      73.374090189038     100.000000000000
      4762   10      116.271681794876      73.374090189038     103.118770080000
      4763    5      117.173012666548      68.690637624952     101.559385040000
      4764   11      117.173012666548      71.812939337680     101.559385040000
      4765    3      118.975674399879      37.467620522701     100.000000000000
      4766    1      118.975674399879      37.467620522701     103.118770080000
      4767    9      118.975674399879      40.589922235429     100.000000000000
      4768    7      118.975674399879      40.589922235429     103.118770080000
      4769    2      119.877005261539      39.028771374059     101.559385040000
      4770    8      119.877005261539      42.151073086787     101.559385040000
      4771    6      121.679666994871      39.028771374059     100.000000000000
      4772    4      121.679666994871      39.028771374059     103.118770080000
      4773   12      121.679666994871      42.151073086787     100.000000000000
      4774   10      121.679666994871      42.151073086787     103.118770080000
      4775    5      122.580997866542      37.467620522701     101.559385040000
      4776   11      122.580997866542      40.589922235429     101.559385040000
      4777    3      118.975674399879      43.712223943151     100.000000000000
      4778    1      118.975674399879      43.712223943151     103.118770080000
      4779    9      118.975674399879      46.834525655879     100.000000000000
      4780    7      118.975674399879      46.834525655879     103.118770080000
      4781    2      119.877005261539      45.273374794509     101.559385040000
      4782    8      119.877005261539      48.395676507237     101.559385040000
      4783    6      121.679666994871      45.273374794509     100.000000000000
      4784    4      121.679666994871      45.273374794509     103.118770080000
      4785   12      121.679666994871      48.395676507237     100.000000000000
      4786   10      121.679666994871      48.395676507237     103.118770080000
      4787    5      122.580997866542      43.712223943151     101.559385040000
      4788   11      122.580997866542      46.834525655879     101.559385040000
      4789    3      118.975674399879      49.956827363601     100.000000000000
      4790    1      118.975674399879      49.956827363601     103.118770080000
      4791    9      118.975674399879      53.079129076329     100.000000000000
      4792    7      118.975674399879      53.079129076329     103.118770080000
      4793    2      119.877005261539      51.517978214960     101.559385040000
      4794    8      119.877005261539      54.640279927688     101.559385040000
      4795    6      121.679666994871      51.517978214960     100.000000000000
      4796    4      121.679666994871      51.517978214960     103.118770080000
      4797   12      121.679666994871      54.640279927688     100.000000000000
      4798   10      121.679666994871      54.640279927688     103.118770080000
      4799    5      122.580997866542      49.956827363601     101.559385040000
      4800   11      122.580997866542      53.079129076329     101.559385040000
      4801    3      118.975674399879      56.201430784051     100.000000000000
      4802    1      118.975674399879      56.201430784051     103.118770080000
      4803    9      118.975674399879      59.323732496779     100.000000000000
      4804    7      118.975674399879      59.323732496779     103.118770080000
      4805    2      119.877005261539      57.762581635410     101.559385040000
      4806    8      119.877005261539      60.884883348138     101.559385040000
      4807    6      121.679666994871      57.762581635410     100.000000000000
      4808    4      121.679666994871      57.762581635410     103.118770080000
      4809   12      121.679666994871      60.884883348138     100.000000000000
      4810   10      121.679666994871      60.884883348138     103.118770080000
      4811    5      122.580997866542      56.201430784051     101.559385040000
      4812   11      122.580997866542      59.323732496779     101.559385040000
      4813    3      118.975674399879      62.446034204502     100.000000000000
      4814    1      118.975674399879      62.446034204502     103.118770080000
      4815    9      118.975674399879      65.568335917230     100.000000000000
      4816    7      118.975674399879      65.568335917230     103.118770080000
      4817    2      119.877005261539      64.007185055860     101.559385040000
      4818    8      119.877005261539      67.129486768588     101.559385040000
      4819    6      121.679666994871      64.007185055860     100.000000000000
      4820    4      121.679666994871      64.007185055860     103.118770080000
      4821   12      121.679666994871      67.129486768588     100.000000000000
      4822   10      121.679666994871      67.129486768588     103.118770080000
      4823    5      122.580997866542      62.446034204502     101.559385040000
      4824   11      122.580997866542      65.568335917230     101.559385040000
      4825    3      118.975674399879      68.690637624952     100.000000000000
      4826    1      118.975674399879      68.690637624952     103.118770080000
      4827    9      118.975674399879      71.812939337680     100.000000000000
      4828    7      118.975674399879      71.812939337680     103.118770080000
      4829    2      119.877005261539      70.251788476310     101.559385040000
      4830    8      119.877005261539      73.374090189038     101.559385040000
      4831    6      121.679666994871      70.251788476310     100.000000000000
      4832    4      121.679666994871      70.251788476310     103.118770080000
      4833   12      121.679666994871      73.374090189038     100.000000000000
      4834   10      121.679666994871      73.374090189038     103.118770080000
      4835    5      122.580997866542      68.690637624952     101.559385040000
      4836   11      122.580997866542      71.812939337680     101.559385040000
      4837    3      124.383659599874      37.467620522701     100.000000000000
      4838    1      124.383659599874      37.467620522701     103.118770080000
      4839    9      124.383659599874      40.589922235429     100.000000000000
      4840    7      124.383659599874      40.589922235429     103.118770080000
      4841    2      125.284990461534      39.028771374059     101.559385040000
      4842    8      125.284990461534      42.151073086787     101.559385040000
      4843    6      127.087652194865      39.028771374059     100.000000000000
      4844    4      127.087652194865      39.028771374059     103.118770080000
      4845   12      127.087652194865      42.151073086787     100.000000000000
      4846   10      127.087652194865      42.151073086787     103.118770080000
      4847    5      127.988983066537      37.467620522701     101.559385040000
      4848   11      127.988983066537      40.589922235429     101.559385040000
      4849    3      124.383659599874      43.712223943151     100.000000000000
      4850    1      124.383659599874      43.712223943151     103.118770080000
      4851    9      124.383659599874      46.834525655879     100.000000000000
      4852    7      124.383659599874      46.834525655879     103.118770080000
      4853    2      125.284990461534      45.273374794509     101.559385040000
      4854    8      125.284990461534      48.395676507237     101.559385040000
      4855    6      127.087652194865      45.273374794509     100.000000000000
      4856    4      127.087652194865      45.273374794509     103.118770080000
      4857   12      127.087652194865      48.395676507237     100.000000000000
      4858   10      127.087652194865      48.395676507237     103.118770080000
      4859    5      127.988983066537      43.712223943151     101.559385040000
      4860   11      127.988983066537      46.834525655879     101.559385040000
      4861    3      124.383659599874      49.956827363601     100.000000000000
      4862    1      124.383659599874      49.956827363601     103.118770080000
      4863    9      124.383659599874      53.079129076329     100.000000000000
      4864    7      124.383659599874      53.079129076329     103.118770080000
      4865    2      125.284990461534      51.517978214960     101.559385040000
      4866    8      125.284990461534      54.640279927688     101.559385040000
      4867    6      127.087652194865      51.517978214960     100.000000000000
      4868    4      127.087652194865      51.517978214960     103.118770080000
      4869   12      127.087652194865      54.640279927688     100.000000000000
      4870   10      127.087652194865      54.640279927688     103.118770080000
      4871    5      127.988983066537      49.956827363601     101.559385040000
      4872   11      127.988983066537      53.079129076329     101.559385040000
      4873    3      124.383659599874      56.201430784051     100.000000000000
      4874    1      124.383659599874      56.201430784051     103.118770080000
      4875    9      124.383659599874      59.323732496779     100.000000000000
      4876    7      124.383659599874      59.323732496779     103.118770080000
      4877    2      125.284990461534      57.762581635410     101.559385040000
      4878    8      125.284990461534      60.884883348138     101.559385040000
      4879    6      127.087652194865      57.762581635410     100.000000000000
      4880    4      127.087652194865      57.762581635410     103.118770080000
      4881   12      127.087652194865      60.884883348138     100.000000000000
      4882   10      127.087652194865      60.884883348138     103.118770080000
      4883    5      127.988983066537      56.201430784051     101.559385040000
      4884   11      127.988983066537      59.323732496779     101.559385040000
      4885    3      124.383659599874      62.446034204502     100.000000000000
      4886    1      124.383659599874      62.446034204502     103.118770080000
      4887    9      124.383659599874      65.568335917230     100.000000000000
      4888    7      124.383659599874      65.568335917230     103.118770080000
      4889    2      125.284990461534      64.007185055860     101.559385040000
      4890    8      125.284990461534      67.129486768588     101.559385040000
      4891    6      127.087652194865      64.007185055860     100.000000000000
      4892    4      127.087652194865      64.007185055860     103.118770080000
      4893   12      127.087652194865      67.129486768588     100.000000000000
      4894   10      127.087652194865      67.129486768588     103.118770080000
      4895    5      127.988983066537      62.446034204502     101.559385040000
      4896   11      127.988983066537      65.568335917230     101.559385040000
      4897    3      124.383659599874      68.690637624952     100.000000000000
      4898    1      124.383659599874      68.690637624952     103.118770080000
      4899    9      124.383659599874      71.812939337680     100.000000000000
      4900    7      124.383659599874      71.812939337680     103.118770080000
      4901    2      125.284990461534      70.251788476310     101.559385040000
      4902    8      125.284990461534      73.374090189038     101.559385040000
      4903    6      127.087652194865      70.251788476310     100.000000000000
      4904    4      127.087652194865      70.251788476310     103.118770080000
      4905   12      127.087652194865      73.374090189038     100.000000000000
      4906   10      127.087652194865      73.374090189038     103.118770080000
      4907    5      127.988983066537      68.690637624952     101.559385040000
      4908   11      127.988983066537      71.812939337680     101.559385040000
      4909   14       64.895822399934      37.467620522701     106.818770080000
      4910   13       65.879092430836      39.170694178728     106.818770080000
      4911   14       67.845632503561      39.170694178728     106.818770080000
      4912   13       68.828902545385      37.467620522701     106.818770080000
      4913   14       64.895822399934      40.873767842947     106.818770080000
      4914   13       65.879092430836      42.576841498974     106.818770080000
      4915   14       67.845632503561      42.576841498974     106.818770080000
      4916   13       68.828902545385      40.873767842947     106.818770080000
      4917   14       64.895822399934      44.279915163192     106.818770080000
      4918   13       65.879092430836      45.982988819219     106.818770080000
      4919   14       67.845632503561      45.982988819219     106.818770080000
      4920   13       68.828902545385      44.279915163192     106.818770080000
      4921   14       64.895822399934      47.686062483438     106.818770080000
      4922   13       65.879092430836      49.389136139465     106.818770080000
      4923   14       67.845632503561      49.389136139465     106.818770080000
      4924   13       68.828902545385      47.686062483438     106.818770080000
      4925   14       64.895822399934      51.092209803683     106.818770080000
      4926   13       65.879092430836      52.795283459711     106.818770080000
      4927   14       67.845632503561      52.795283459711     106.818770080000
      4928   13       68.828902545385      51.092209803683     106.818770080000
      4929   14       64.895822399934      54.498357123929     106.818770080000
      4930   13       65.879092430836      56.201430779956     106.818770080000
      4931   14       67.845632503561      56.201430779956     106.818770080000
      4932   13       68.828902545385      54.498357123929     106.818770080000
      4933   14       64.895822399934      57.904504444174     106.818770080000
      4934   13       65.879092430836      59.607578100202     106.818770080000
      4935   14       67.845632503561      59.607578100202     106.818770080000
      4936   13       68.828902545385      57.904504444174     106.818770080000
      4937   14       64.895822399934      61.310651764420     106.818770080000
      4938   13       65.879092430836      63.013725420447     106.818770080000
      4939   14       67.845632503561      63.013725420447     106.818770080000
      4940   13       68.828902545385      61.310651764420     106.818770080000
      4941   14       64.895822399934      64.716799084665     106.818770080000
      4942   13       65.879092430836      66.419872740693     106.818770080000
      4943   14       67.845632503561      66.419872740693     106.818770080000
      4944   13       68.828902545385      64.716799084665     106.818770080000
      4945   14       64.895822399934      68.122946404911     106.818770080000
      4946   13       65.879092430836      69.826020060938     106.818770080000
      4947   14       67.845632503561      69.826020060938     106.818770080000
      4948   13       68.828902545385      68.122946404911     106.818770080000
      4949   14       64.895822399934      71.529093725156     106.818770080000
      4950   13       65.879092430836      73.232167381184     106.818770080000
      4951   14       67.845632503561      73.232167381184     106.818770080000
      4952   13       68.828902545385      71.529093725156     106.818770080000
      4953   14       70.795442618110      37.467620522701     106.818770080000
      4954   13       71.778712649012      39.170694178728     106.818770080000
      4955   14       73.745252721737      39.170694178728     106.818770080000
      4956   13       74.728522763561      37.467620522701     106.818770080000
      4957   14       70.795442618110      40.873767842947     106.818770080000
      4958   13       71.778712649012      42.576841498974     106.818770080000
      4959   14       73.745252721737      42.576841498974     106.818770080000
      4960   13       74.728522763561      40.873767842947     106.818770080000
      4961   14       70.795442618110      44.279915163192     106.818770080000
      4962   13       71.778712649012      45.982988819219     106.818770080000
      4963   14       73.745252721737      45.982988819219     106.818770080000
      4964   13       74.728522763561      44.279915163192     106.818770080000
      4965   14       70.795442618110      47.686062483438     106.818770080000
      4966   13       71.778712649012      49.389136139465     106.818770080000
      4967   14       73.745252721737      49.389136139465     106.818770080000
      4968   13       74.728522763561      47.686062483438     106.818770080000
      4969   14       70.795442618110      51.092209803683     106.818770080000
      4970   13       71.778712649012      52.795283459711     106.818770080000
      4971   14       73.745252721737      52.795283459711     106.818770080000
      4972   13       74.728522763561      51.092209803683     106.818770080000
      4973   14       70.795442618110      54.498357123929     106.818770080000
      4974   13       71.778712649012      56.201430779956     106.818770080000
      4975   14       73.745252721737      56.201430779956     106.818770080000
      4976   13       74.728522763561      54.498357123929     106.818770080000
      4977   14       70.795442618110      57.904504444174     106.818770080000
      4978   13       71.778712649012      59.607578100202     106.818770080000
      4979   14       73.745252721737      59.607578100202     106.818770080000
      4980   13       74.728522763561      57.904504444174     106.818770080000
      4981   14       70.795442618110      61.310651764420     106.818770080000
      4982   13       71.778712649012      63.013725420447     106.818770080000
      4983   14       73.745252721737      63.013725420447     106.818770080000
      4984   13       74.728522763561      61.310651764420     106.818770080000
      4985   14       70.795442618110      64.716799084665     106.818770080000
      4986   13       71.778712649012      66.419872740693     106.818770080000
      4987   14       73.745252721737      66.419872740693     106.818770080000
      4988   13       74.728522763561      64.716799084665     106.818770080000
      4989   14       70.795442618110      68.122946404911     106.818770080000
      4990   13       71.778712649012      69.826020060938     106.818770080000
      4991   14       73.745252721737      69.826020060938     106.818770080000
      4992   13       74.728522763561      68.122946404911     106.818770080000
      4993   14       70.795442618110      71.529093725156     106.818770080000
      4994   13       71.778712649012      73.232167381184     106.818770080000
      4995   14       73.745252721737      73.232167381184     106.818770080000
      4996   13       74.728522763561      71.529093725156     106.818770080000
      4997   14       76.695062836286      37.467620522701     106.818770080000
      4998   13       77.678332867188      39.170694178728     106.818770080000
      4999   14       79.644872939913      39.170694178728     106.818770080000
      5000   13       80.628142981737      37.467620522701     106.818770080000
      5001   14       76.695062836286      40.873767842947     106.818770080000
      5002   13       77.678332867188      42.576841498974     106.818770080000
      5003   14       79.644872939913      42.576841498974     106.818770080000
      5004   13       80.628142981737      40.873767842947     106.818770080000
      5005   14       76.695062836286      44.279915163192     106.818770080000
      5006   13       77.678332867188      45.982988819219     106.818770080000
      5007   14       79.644872939913      45.982988819219     106.818770080000
      5008   13       80.628142981737      44.279915163192     106.818770080000
      5009   14       76.695062836286      47.686062483438     106.818770080000
      5010   13       77.678332867188      49.389136139465     106.818770080000
      5011   14       79.644872939913      49.389136139465     106.818770080000
      5012   13       80.628142981737      47.686062483438     106.818770080000
      5013   14       76.695062836286      51.092209803683     106.818770080000
      5014   13       77.678332867188      52.795283459711     106.818770080000
      5015   14       79.644872939913      52.795283459711     106.818770080000
      5016   13       80.628142981737      51.092209803683     106.818770080000
      5017   14       76.695062836286      54.498357123929     106.818770080000
      5018   13       77.678332867188      56.201430779956     106.818770080000
      5019   14       79.644872939913      56.201430779956     106.818770080000
      5020   13       80.628142981737      54.498357123929     106.818770080000
      5021   14       76.695062836286      57.904504444174     106.818770080000
      5022   13       77.678332867188      59.607578100202     106.818770080000
      5023   14       79.644872939913      59.607578100202     106.818770080000
      5024   13       80.628142981737      57.904504444174     106.818770080000
      5025   14       76.695062836286      61.310651764420     106.818770080000
      5026   13       77.678332867188      63.013725420447     106.818770080000
      5027   14       79.644872939913      63.013725420447     106.818770080000
      5028   13       80.628142981737      61.310651764420     106.818770080000
      5029   14       76.695062836286      64.716799084665     106.818770080000
      5030   13       77.678332867188      66.419872740693     106.818770080000
      5031   14       79.644872939913      66.419872740693     106.818770080000
      5032   13       80.628142981737      64.716799084665     106.818770080000
      5033   14       76.695062836286      68.122946404911     106.818770080000
      5034   13       77.678332867188      69.826020060938     106.818770080000
      5035   14       79.644872939913      69.826020060938     106.818770080000
      5036   13       80.628142981737      68.122946404911     106.818770080000
      5037   14       76.695062836286      71.529093725156     106.818770080000
      5038   13       77.678332867188      73.232167381184     106.818770080000
      5039   14       79.644872939913      73.232167381184     106.818770080000
      5040   13       80.628142981737      71.529093725156     106.818770080000
      5041   14       82.594683054462      37.467620522701     106.818770080000
      5042   13       83.577953085363      39.170694178728     106.818770080000
      5043   14       85.544493158089      39.170694178728     106.818770080000
      5044   13       86.527763199912      37.467620522701     106.818770080000
      5045   14       82.594683054462      40.873767842947     106.818770080000
      5046   13       83.577953085363      42.576841498974     106.818770080000
      5047   14       85.544493158089      42.576841498974     106.818770080000
      5048   13       86.527763199912      40.873767842947     106.818770080000
      5049   14       82.594683054462      44.279915163192     106.818770080000
      5050   13       83.577953085363      45.982988819219     106.818770080000
      5051   14       85.544493158089      45.982988819219     106.818770080000
      5052   13       86.527763199912      44.279915163192     106.818770080000
      5053   14       82.594683054462      47.686062483438     106.818770080000
      5054   13       83.577953085363      49.389136139465     106.818770080000
      5055   14       85.544493158089      49.389136139465     106.818770080000
      5056   13       86.527763199912      47.686062483438     106.818770080000
      5057   14       82.594683054462      51.092209803683     106.818770080000
      5058   13       83.577953085363      52.795283459711     106.818770080000
      5059   14       85.544493158089      52.795283459711     106.818770080000
      5060   13       86.527763199912      51.092209803683     106.818770080000
      5061   14       82.594683054462      54.498357123929     106.818770080000
      5062   13       83.577953085363      56.201430779956     106.818770080000
      5063   14       85.544493158089      56.201430779956     106.818770080000
      5064   13       86.527763199912      54.498357123929     106.818770080000
      5065   14       82.594683054462      57.904504444174     106.818770080000
      5066   13       83.577953085363      59.607578100202     106.818770080000
      5067   14       85.544493158089      59.607578100202     106.818770080000
      5068   13       86.527763199912      57.904504444174     106.818770080000
      5069   14       82.594683054462      61.310651764420     106.818770080000
      5070   13       83.577953085363      63.013725420447     106.818770080000
      5071   14       85.544493158089      63.013725420447     106.818770080000
      5072   13       86.527763199912      61.310651764420     106.818770080000
      5073   14       82.594683054462      64.716799084665     106.818770080000
      5074   13       83.577953085363      66.419872740693     106.818770080000
      5075   14       85.544493158089      66.419872740693     106.818770080000
      5076   13       86.527763199912      64.716799084665     106.818770080000
      5077   14       82.594683054462      68.122946404911     106.818770080000
      5078   13       83.577953085363      69.826020060938     106.818770080000
      5079   14       85.544493158089      69.826020060938     106.818770080000
      5080   13       86.527763199912      68.122946404911     106.818770080000
      5081   14       82.594683054462      71.529093725156     106.818770080000
      5082   13       83.577953085363      73.232167381184     106.818770080000
      5083   14       85.544493158089      73.232167381184     106.818770080000
      5084   13       86.527763199912      71.529093725156     106.818770080000
      5085   14       88.494303272637      37.467620522701     106.818770080000
      5086   13       89.477573303539      39.170694178728     106.818770080000
      5087   14       91.444113376265      39.170694178728     106.818770080000
      5088   13       92.427383418088      37.467620522701     106.818770080000
      5089   14       88.494303272637      40.873767842947     106.818770080000
      5090   13       89.477573303539      42.576841498974     106.818770080000
      5091   14       91.444113376265      42.576841498974     106.818770080000
      5092   13       92.427383418088      40.873767842947     106.818770080000
      5093   14       88.494303272637      44.279915163192     106.818770080000
      5094   13       89.477573303539      45.982988819219     106.818770080000
      5095   14       91.444113376265      45.982988819219     106.818770080000
      5096   13       92.427383418088      44.279915163192     106.818770080000
      5097   14       88.494303272637      47.686062483438     106.818770080000
      5098   13       89.477573303539      49.389136139465     106.818770080000
      5099   14       91.444113376265      49.389136139465     106.818770080000
      5100   13       92.427383418088      47.686062483438     106.818770080000
      5101   14       88.494303272637      51.092209803683     106.818770080000
      5102   13       89.477573303539      52.795283459711     106.818770080000
      5103   14       91.444113376265      52.795283459711     106.818770080000
      5104   13       92.427383418088      51.092209803683     106.818770080000
      5105   14       88.494303272637      54.498357123929     106.818770080000
      5106   13       89.477573303539      56.201430779956     106.818770080000
      5107   14       91.444113376265      56.201430779956     106.818770080000
      5108   13       92.427383418088      54.498357123929     106.818770080000
      5109   14       88.494303272637      57.904504444174     106.818770080000
      5110   13       89.477573303539      59.607578100202     106.818770080000
      5111   14       91.444113376265      59.607578100202     106.818770080000
      5112   13       92.427383418088      57.904504444174     106.818770080000
      5113   14       88.494303272637      61.310651764420     106.818770080000
      5114   13       89.477573303539      63.013725420447     106.818770080000
      5115   14       91.444113376265      63.013725420447     106.818770080000
      5116   13       92.427383418088      61.310651764420     106.818770080000
      5117   14       88.494303272637      64.716799084665     106.818770080000
      5118   13       89.477573303539      66.419872740693     106.818770080000
      5119   14       91.444113376265      66.419872740693     106.818770080000
      5120   13       92.427383418088      64.716799084665     106.818770080000
      5121   14       88.494303272637      68.122946404911     106.818770080000
      5122   13       89.477573303539      69.826020060938     106.818770080000
      5123   14       91.444113376265      69.826020060938     106.818770080000
      5124   13       92.427383418088      68.122946404911     106.818770080000
      5125   14       88.494303272637      71.529093725156     106.818770080000
      5126   13       89.477573303539      73.232167381184     106.818770080000
      5127   14       91.444113376265      73.232167381184     106.818770080000
      5128   13       92.427383418088      71.529093725156     106.818770080000
      5129   14       94.393923490813      37.467620522701     106.818770080000
      5130   13       95.377193521715      39.170694178728     106.818770080000
      5131   14       97.343733594441      39.170694178728     106.818770080000
      5132   13       98.327003636264      37.467620522701     106.818770080000
      5133   14       94.393923490813      40.873767842947     106.818770080000
      5134   13       95.377193521715      42.576841498974     106.818770080000
      5135   14       97.343733594441      42.576841498974     106.818770080000
      5136   13       98.327003636264      40.873767842947     106.818770080000
      5137   14       94.393923490813      44.279915163192     106.818770080000
      5138   13       95.377193521715      45.982988819219     106.818770080000
      5139   14       97.343733594441      45.982988819219     106.818770080000
      5140   13       98.327003636264      44.279915163192     106.818770080000
      5141   14       94.393923490813      47.686062483438     106.818770080000
      5142   13       95.377193521715      49.389136139465     106.818770080000
      5143   14       97.343733594441      49.389136139465     106.818770080000
      5144   13       98.327003636264      47.686062483438     106.818770080000
      5145   14       94.393923490813      51.092209803683     106.818770080000
      5146   13       95.377193521715      52.795283459711     106.818770080000
      5147   14       97.343733594441      52.795283459711     106.818770080000
      5148   13       98.327003636264      51.092209803683     106.818770080000
      5149   14       94.393923490813      54.498357123929     106.818770080000
      5150   13       95.377193521715      56.201430779956     106.818770080000
      5151   14       97.343733594441      56.201430779956     106.818770080000
      5152   13       98.327003636264      54.498357123929     106.818770080000
      5153   14       94.393923490813      57.904504444174     106.818770080000
      5154   13       95.377193521715      59.607578100202     106.818770080000
      5155   14       97.343733594441      59.607578100202     106.818770080000
      5156   13       98.327003636264      57.904504444174     106.818770080000
      5157   14       94.393923490813      61.310651764420     106.818770080000
      5158   13       95.377193521715      63.013725420447     106.818770080000
      5159   14       97.343733594441      63.013725420447     106.818770080000
      5160   13       98.327003636264      61.310651764420     106.818770080000
      5161   14       94.393923490813      64.716799084665     106.818770080000
      5162   13       95.377193521715      66.419872740693     106.818770080000
      5163   14       97.343733594441      66.419872740693     106.818770080000
      5164   13       98.327003636264      64.716799084665     106.818770080000
      5165   14       94.393923490813      68.122946404911     106.818770080000
      5166   13       95.377193521715      69.826020060938     106.818770080000
      5167   14       97.343733594441      69.826020060938     106.818770080000
      5168   13       98.327003636264      68.122946404911     106.818770080000
      5169   14       94.393923490813      71.529093725156     106.818770080000
      5170   13       95.377193521715      73.232167381184     106.818770080000
      5171   14       97.343733594441      73.232167381184     106.818770080000
      5172   13       98.327003636264      71.529093725156     106.818770080000
      5173   14      100.293543708989      37.467620522701     106.818770080000
      5174   13      101.276813739891      39.170694178728     106.818770080000
      5175   14      103.243353812616      39.170694178728     106.818770080000
      5176   13      104.226623854440      37.467620522701     106.818770080000
      5177   14      100.293543708989      40.873767842947     106.818770080000
      5178   13      101.276813739891      42.576841498974     106.818770080000
      5179   14      103.243353812616      42.576841498974     106.818770080000
      5180   13      104.226623854440      40.873767842947     106.818770080000
      5181   14      100.293543708989      44.279915163192     106.818770080000
      5182   13      101.276813739891      45.982988819219     106.818770080000
      5183   14      103.243353812616      45.982988819219     106.818770080000
      5184   13      104.226623854440      44.279915163192     106.818770080000
      5185   14      100.293543708989      47.686062483438     106.818770080000
      5186   13      101.276813739891      49.389136139465     106.818770080000
      5187   14      103.243353812616      49.389136139465     106.818770080000
      5188   13      104.226623854440      47.686062483438     106.818770080000
      5189   14      100.293543708989      51.092209803683     106.818770080000
      5190   13      101.276813739891      52.795283459711     106.818770080000
      5191   14      103.243353812616      52.795283459711     106.818770080000
      5192   13      104.226623854440      51.092209803683     106.818770080000
      5193   14      100.293543708989      54.498357123929     106.818770080000
      5194   13      101.276813739891      56.201430779956     106.818770080000
      5195   14      103.243353812616      56.201430779956     106.818770080000
      5196   13      104.226623854440      54.498357123929     106.818770080000
      5197   14      100.293543708989      57.904504444174     106.818770080000
      5198   13      101.276813739891      59.607578100202     106.818770080000
      5199   14      103.243353812616      59.607578100202     106.818770080000
      5200   13      104.226623854440      57.904504444174     106.818770080000
      5201   14      100.293543708989      61.310651764420     106.818770080000
      5202   13      101.276813739891      63.013725420447     106.818770080000
      5203   14      103.243353812616      63.013725420447     106.818770080000
      5204   13      104.226623854440      61.310651764420     106.818770080000
      5205   14      100.293543708989      64.716799084665     106.818770080000
      5206   13      101.276813739891      66.419872740693     106.818770080000
      5207   14      103.243353812616      66.419872740693     106.818770080000
      5208   13      104.226623854440      64.716799084665     106.818770080000
      5209   14      100.293543708989      68.122946404911     106.818770080000
      5210   13      101.276813739891      69.826020060938     106.818770080000
      5211   14      103.243353812616      69.826020060938     106.818770080000
      5212   13      104.226623854440      68.122946404911     106.818770080000
      5213   14      100.293543708989      71.529093725156     106.818770080000
      5214   13      101.276813739891      73.232167381184     106.818770080000
      5215   14      103.243353812616      73.232167381184     106.818770080000
      5216   13      104.226623854440      71.529093725156     106.818770080000
      5217   14      106.193163927165      37.467620522701     106.818770080000
      5218   13      107.176433958067      39.170694178728     106.818770080000
      5219   14      109.142974030792      39.170694178728     106.818770080000
      5220   13      110.126244072616      37.467620522701     106.818770080000
      5221   14      106.193163927165      40.873767842947     106.818770080000
      5222   13      107.176433958067      42.576841498974     106.818770080000
      5223   14      109.142974030792      42.576841498974     106.818770080000
      5224   13      110.126244072616      40.873767842947     106.818770080000
      5225   14      106.193163927165      44.279915163192     106.818770080000
      5226   13      107.176433958067      45.982988819219     106.818770080000
      5227   14      109.142974030792      45.982988819219     106.818770080000
      5228   13      110.126244072616      44.279915163192     106.818770080000
      5229   14      106.193163927165      47.686062483438     106.818770080000
      5230   13      107.176433958067      49.389136139465     106.818770080000
      5231   14      109.142974030792      49.389136139465     106.818770080000
      5232   13      110.126244072616      47.686062483438     106.818770080000
      5233   14      106.193163927165      51.092209803683     106.818770080000
      5234   13      107.176433958067      52.795283459711     106.818770080000
      5235   14      109.142974030792      52.795283459711     106.818770080000
      5236   13      110.126244072616      51.092209803683     106.818770080000
      5237   14      106.193163927165      54.498357123929     106.818770080000
      5238   13      107.176433958067      56.201430779956     106.818770080000
      5239   14      109.142974030792      56.201430779956     106.818770080000
      5240   13      110.126244072616      54.498357123929     106.818770080000
      5241   14      106.193163927165      57.904504444174     106.818770080000
      5242   13      107.176433958067      59.607578100202     106.818770080000
      5243   14      109.142974030792      59.607578100202     106.818770080000
      5244   13      110.126244072616      57.904504444174     106.818770080000
      5245   14      106.193163927165      61.310651764420     106.818770080000
      5246   13      107.176433958067      63.013725420447     106.818770080000
      5247   14      109.142974030792      63.013725420447     106.818770080000
      5248   13      110.126244072616      61.310651764420     106.818770080000
      5249   14      106.193163927165      64.716799084665     106.818770080000
      5250   13      107.176433958067      66.419872740693     106.818770080000
      5251   14      109.142974030792      66.419872740693     106.818770080000
      5252   13      110.126244072616      64.716799084665     106.818770080000
      5253   14      106.193163927165      68.122946404911     106.818770080000
      5254   13      107.176433958067      69.826020060938     106.818770080000
      5255   14      109.142974030792      69.826020060938     106.818770080000
      5256   13      110.126244072616      68.122946404911     106.818770080000
      5257   14      106.193163927165      71.529093725156     106.818770080000
      5258   13      107.176433958067      73.232167381184     106.818770080000
      5259   14      109.142974030792      73.232167381184     106.818770080000
      5260   13      110.126244072616      71.529093725156     106.818770080000
      5261   14      112.092784145341      37.467620522701     106.818770080000
      5262   13      113.076054176243      39.170694178728     106.818770080000
      5263   14      115.042594248968      39.170694178728     106.818770080000
      5264   13      116.025864290792      37.467620522701     106.818770080000
      5265   14      112.092784145341      40.873767842947     106.818770080000
      5266   13      113.076054176243      42.576841498974     106.818770080000
      5267   14      115.042594248968      42.576841498974     106.818770080000
      5268   13      116.025864290792      40.873767842947     106.818770080000
      5269   14      112.092784145341      44.279915163192     106.818770080000
      5270   13      113.076054176243      45.982988819219     106.818770080000
      5271   14      115.042594248968      45.982988819219     106.818770080000
      5272   13      116.025864290792      44.279915163192     106.818770080000
      5273   14      112.092784145341      47.686062483438     106.818770080000
      5274   13      113.076054176243      49.389136139465     106.818770080000
      5275   14      115.042594248968      49.389136139465     106.818770080000
      5276   13      116.025864290792      47.686062483438     106.818770080000
      5277   14      112.092784145341      51.092209803683     106.818770080000
      5278   13      113.076054176243      52.795283459711     106.818770080000
      5279   14      115.042594248968      52.795283459711     106.818770080000
      5280   13      116.025864290792      51.092209803683     106.818770080000
      5281   14      112.092784145341      54.498357123929     106.818770080000
      5282   13      113.076054176243      56.201430779956     106.818770080000
      5283   14      115.042594248968      56.201430779956     106.818770080000
      5284   13      116.025864290792      54.498357123929     106.818770080000
      5285   14      112.092784145341      57.904504444174     106.818770080000
      5286   13      113.076054176243      59.607578100202     106.818770080000
      5287   14      115.042594248968      59.607578100202     106.818770080000
      5288   13      116.025864290792      57.904504444174     106.818770080000
      5289   14      112.092784145341      61.310651764420     106.818770080000
      5290   13      113.076054176243      63.013725420447     106.818770080000
      5291   14      115.042594248968      63.013725420447     106.818770080000
      5292   13      116.025864290792      61.310651764420     106.818770080000
      5293   14      112.092784145341      64.716799084665     106.818770080000
      5294   13      113.076054176243      66.419872740693     106.818770080000
      5295   14      115.042594248968      66.419872740693     106.818770080000
      5296   13      116.025864290792      64.716799084665     106.818770080000
      5297   14      112.092784145341      68.122946404911     106.818770080000
      5298   13      113.076054176243      69.826020060938     106.818770080000
      5299   14      115.042594248968      69.826020060938     106.818770080000
      5300   13      116.025864290792      68.122946404911     106.818770080000
      5301   14      112.092784145341      71.529093725156     106.818770080000
      5302   13      113.076054176243      73.232167381184     106.818770080000
      5303   14      115.042594248968      73.232167381184     106.818770080000
      5304   13      116.025864290792      71.529093725156     106.818770080000
      5305   14      117.992404363517      37.467620522701     106.818770080000
      5306   13      118.975674394418      39.170694178728     106.818770080000
      5307   14      120.942214467144      39.170694178728     106.818770080000
      5308   13      121.925484508967      37.467620522701     106.818770080000
      5309   14      117.992404363517      40.873767842947     106.818770080000
      5310   13      118.975674394418      42.576841498974     106.818770080000
      5311   14      120.942214467144      42.576841498974     106.818770080000
      5312   13      121.925484508967      40.873767842947     106.818770080000
      5313   14      117.992404363517      44.279915163192     106.818770080000
      5314   13      118.975674394418      45.982988819219     106.818770080000
      5315   14      120.942214467144      45.982988819219     106.818770080000
      5316   13      121.925484508967      44.279915163192     106.818770080000
      5317   14      117.992404363517      47.686062483438     106.818770080000
      5318   13      118.975674394418      49.389136139465     106.818770080000
      5319   14      120.942214467144      49.389136139465     106.818770080000
      5320   13      121.925484508967      47.686062483438     106.818770080000
      5321   14      117.992404363517      51.092209803683     106.818770080000
      5322   13      118.975674394418      52.795283459711     106.818770080000
      5323   14      120.942214467144      52.795283459711     106.818770080000
      5324   13      121.925484508967      51.092209803683     106.818770080000
      5325   14      117.992404363517      54.498357123929     106.818770080000
      5326   13      118.975674394418      56.201430779956     106.818770080000
      5327   14      120.942214467144      56.201430779956     106.818770080000
      5328   13      121.925484508967      54.498357123929     106.818770080000
      5329   14      117.992404363517      57.904504444174     106.818770080000
      5330   13      118.975674394418      59.607578100202     106.818770080000
      5331   14      120.942214467144      59.607578100202     106.818770080000
      5332   13      121.925484508967      57.904504444174     106.818770080000
      5333   14      117.992404363517      61.310651764420     106.818770080000
      5334   13      118.975674394418      63.013725420447     106.818770080000
      5335   14      120.942214467144      63.013725420447     106.818770080000
      5336   13      121.925484508967      61.310651764420     106.818770080000
      5337   14      117.992404363517      64.716799084665     106.818770080000
      5338   13      118.975674394418      66.419872740693     106.818770080000
      5339   14      120.942214467144      66.419872740693     106.818770080000
      5340   13      121.925484508967      64.716799084665     106.818770080000
      5341   14      117.992404363517      68.122946404911     106.818770080000
      5342   13      118.975674394418      69.826020060938     106.818770080000
      5343   14      120.942214467144      69.826020060938     106.818770080000
      5344   13      121.925484508967      68.122946404911     106.818770080000
      5345   14      117.992404363517      71.529093725156     106.818770080000
      5346   13      118.975674394418      73.232167381184     106.818770080000
      5347   14      120.942214467144      73.232167381184     106.818770080000
      5348   13      121.925484508967      71.529093725156     106.818770080000
      5349   14      123.892024581692      37.467620522701     106.818770080000
      5350   13      124.875294612594      39.170694178728     106.818770080000
      5351   14      126.841834685320      39.170694178728     106.818770080000
      5352   13      127.825104727143      37.467620522701     106.818770080000
      5353   14      123.892024581692      40.873767842947     106.818770080000
      5354   13      124.875294612594      42.576841498974     106.818770080000
      5355   14      126.841834685320      42.576841498974     106.818770080000
      5356   13      127.825104727143      40.873767842947     106.818770080000
      5357   14      123.892024581692      44.279915163192     106.818770080000
      5358   13      124.875294612594      45.982988819219     106.818770080000
      5359   14      126.841834685320      45.982988819219     106.818770080000
      5360   13      127.825104727143      44.279915163192     106.818770080000
      5361   14      123.892024581692      47.686062483438     106.818770080000
      5362   13      124.875294612594      49.389136139465     106.818770080000
      5363   14      126.841834685320      49.389136139465     106.818770080000
      5364   13      127.825104727143      47.686062483438     106.818770080000
      5365   14      123.892024581692      51.092209803683     106.818770080000
      5366   13      124.875294612594      52.795283459711     106.818770080000
      5367   14      126.841834685320      52.795283459711     106.818770080000
      5368   13      127.825104727143      51.092209803683     106.818770080000
      5369   14      123.892024581692      54.498357123929     106.818770080000
      5370   13      124.875294612594      56.201430779956     106.818770080000
      5371   14      126.841834685320      56.201430779956     106.818770080000
      5372   13      127.825104727143      54.498357123929     106.818770080000
      5373   14      123.892024581692      57.904504444174     106.818770080000
      5374   13      124.875294612594      59.607578100202     106.818770080000
      5375   14      126.841834685320      59.607578100202     106.818770080000
      5376   13      127.825104727143      57.904504444174     106.818770080000
      5377   14      123.892024581692      61.310651764420     106.818770080000
      5378   13      124.875294612594      63.013725420447     106.818770080000
      5379   14      126.841834685320      63.013725420447     106.818770080000
      5380   13      127.825104727143      61.310651764420     106.818770080000
      5381   14      123.892024581692      64.716799084665     106.818770080000
      5382   13      124.875294612594      66.419872740693     106.818770080000
      5383   14      126.841834685320      66.419872740693     106.818770080000
      5384   13      127.825104727143      64.716799084665     106.818770080000
      5385   14      123.892024581692      68.122946404911     106.818770080000
      5386   13      124.875294612594      69.826020060938     106.818770080000
      5387   14      126.841834685320      69.826020060938     106.818770080000
      5388   13      127.825104727143      68.122946404911     106.818770080000
      5389   14      123.892024581692      71.529093725156     106.818770080000
      5390   13      124.875294612594      73.232167381184     106.818770080000
      5391   14      126.841834685320      73.232167381184     106.818770080000
      5392   13      127.825104727143      71.529093725156     106.818770080000
      5393    3        0.000000000000      74.935241045402     100.000000000000
      5394    1        0.000000000000      74.935241045402     103.118770080000
      5395    9        0.000000000000      78.057542758130     100.000000000000
      5396    7        0.000000000000      78.057542758130     103.118770080000
      5397    2        0.901330861660      76.496391896760     101.559385040000
      5398    8        0.901330861660      79.618693609488     101.559385040000
      5399    6        2.703992594992      76.496391896760     100.000000000000
      5400    4        2.703992594992      76.496391896760     103.118770080000
      5401   12        2.703992594992      79.618693609488     100.000000000000
      5402   10        2.703992594992      79.618693609488     103.118770080000
      5403    5        3.605323466663      74.935241045402     101.559385040000
      5404   11        3.605323466663      78.057542758130     101.559385040000
      5405    3        0.000000000000      81.179844465852     100.000000000000
      5406    1        0.000000000000      81.179844465852     103.118770080000
      5407    9        0.000000000000      84.302146178580     100.000000000000
      5408    7        0.000000000000      84.302146178580     103.118770080000
      5409    2        0.901330861660      82.740995317210     101.559385040000
      5410    8        0.901330861660      85.863297029938     101.559385040000
      5411    6        2.703992594992      82.740995317210     100.000000000000
      5412    4        2.703992594992      82.740995317210     103.118770080000
      5413   12        2.703992594992      85.863297029938     100.000000000000
      5414   10        2.703992594992      85.863297029938     103.118770080000
      5415    5        3.605323466663      81.179844465852     101.559385040000
      5416   11        3.605323466663      84.302146178580     101.559385040000
      5417    3        0.000000000000      87.424447886302     100.000000000000
      5418    1        0.000000000000      87.424447886302     103.118770080000
      5419    9        0.000000000000      90.546749599030     100.000000000000
      5420    7        0.000000000000      90.546749599030     103.118770080000
      5421    2        0.901330861660      88.985598737661     101.559385040000
      5422    8        0.901330861660      92.107900450389     101.559385040000
      5423    6        2.703992594992      88.985598737661     100.000000000000
      5424    4        2.703992594992      88.985598737661     103.118770080000
      5425   12        2.703992594992      92.107900450389     100.000000000000
      5426   10        2.703992594992      92.107900450389     103.118770080000
      5427    5        3.605323466663      87.424447886302     101.559385040000
      5428   11        3.605323466663      90.546749599030     101.559385040000
      5429    3        0.000000000000      93.669051306752     100.000000000000
      5430    1        0.000000000000      93.669051306752     103.118770080000
      5431    9        0.000000000000      96.791353019480     100.000000000000
      5432    7        0.000000000000      96.791353019480     103.118770080000
      5433    2        0.901330861660      95.230202158111     101.559385040000
      5434    8        0.901330861660      98.352503870839     101.559385040000
      5435    6        2.703992594992      95.230202158111     100.000000000000
      5436    4        2.703992594992      95.230202158111     103.118770080000
      5437   12        2.703992594992      98.352503870839     100.000000000000
      5438   10        2.703992594992      98.352503870839     103.118770080000
      5439    5        3.605323466663      93.669051306752     101.559385040000
      5440   11        3.605323466663      96.791353019480     101.559385040000
      5441    3        0.000000000000      99.913654727203     100.000000000000
      5442    1        0.000000000000      99.913654727203     103.118770080000
      5443    9        0.000000000000     103.035956439931     100.000000000000
      5444    7        0.000000000000     103.035956439931     103.118770080000
      5445    2        0.901330861660     101.474805578561     101.559385040000
      5446    8        0.901330861660     104.597107291289     101.559385040000
      5447    6        2.703992594992     101.474805578561     100.000000000000
      5448    4        2.703992594992     101.474805578561     103.118770080000
      5449   12        2.703992594992     104.597107291289     100.000000000000
      5450   10        2.703992594992     104.597107291289     103.118770080000
      5451    5        3.605323466663      99.913654727203     101.559385040000
      5452   11        3.605323466663     103.035956439931     101.559385040000
      5453    3        0.000000000000     106.158258147653     100.000000000000
      5454    1        0.000000000000     106.158258147653     103.118770080000
      5455    9        0.000000000000     109.280559860381     100.000000000000
      5456    7        0.000000000000     109.280559860381     103.118770080000
      5457    2        0.901330861660     107.719408999011     101.559385040000
      5458    8        0.901330861660     110.841710711739     101.559385040000
      5459    6        2.703992594992     107.719408999011     100.000000000000
      5460    4        2.703992594992     107.719408999011     103.118770080000
      5461   12        2.703992594992     110.841710711739     100.000000000000
      5462   10        2.703992594992     110.841710711739     103.118770080000
      5463    5        3.605323466663     106.158258147653     101.559385040000
      5464   11        3.605323466663     109.280559860381     101.559385040000
      5465    3        5.407985199995      74.935241045402     100.000000000000
      5466    1        5.407985199995      74.935241045402     103.118770080000
      5467    9        5.407985199995      78.057542758130     100.000000000000
      5468    7        5.407985199995      78.057542758130     103.118770080000
      5469    2        6.309316061655      76.496391896760     101.559385040000
      5470    8        6.309316061655      79.618693609488     101.559385040000
      5471    6        8.111977794986      76.496391896760     100.000000000000
      5472    4        8.111977794986      76.496391896760     103.118770080000
      5473   12        8.111977794986      79.618693609488     100.000000000000
      5474   10        8.111977794986      79.618693609488     103.118770080000
      5475    5        9.013308666658      74.935241045402     101.559385040000
      5476   11        9.013308666658      78.057542758130     101.559385040000
      5477    3        5.407985199995      81.179844465852     100.000000000000
      5478    1        5.407985199995      81.179844465852     103.118770080000
      5479    9        5.407985199995      84.302146178580     100.000000000000
      5480    7        5.407985199995      84.302146178580     103.118770080000
      5481    2        6.309316061655      82.740995317210     101.559385040000
      5482    8        6.309316061655      85.863297029938     101.559385040000
      5483    6        8.111977794986      82.740995317210     100.000000000000
      5484    4        8.111977794986      82.740995317210     103.118770080000
      5485   12        8.111977794986      85.863297029938     100.000000000000
      5486   10        8.111977794986      85.863297029938     103.118770080000
      5487    5        9.013308666658      81.179844465852     101.559385040000
      5488   11        9.013308666658      84.302146178580     101.559385040000
      5489    3        5.407985199995      87.424447886302     100.000000000000
      5490    1        5.407985199995      87.424447886302     103.118770080000
      5491    9        5.407985199995      90.546749599030     100.000000000000
      5492    7        5.407985199995      90.546749599030     103.118770080000
      5493    2        6.309316061655      88.985598737661     101.559385040000
      5494    8        6.309316061655      92.107900450389     101.559385040000
      5495    6        8.111977794986      88.985598737661     100.000000000000
      5496    4        8.111977794986      88.985598737661     103.118770080000
      5497   12        8.111977794986      92.107900450389     100.000000000000
      5498   10        8.111977794986      92.107900450389     103.118770080000
      5499    5        9.013308666658      87.424447886302     101.559385040000
      5500   11        9.013308666658      90.546749599030     101.559385040000
      5501    3        5.407985199995      93.669051306752     100.000000000000
      5502    1        5.407985199995      93.669051306752     103.118770080000
      5503    9        5.407985199995      96.791353019480     100.000000000000
      5504    7        5.407985199995      96.791353019480     103.118770080000
      5505    2        6.309316061655      95.230202158111     101.559385040000
      5506    8        6.309316061655      98.352503870839     101.559385040000
      5507    6        8.111977794986      95.230202158111     100.000000000000
      5508    4        8.111977794986      95.230202158111     103.118770080000
      5509   12        8.111977794986      98.352503870839     100.000000000000
      5510   10        8.111977794986      98.352503870839     103.118770080000
      5511    5        9.013308666658      93.669051306752     101.559385040000
      5512   11        9.013308666658      96.791353019480     101.559385040000
      5513    3        5.407985199995      99.913654727203     100.000000000000
      5514    1        5.407985199995      99.913654727203     103.118770080000
      5515    9        5.407985199995     103.035956439931     100.000000000000
      5516    7        5.407985199995     103.035956439931     103.118770080000
      5517    2        6.309316061655     101.474805578561     101.559385040000
      5518    8        6.309316061655     104.597107291289     101.559385040000
      5519    6        8.111977794986     101.474805578561     100.000000000000
      5520    4        8.111977794986     101.474805578561     103.118770080000
      5521   12        8.111977794986     104.597107291289     100.000000000000
      5522   10        8.111977794986     104.597107291289     103.118770080000
      5523    5        9.013308666658      99.913654727203     101.559385040000
      5524   11        9.013308666658     103.035956439931     101.559385040000
      5525    3        5.407985199995     106.158258147653     100.000000000000
      5526    1        5.407985199995     106.158258147653     103.118770080000
      5527    9        5.407985199995     109.280559860381     100.000000000000
      5528    7        5.407985199995     109.280559860381     103.118770080000
      5529    2        6.309316061655     107.719408999011     101.559385040000
      5530    8        6.309316061655     110.841710711739     101.559385040000
      5531    6        8.111977794986     107.719408999011     100.000000000000
      5532    4        8.111977794986     107.719408999011     103.118770080000
      5533   12        8.111977794986     110.841710711739     100.000000000000
      5534   10        8.111977794986     110.841710711739     103.118770080000
      5535    5        9.013308666658     106.158258147653     101.559385040000
      5536   11        9.013308666658     109.280559860381     101.559385040000
      5537    3       10.815970399989      74.935241045402     100.000000000000
      5538    1       10.815970399989      74.935241045402     103.118770080000
      5539    9       10.815970399989      78.057542758130     100.000000000000
      5540    7       10.815970399989      78.057542758130     103.118770080000
      5541    2       11.717301261649      76.496391896760     101.559385040000
      5542    8       11.717301261649      79.618693609488     101.559385040000
      5543    6       13.519962994981      76.496391896760     100.000000000000
      5544    4       13.519962994981      76.496391896760     103.118770080000
      5545   12       13.519962994981      79.618693609488     100.000000000000
      5546   10       13.519962994981      79.618693609488     103.118770080000
      5547    5       14.421293866652      74.935241045402     101.559385040000
      5548   11       14.421293866652      78.057542758130     101.559385040000
      5549    3       10.815970399989      81.179844465852     100.000000000000
      5550    1       10.815970399989      81.179844465852     103.118770080000
      5551    9       10.815970399989      84.302146178580     100.000000000000
      5552    7       10.815970399989      84.302146178580     103.118770080000
      5553    2       11.717301261649      82.740995317210     101.559385040000
      5554    8       11.717301261649      85.863297029938     101.559385040000
      5555    6       13.519962994981      82.740995317210     100.000000000000
      5556    4       13.519962994981      82.740995317210     103.118770080000
      5557   12       13.519962994981      85.863297029938     100.000000000000
      5558   10       13.519962994981      85.863297029938     103.118770080000
      5559    5       14.421293866652      81.179844465852     101.559385040000
      5560   11       14.421293866652      84.302146178580     101.559385040000
      5561    3       10.815970399989      87.424447886302     100.000000000000
      5562    1       10.815970399989      87.424447886302     103.118770080000
      5563    9       10.815970399989      90.546749599030     100.000000000000
      5564    7       10.815970399989      90.546749599030     103.118770080000
      5565    2       11.717301261649      88.985598737661     101.559385040000
      5566    8       11.717301261649      92.107900450389     101.559385040000
      5567    6       13.519962994981      88.985598737661     100.000000000000
      5568    4       13.519962994981      88.985598737661     103.118770080000
      5569   12       13.519962994981      92.107900450389     100.000000000000
      5570   10       13.519962994981      92.107900450389     103.118770080000
      5571    5       14.421293866652      87.424447886302     101.559385040000
      5572   11       14.421293866652      90.546749599030     101.559385040000
      5573    3       10.815970399989      93.669051306752     100.000000000000
      5574    1       10.815970399989      93.669051306752     103.118770080000
      5575    9       10.815970399989      96.791353019480     100.000000000000
      5576    7       10.815970399989      96.791353019480     103.118770080000
      5577    2       11.717301261649      95.230202158111     101.559385040000
      5578    8       11.717301261649      98.352503870839     101.559385040000
      5579    6       13.519962994981      95.230202158111     100.000000000000
      5580    4       13.519962994981      95.230202158111     103.118770080000
      5581   12       13.519962994981      98.352503870839     100.000000000000
      5582   10       13.519962994981      98.352503870839     103.118770080000
      5583    5       14.421293866652      93.669051306752     101.559385040000
      5584   11       14.421293866652      96.791353019480     101.559385040000
      5585    3       10.815970399989      99.913654727203     100.000000000000
      5586    1       10.815970399989      99.913654727203     103.118770080000
      5587    9       10.815970399989     103.035956439931     100.000000000000
      5588    7       10.815970399989     103.035956439931     103.118770080000
      5589    2       11.717301261649     101.474805578561     101.559385040000
      5590    8       11.717301261649     104.597107291289     101.559385040000
      5591    6       13.519962994981     101.474805578561     100.000000000000
      5592    4       13.519962994981     101.474805578561     103.118770080000
      5593   12       13.519962994981     104.597107291289     100.000000000000
      5594   10       13.519962994981     104.597107291289     103.118770080000
      5595    5       14.421293866652      99.913654727203     101.559385040000
      5596   11       14.421293866652     103.035956439931     101.559385040000
      5597    3       10.815970399989     106.158258147653     100.000000000000
      5598    1       10.815970399989     106.158258147653     103.118770080000
      5599    9       10.815970399989     109.280559860381     100.000000000000
      5600    7       10.815970399989     109.280559860381     103.118770080000
      5601    2       11.717301261649     107.719408999011     101.559385040000
      5602    8       11.717301261649     110.841710711739     101.559385040000
      5603    6       13.519962994981     107.719408999011     100.000000000000
      5604    4       13.519962994981     107.719408999011     103.118770080000
      5605   12       13.519962994981     110.841710711739     100.000000000000
      5606   10       13.519962994981     110.841710711739     103.118770080000
      5607    5       14.421293866652     106.158258147653     101.559385040000
      5608   11       14.421293866652     109.280559860381     101.559385040000
      5609    3       16.223955599984      74.935241045402     100.000000000000
      5610    1       16.223955599984      74.935241045402     103.118770080000
      5611    9       16.223955599984      78.057542758130     100.000000000000
      5612    7       16.223955599984      78.057542758130     103.118770080000
      5613    2       17.125286461644      76.496391896760     101.559385040000
      5614    8       17.125286461644      79.618693609488     101.559385040000
      5615    6       18.927948194975      76.496391896760     100.000000000000
      5616    4       18.927948194975      76.496391896760     103.118770080000
      5617   12       18.927948194975      79.618693609488     100.000000000000
      5618   10       18.927948194975      79.618693609488     103.118770080000
      5619    5       19.829279066647      74.935241045402     101.559385040000
      5620   11       19.829279066647      78.057542758130     101.559385040000
      5621    3       16.223955599984      81.179844465852     100.000000000000
      5622    1       16.223955599984      81.179844465852     103.118770080000
      5623    9       16.223955599984      84.302146178580     100.000000000000
      5624    7       16.223955599984      84.302146178580     103.118770080000
      5625    2       17.125286461644      82.740995317210     101.559385040000
      5626    8       17.125286461644      85.863297029938     101.559385040000
      5627    6       18.927948194975      82.740995317210     100.000000000000
      5628    4       18.927948194975      82.740995317210     103.118770080000
      5629   12       18.927948194975      85.863297029938     100.000000000000
      5630   10       18.927948194975      85.863297029938     103.118770080000
      5631    5       19.829279066647      81.179844465852     101.559385040000
      5632   11       19.829279066647      84.302146178580     101.559385040000
      5633    3       16.223955599984      87.424447886302     100.000000000000
      5634    1       16.223955599984      87.424447886302     103.118770080000
      5635    9       16.223955599984      90.546749599030     100.000000000000
      5636    7       16.223955599984      90.546749599030     103.118770080000
      5637    2       17.125286461644      88.985598737661     101.559385040000
      5638    8       17.125286461644      92.107900450389     101.559385040000
      5639    6       18.927948194975      88.985598737661     100.000000000000
      5640    4       18.927948194975      88.985598737661     103.118770080000
      5641   12       18.927948194975      92.107900450389     100.000000000000
      5642   10       18.927948194975      92.107900450389     103.118770080000
      5643    5       19.829279066647      87.424447886302     101.559385040000
      5644   11       19.829279066647      90.546749599030     101.559385040000
      5645    3       16.223955599984      93.669051306752     100.000000000000
      5646    1       16.223955599984      93.669051306752     103.118770080000
      5647    9       16.223955599984      96.791353019480     100.000000000000
      5648    7       16.223955599984      96.791353019480     103.118770080000
      5649    2       17.125286461644      95.230202158111     101.559385040000
      5650    8       17.125286461644      98.352503870839     101.559385040000
      5651    6       18.927948194975      95.230202158111     100.000000000000
      5652    4       18.927948194975      95.230202158111     103.118770080000
      5653   12       18.927948194975      98.352503870839     100.000000000000
      5654   10       18.927948194975      98.352503870839     103.118770080000
      5655    5       19.829279066647      93.669051306752     101.559385040000
      5656   11       19.829279066647      96.791353019480     101.559385040000
      5657    3       16.223955599984      99.913654727203     100.000000000000
      5658    1       16.223955599984      99.913654727203     103.118770080000
      5659    9       16.223955599984     103.035956439931     100.000000000000
      5660    7       16.223955599984     103.035956439931     103.118770080000
      5661    2       17.125286461644     101.474805578561     101.559385040000
      5662    8       17.125286461644     104.597107291289     101.559385040000
      5663    6       18.927948194975     101.474805578561     100.000000000000
      5664    4       18.927948194975     101.474805578561     103.118770080000
      5665   12       18.927948194975     104.597107291289     100.000000000000
      5666   10       18.927948194975     104.597107291289     103.118770080000
      5667    5       19.829279066647      99.913654727203     101.559385040000
      5668   11       19.829279066647     103.035956439931     101.559385040000
      5669    3       16.223955599984     106.158258147653     100.000000000000
      5670    1       16.223955599984     106.158258147653     103.118770080000
      5671    9       16.223955599984     109.280559860381     100.000000000000
      5672    7       16.223955599984     109.280559860381     103.118770080000
      5673    2       17.125286461644     107.719408999011     101.559385040000
      5674    8       17.125286461644     110.841710711739     101.559385040000
      5675    6       18.927948194975     107.719408999011     100.000000000000
      5676    4       18.927948194975     107.719408999011     103.118770080000
      5677   12       18.927948194975     110.841710711739     100.000000000000
      5678   10       18.927948194975     110.841710711739     103.118770080000
      5679    5       19.829279066647     106.158258147653     101.559385040000
      5680   11       19.829279066647     109.280559860381     101.559385040000
      5681    3       21.631940799978      74.935241045402     100.000000000000
      5682    1       21.631940799978      74.935241045402     103.118770080000
      5683    9       21.631940799978      78.057542758130     100.000000000000
      5684    7       21.631940799978      78.057542758130     103.118770080000
      5685    2       22.533271661638      76.496391896760     101.559385040000
      5686    8       22.533271661638      79.618693609488     101.559385040000
      5687    6       24.335933394970      76.496391896760     100.000000000000
      5688    4       24.335933394970      76.496391896760     103.118770080000
      5689   12       24.335933394970      79.618693609488     100.000000000000
      5690   10       24.335933394970      79.618693609488     103.118770080000
      5691    5       25.237264266641      74.935241045402     101.559385040000
      5692   11       25.237264266641      78.057542758130     101.559385040000
      5693    3       21.631940799978      81.179844465852     100.000000000000
      5694    1       21.631940799978      81.179844465852     103.118770080000
      5695    9       21.631940799978      84.302146178580     100.000000000000
      5696    7       21.631940799978      84.302146178580     103.118770080000
      5697    2       22.533271661638      82.740995317210     101.559385040000
      5698    8       22.533271661638      85.863297029938     101.559385040000
      5699    6       24.335933394970      82.740995317210     100.000000000000
      5700    4       24.335933394970      82.740995317210     103.118770080000
      5701   12       24.335933394970      85.863297029938     100.000000000000
      5702   10       24.335933394970      85.863297029938     103.118770080000
      5703    5       25.237264266641      81.179844465852     101.559385040000
      5704   11       25.237264266641      84.302146178580     101.559385040000
      5705    3       21.631940799978      87.424447886302     100.000000000000
      5706    1       21.631940799978      87.424447886302     103.118770080000
      5707    9       21.631940799978      90.546749599030     100.000000000000
      5708    7       21.631940799978      90.546749599030     103.118770080000
      5709    2       22.533271661638      88.985598737661     101.559385040000
      5710    8       22.533271661638      92.107900450389     101.559385040000
      5711    6       24.335933394970      88.985598737661     100.000000000000
      5712    4       24.335933394970      88.985598737661     103.118770080000
      5713   12       24.335933394970      92.107900450389     100.000000000000
      5714   10       24.335933394970      92.107900450389     103.118770080000
      5715    5       25.237264266641      87.424447886302     101.559385040000
      5716   11       25.237264266641      90.546749599030     101.559385040000
      5717    3       21.631940799978      93.669051306752     100.000000000000
      5718    1       21.631940799978      93.669051306752     103.118770080000
      5719    9       21.631940799978      96.791353019480     100.000000000000
      5720    7       21.631940799978      96.791353019480     103.118770080000
      5721    2       22.533271661638      95.230202158111     101.559385040000
      5722    8       22.533271661638      98.352503870839     101.559385040000
      5723    6       24.335933394970      95.230202158111     100.000000000000
      5724    4       24.335933394970      95.230202158111     103.118770080000
      5725   12       24.335933394970      98.352503870839     100.000000000000
      5726   10       24.335933394970      98.352503870839     103.118770080000
      5727    5       25.237264266641      93.669051306752     101.559385040000
      5728   11       25.237264266641      96.791353019480     101.559385040000
      5729    3       21.631940799978      99.913654727203     100.000000000000
      5730    1       21.631940799978      99.913654727203     103.118770080000
      5731    9       21.631940799978     103.035956439931     100.000000000000
      5732    7       21.631940799978     103.035956439931     103.118770080000
      5733    2       22.533271661638     101.474805578561     101.559385040000
      5734    8       22.533271661638     104.597107291289     101.559385040000
      5735    6       24.335933394970     101.474805578561     100.000000000000
      5736    4       24.335933394970     101.474805578561     103.118770080000
      5737   12       24.335933394970     104.597107291289     100.000000000000
      5738   10       24.335933394970     104.597107291289     103.118770080000
      5739    5       25.237264266641      99.913654727203     101.559385040000
      5740   11       25.237264266641     103.035956439931     101.559385040000
      5741    3       21.631940799978     106.158258147653     100.000000000000
      5742    1       21.631940799978     106.158258147653     103.118770080000
      5743    9       21.631940799978     109.280559860381     100.000000000000
      5744    7       21.631940799978     109.280559860381     103.118770080000
      5745    2       22.533271661638     107.719408999011     101.559385040000
      5746    8       22.533271661638     110.841710711739     101.559385040000
      5747    6       24.335933394970     107.719408999011     100.000000000000
      5748    4       24.335933394970     107.719408999011     103.118770080000
      5749   12       24.335933394970     110.841710711739     100.000000000000
      5750   10       24.335933394970     110.841710711739     103.118770080000
      5751    5       25.237264266641     106.158258147653     101.559385040000
      5752   11       25.237264266641     109.280559860381     101.559385040000
      5753    3       27.039925999973      74.935241045402     100.000000000000
      5754    1       27.039925999973      74.935241045402     103.118770080000
      5755    9       27.039925999973      78.057542758130     100.000000000000
      5756    7       27.039925999973      78.057542758130     103.118770080000
      5757    2       27.941256861633      76.496391896760     101.559385040000
      5758    8       27.941256861633      79.618693609488     101.559385040000
      5759    6       29.743918594964      76.496391896760     100.000000000000
      5760    4       29.743918594964      76.496391896760     103.118770080000
      5761   12       29.743918594964      79.618693609488     100.000000000000
      5762   10       29.743918594964      79.618693609488     103.118770080000
      5763    5       30.645249466636      74.935241045402     101.559385040000
      5764   11       30.645249466636      78.057542758130     101.559385040000
      5765    3       27.039925999973      81.179844465852     100.000000000000
      5766    1       27.039925999973      81.179844465852     103.118770080000
      5767    9       27.039925999973      84.302146178580     100.000000000000
      5768    7       27.039925999973      84.302146178580     103.118770080000
      5769    2       27.941256861633      82.740995317210     101.559385040000
      5770    8       27.941256861633      85.863297029938     101.559385040000
      5771    6       29.743918594964      82.740995317210     100.000000000000
      5772    4       29.743918594964      82.740995317210     103.118770080000
      5773   12       29.743918594964      85.863297029938     100.000000000000
      5774   10       29.743918594964      85.863297029938     103.118770080000
      5775    5       30.645249466636      81.179844465852     101.559385040000
      5776   11       30.645249466636      84.302146178580     101.559385040000
      5777    3       27.039925999973      87.424447886302     100.000000000000
      5778    1       27.039925999973      87.424447886302     103.118770080000
      5779    9       27.039925999973      90.546749599030     100.000000000000
      5780    7       27.039925999973      90.546749599030     103.118770080000
      5781    2       27.941256861633      88.985598737661     101.559385040000
      5782    8       27.941256861633      92.107900450389     101.559385040000
      5783    6       29.743918594964      88.985598737661     100.000000000000
      5784    4       29.743918594964      88.985598737661     103.118770080000
      5785   12       29.743918594964      92.107900450389     100.000000000000
      5786   10       29.743918594964      92.107900450389     103.118770080000
      5787    5       30.645249466636      87.424447886302     101.559385040000
      5788   11       30.645249466636      90.546749599030     101.559385040000
      5789    3       27.039925999973      93.669051306752     100.000000000000
      5790    1       27.039925999973      93.669051306752     103.118770080000
      5791    9       27.039925999973      96.791353019480     100.000000000000
      5792    7       27.039925999973      96.791353019480     103.118770080000
      5793    2       27.941256861633      95.230202158111     101.559385040000
      5794    8       27.941256861633      98.352503870839     101.559385040000
      5795    6       29.743918594964      95.230202158111     100.000000000000
      5796    4       29.743918594964      95.230202158111     103.118770080000
      5797   12       29.743918594964      98.352503870839     100.000000000000
      5798   10       29.743918594964      98.352503870839     103.118770080000
      5799    5       30.645249466636      93.669051306752     101.559385040000
      5800   11       30.645249466636      96.791353019480     101.559385040000
      5801    3       27.039925999973      99.913654727203     100.000000000000
      5802    1       27.039925999973      99.913654727203     103.118770080000
      5803    9       27.039925999973     103.035956439931     100.000000000000
      5804    7       27.039925999973     103.035956439931     103.118770080000
      5805    2       27.941256861633     101.474805578561     101.559385040000
      5806    8       27.941256861633     104.597107291289     101.559385040000
      5807    6       29.743918594964     101.474805578561     100.000000000000
      5808    4       29.743918594964     101.474805578561     103.118770080000
      5809   12       29.743918594964     104.597107291289     100.000000000000
      5810   10       29.743918594964     104.597107291289     103.118770080000
      5811    5       30.645249466636      99.913654727203     101.559385040000
      5812   11       30.645249466636     103.035956439931     101.559385040000
      5813    3       27.039925999973     106.158258147653     100.000000000000
      5814    1       27.039925999973     106.158258147653     103.118770080000
      5815    9       27.039925999973     109.280559860381     100.000000000000
      5816    7       27.039925999973     109.280559860381     103.118770080000
      5817    2       27.941256861633     107.719408999011     101.559385040000
      5818    8       27.941256861633     110.841710711739     101.559385040000
      5819    6       29.743918594964     107.719408999011     100.000000000000
      5820    4       29.743918594964     107.719408999011     103.118770080000
      5821   12       29.743918594964     110.841710711739     100.000000000000
      5822   10       29.743918594964     110.841710711739     103.118770080000
      5823    5       30.645249466636     106.158258147653     101.559385040000
      5824   11       30.645249466636     109.280559860381     101.559385040000
      5825    3       32.447911199967      74.935241045402     100.000000000000
      5826    1       32.447911199967      74.935241045402     103.118770080000
      5827    9       32.447911199967      78.057542758130     100.000000000000
      5828    7       32.447911199967      78.057542758130     103.118770080000
      5829    2       33.349242061627      76.496391896760     101.559385040000
      5830    8       33.349242061627      79.618693609488     101.559385040000
      5831    6       35.151903794959      76.496391896760     100.000000000000
      5832    4       35.151903794959      76.496391896760     103.118770080000
      5833   12       35.151903794959      79.618693609488     100.000000000000
      5834   10       35.151903794959      79.618693609488     103.118770080000
      5835    5       36.053234666630      74.935241045402     101.559385040000
      5836   11       36.053234666630      78.057542758130     101.559385040000
      5837    3       32.447911199967      81.179844465852     100.000000000000
      5838    1       32.447911199967      81.179844465852     103.118770080000
      5839    9       32.447911199967      84.302146178580     100.000000000000
      5840    7       32.447911199967      84.302146178580     103.118770080000
      5841    2       33.349242061627      82.740995317210     101.559385040000
      5842    8       33.349242061627      85.863297029938     101.559385040000
      5843    6       35.151903794959      82.740995317210     100.000000000000
      5844    4       35.151903794959      82.740995317210     103.118770080000
      5845   12       35.151903794959      85.863297029938     100.000000000000
      5846   10       35.151903794959      85.863297029938     103.118770080000
      5847    5       36.053234666630      81.179844465852     101.559385040000
      5848   11       36.053234666630      84.302146178580     101.559385040000
      5849    3       32.447911199967      87.424447886302     100.000000000000
      5850    1       32.447911199967      87.424447886302     103.118770080000
      5851    9       32.447911199967      90.546749599030     100.000000000000
      5852    7       32.447911199967      90.546749599030     103.118770080000
      5853    2       33.349242061627      88.985598737661     101.559385040000
      5854    8       33.349242061627      92.107900450389     101.559385040000
      5855    6       35.151903794959      88.985598737661     100.000000000000
      5856    4       35.151903794959      88.985598737661     103.118770080000
      5857   12       35.151903794959      92.107900450389     100.000000000000
      5858   10       35.151903794959      92.107900450389     103.118770080000
      5859    5       36.053234666630      87.424447886302     101.559385040000
      5860   11       36.053234666630      90.546749599030     101.559385040000
      5861    3       32.447911199967      93.669051306752     100.000000000000
      5862    1       32.447911199967      93.669051306752     103.118770080000
      5863    9       32.447911199967      96.791353019480     100.000000000000
      5864    7       32.447911199967      96.791353019480     103.118770080000
      5865    2       33.349242061627      95.230202158111     101.559385040000
      5866    8       33.349242061627      98.352503870839     101.559385040000
      5867    6       35.151903794959      95.230202158111     100.000000000000
      5868    4       35.151903794959      95.230202158111     103.118770080000
      5869   12       35.151903794959      98.352503870839     100.000000000000
      5870   10       35.151903794959      98.352503870839     103.118770080000
      5871    5       36.053234666630      93.669051306752     101.559385040000
      5872   11       36.053234666630      96.791353019480     101.559385040000
      5873    3       32.447911199967      99.913654727203     100.000000000000
      5874    1       32.447911199967      99.913654727203     103.118770080000
      5875    9       32.447911199967     103.035956439931     100.000000000000
      5876    7       32.447911199967     103.035956439931     103.118770080000
      5877    2       33.349242061627     101.474805578561     101.559385040000
      5878    8       33.349242061627     104.597107291289     101.559385040000
      5879    6       35.151903794959     101.474805578561     100.000000000000
      5880    4       35.151903794959     101.474805578561     103.118770080000
      5881   12       35.151903794959     104.597107291289     100.000000000000
      5882   10       35.151903794959     104.597107291289     103.118770080000
      5883    5       36.053234666630      99.913654727203     101.559385040000
      5884   11       36.053234666630     103.035956439931     101.559385040000
      5885    3       32.447911199967     106.158258147653     100.000000000000
      5886    1       32.447911199967     106.158258147653     103.118770080000
      5887    9       32.447911199967     109.280559860381     100.000000000000
      5888    7       32.447911199967     109.280559860381     103.118770080000
      5889    2       33.349242061627     107.719408999011     101.559385040000
      5890    8       33.349242061627     110.841710711739     101.559385040000
      5891    6       35.151903794959     107.719408999011     100.000000000000
      5892    4       35.151903794959     107.719408999011     103.118770080000
      5893   12       35.151903794959     110.841710711739     100.000000000000
      5894   10       35.151903794959     110.841710711739     103.118770080000
      5895    5       36.053234666630     106.158258147653     101.559385040000
      5896   11       36.053234666630     109.280559860381     101.559385040000
      5897    3       37.855896399962      74.935241045402     100.000000000000
      5898    1       37.855896399962      74.935241045402     103.118770080000
      5899    9       37.855896399962      78.057542758130     100.000000000000
      5900    7       37.855896399962      78.057542758130     103.118770080000
      5901    2       38.757227261622      76.496391896760     101.559385040000
      5902    8       38.757227261622      79.618693609488     101.559385040000
      5903    6       40.559888994953      76.496391896760     100.000000000000
      5904    4       40.559888994953      76.496391896760     103.118770080000
      5905   12       40.559888994953      79.618693609488     100.000000000000
      5906   10       40.559888994953      79.618693609488     103.118770080000
      5907    5       41.461219866625      74.935241045402     101.559385040000
      5908   11       41.461219866625      78.057542758130     101.559385040000
      5909    3       37.855896399962      81.179844465852     100.000000000000
      5910    1       37.855896399962      81.179844465852     103.118770080000
      5911    9       37.855896399962      84.302146178580     100.000000000000
      5912    7       37.855896399962      84.302146178580     103.118770080000
      5913    2       38.757227261622      82.740995317210     101.559385040000
      5914    8       38.757227261622      85.863297029938     101.559385040000
      5915    6       40.559888994953      82.740995317210     100.000000000000
      5916    4       40.559888994953      82.740995317210     103.118770080000
      5917   12       40.559888994953      85.863297029938     100.000000000000
      5918   10       40.559888994953      85.863297029938     103.118770080000
      5919    5       41.461219866625      81.179844465852     101.559385040000
      5920   11       41.461219866625      84.302146178580     101.559385040000
      5921    3       37.855896399962      87.424447886302     100.000000000000
      5922    1       37.855896399962      87.424447886302     103.118770080000
      5923    9       37.855896399962      90.546749599030     100.000000000000
      5924    7       37.855896399962      90.546749599030     103.118770080000
      5925    2       38.757227261622      88.985598737661     101.559385040000
      5926    8       38.757227261622      92.107900450389     101.559385040000
      5927    6       40.559888994953      88.985598737661     100.000000000000
      5928    4       40.559888994953      88.985598737661     103.118770080000
      5929   12       40.559888994953      92.107900450389     100.000000000000
      5930   10       40.559888994953      92.107900450389     103.118770080000
      5931    5       41.461219866625      87.424447886302     101.559385040000
      5932   11       41.461219866625      90.546749599030     101.559385040000
      5933    3       37.855896399962      93.669051306752     100.000000000000
      5934    1       37.855896399962      93.669051306752     103.118770080000
      5935    9       37.855896399962      96.791353019480     100.000000000000
      5936    7       37.855896399962      96.791353019480     103.118770080000
      5937    2       38.757227261622      95.230202158111     101.559385040000
      5938    8       38.757227261622      98.352503870839     101.559385040000
      5939    6       40.559888994953      95.230202158111     100.000000000000
      5940    4       40.559888994953      95.230202158111     103.118770080000
      5941   12       40.559888994953      98.352503870839     100.000000000000
      5942   10       40.559888994953      98.352503870839     103.118770080000
      5943    5       41.461219866625      93.669051306752     101.559385040000
      5944   11       41.461219866625      96.791353019480     101.559385040000
      5945    3       37.855896399962      99.913654727203     100.000000000000
      5946    1       37.855896399962      99.913654727203     103.118770080000
      5947    9       37.855896399962     103.035956439931     100.000000000000
      5948    7       37.855896399962     103.035956439931     103.118770080000
      5949    2       38.757227261622     101.474805578561     101.559385040000
      5950    8       38.757227261622     104.597107291289     101.559385040000
      5951    6       40.559888994953     101.474805578561     100.000000000000
      5952    4       40.559888994953     101.474805578561     103.118770080000
      5953   12       40.559888994953     104.597107291289     100.000000000000
      5954   10       40.559888994953     104.597107291289     103.118770080000
      5955    5       41.461219866625      99.913654727203     101.559385040000
      5956   11       41.461219866625     103.035956439931     101.559385040000
      5957    3       37.855896399962     106.158258147653     100.000000000000
      5958    1       37.855896399962     106.158258147653     103.118770080000
      5959    9       37.855896399962     109.280559860381     100.000000000000
      5960    7       37.855896399962     109.280559860381     103.118770080000
      5961    2       38.757227261622     107.719408999011     101.559385040000
      5962    8       38.757227261622     110.841710711739     101.559385040000
      5963    6       40.559888994953     107.719408999011     100.000000000000
      5964    4       40.559888994953     107.719408999011     103.118770080000
      5965   12       40.559888994953     110.841710711739     100.000000000000
      5966   10       40.559888994953     110.841710711739     103.118770080000
      5967    5       41.461219866625     106.158258147653     101.559385040000
      5968   11       41.461219866625     109.280559860381     101.559385040000
      5969    3       43.263881599956      74.935241045402     100.000000000000
      5970    1       43.263881599956      74.935241045402     103.118770080000
      5971    9       43.263881599956      78.057542758130     100.000000000000
      5972    7       43.263881599956      78.057542758130     103.118770080000
      5973    2       44.165212461616      76.496391896760     101.559385040000
      5974    8       44.165212461616      79.618693609488     101.559385040000
      5975    6       45.967874194948      76.496391896760     100.000000000000
      5976    4       45.967874194948      76.496391896760     103.118770080000
      5977   12       45.967874194948      79.618693609488     100.000000000000
      5978   10       45.967874194948      79.618693609488     103.118770080000
      5979    5       46.869205066619      74.935241045402     101.559385040000
      5980   11       46.869205066619      78.057542758130     101.559385040000
      5981    3       43.263881599956      81.179844465852     100.000000000000
      5982    1       43.263881599956      81.179844465852     103.118770080000
      5983    9       43.263881599956      84.302146178580     100.000000000000
      5984    7       43.263881599956      84.302146178580     103.118770080000
      5985    2       44.165212461616      82.740995317210     101.559385040000
      5986    8       44.165212461616      85.863297029938     101.559385040000
      5987    6       45.967874194948      82.740995317210     100.000000000000
      5988    4       45.967874194948      82.740995317210     103.118770080000
      5989   12       45.967874194948      85.863297029938     100.000000000000
      5990   10       45.967874194948      85.863297029938     103.118770080000
      5991    5       46.869205066619      81.179844465852     101.559385040000
      5992   11       46.869205066619      84.302146178580     101.559385040000
      5993    3       43.263881599956      87.424447886302     100.000000000000
      5994    1       43.263881599956      87.424447886302     103.118770080000
      5995    9       43.263881599956      90.546749599030     100.000000000000
      5996    7       43.263881599956      90.546749599030     103.118770080000
      5997    2       44.165212461616      88.985598737661     101.559385040000
      5998    8       44.165212461616      92.107900450389     101.559385040000
      5999    6       45.967874194948      88.985598737661     100.000000000000
      6000    4       45.967874194948      88.985598737661     103.118770080000
      6001   12       45.967874194948      92.107900450389     100.000000000000
      6002   10       45.967874194948      92.107900450389     103.118770080000
      6003    5       46.869205066619      87.424447886302     101.559385040000
      6004   11       46.869205066619      90.546749599030     101.559385040000
      6005    3       43.263881599956      93.669051306752     100.000000000000
      6006    1       43.263881599956      93.669051306752     103.118770080000
      6007    9       43.263881599956      96.791353019480     100.000000000000
      6008    7       43.263881599956      96.791353019480     103.118770080000
      6009    2       44.165212461616      95.230202158111     101.559385040000
      6010    8       44.165212461616      98.352503870839     101.559385040000
      6011    6       45.967874194948      95.230202158111     100.000000000000
      6012    4       45.967874194948      95.230202158111     103.118770080000
      6013   12       45.967874194948      98.352503870839     100.000000000000
      6014   10       45.967874194948      98.352503870839     103.118770080000
      6015    5       46.869205066619      93.669051306752     101.559385040000
      6016   11       46.869205066619      96.791353019480     101.559385040000
      6017    3       43.263881599956      99.913654727203     100.000000000000
      6018    1       43.263881599956      99.913654727203     103.118770080000
      6019    9       43.263881599956     103.035956439931     100.000000000000
      6020    7       43.263881599956     103.035956439931     103.118770080000
      6021    2       44.165212461616     101.474805578561     101.559385040000
      6022    8       44.165212461616     104.597107291289     101.559385040000
      6023    6       45.967874194948     101.474805578561     100.000000000000
      6024    4       45.967874194948     101.474805578561     103.118770080000
      6025   12       45.967874194948     104.597107291289     100.000000000000
      6026   10       45.967874194948     104.597107291289     103.118770080000
      6027    5       46.869205066619      99.913654727203     101.559385040000
      6028   11       46.869205066619     103.035956439931     101.559385040000
      6029    3       43.263881599956     106.158258147653     100.000000000000
      6030    1       43.263881599956     106.158258147653     103.118770080000
      6031    9       43.263881599956     109.280559860381     100.000000000000
      6032    7       43.263881599956     109.280559860381     103.118770080000
      6033    2       44.165212461616     107.719408999011     101.559385040000
      6034    8       44.165212461616     110.841710711739     101.559385040000
      6035    6       45.967874194948     107.719408999011     100.000000000000
      6036    4       45.967874194948     107.719408999011     103.118770080000
      6037   12       45.967874194948     110.841710711739     100.000000000000
      6038   10       45.967874194948     110.841710711739     103.118770080000
      6039    5       46.869205066619     106.158258147653     101.559385040000
      6040   11       46.869205066619     109.280559860381     101.559385040000
      6041    3       48.671866799951      74.935241045402     100.000000000000
      6042    1       48.671866799951      74.935241045402     103.118770080000
      6043    9       48.671866799951      78.057542758130     100.000000000000
      6044    7       48.671866799951      78.057542758130     103.118770080000
      6045    2       49.573197661611      76.496391896760     101.559385040000
      6046    8       49.573197661611      79.618693609488     101.559385040000
      6047    6       51.375859394942      76.496391896760     100.000000000000
      6048    4       51.375859394942      76.496391896760     103.118770080000
      6049   12       51.375859394942      79.618693609488     100.000000000000
      6050   10       51.375859394942      79.618693609488     103.118770080000
      6051    5       52.277190266614      74.935241045402     101.559385040000
      6052   11       52.277190266614      78.057542758130     101.559385040000
      6053    3       48.671866799951      81.179844465852     100.000000000000
      6054    1       48.671866799951      81.179844465852     103.118770080000
      6055    9       48.671866799951      84.302146178580     100.000000000000
      6056    7       48.671866799951      84.302146178580     103.118770080000
      6057    2       49.573197661611      82.740995317210     101.559385040000
      6058    8       49.573197661611      85.863297029938     101.559385040000
      6059    6       51.375859394942      82.740995317210     100.000000000000
      6060    4       51.375859394942      82.740995317210     103.118770080000
      6061   12       51.375859394942      85.863297029938     100.000000000000
      6062   10       51.375859394942      85.863297029938     103.118770080000
      6063    5       52.277190266614      81.179844465852     101.559385040000
      6064   11       52.277190266614      84.302146178580     101.559385040000
      6065    3       48.671866799951      87.424447886302     100.000000000000
      6066    1       48.671866799951      87.424447886302     103.118770080000
      6067    9       48.671866799951      90.546749599030     100.000000000000
      6068    7       48.671866799951      90.546749599030     103.118770080000
      6069    2       49.573197661611      88.985598737661     101.559385040000
      6070    8       49.573197661611      92.107900450389     101.559385040000
      6071    6       51.375859394942      88.985598737661     100.000000000000
      6072    4       51.375859394942      88.985598737661     103.118770080000
      6073   12       51.375859394942      92.107900450389     100.000000000000
      6074   10       51.375859394942      92.107900450389     103.118770080000
      6075    5       52.277190266614      87.424447886302     101.559385040000
      6076   11       52.277190266614      90.546749599030     101.559385040000
      6077    3       48.671866799951      93.669051306752     100.000000000000
      6078    1       48.671866799951      93.669051306752     103.118770080000
      6079    9       48.671866799951      96.791353019480     100.000000000000
      6080    7       48.671866799951      96.791353019480     103.118770080000
      6081    2       49.573197661611      95.230202158111     101.559385040000
      6082    8       49.573197661611      98.352503870839     101.559385040000
      6083    6       51.375859394942      95.230202158111     100.000000000000
      6084    4       51.375859394942      95.230202158111     103.118770080000
      6085   12       51.375859394942      98.352503870839     100.000000000000
      6086   10       51.375859394942      98.352503870839     103.118770080000
      6087    5       52.277190266614      93.669051306752     101.559385040000
      6088   11       52.277190266614      96.791353019480     101.559385040000
      6089    3       48.671866799951      99.913654727203     100.000000000000
      6090    1       48.671866799951      99.913654727203     103.118770080000
      6091    9       48.671866799951     103.035956439931     100.000000000000
      6092    7       48.671866799951     103.035956439931     103.118770080000
      6093    2       49.573197661611     101.474805578561     101.559385040000
      6094    8       49.573197661611     104.597107291289     101.559385040000
      6095    6       51.375859394942     101.474805578561     100.000000000000
      6096    4       51.375859394942     101.474805578561     103.118770080000
      6097   12       51.375859394942     104.597107291289     100.000000000000
      6098   10       51.375859394942     104.597107291289     103.118770080000
      6099    5       52.277190266614      99.913654727203     101.559385040000
      6100   11       52.277190266614     103.035956439931     101.559385040000
      6101    3       48.671866799951     106.158258147653     100.000000000000
      6102    1       48.671866799951     106.158258147653     103.118770080000
      6103    9       48.671866799951     109.280559860381     100.000000000000
      6104    7       48.671866799951     109.280559860381     103.118770080000
      6105    2       49.573197661611     107.719408999011     101.559385040000
      6106    8       49.573197661611     110.841710711739     101.559385040000
      6107    6       51.375859394942     107.719408999011     100.000000000000
      6108    4       51.375859394942     107.719408999011     103.118770080000
      6109   12       51.375859394942     110.841710711739     100.000000000000
      6110   10       51.375859394942     110.841710711739     103.118770080000
      6111    5       52.277190266614     106.158258147653     101.559385040000
      6112   11       52.277190266614     109.280559860381     101.559385040000
      6113    3       54.079851999945      74.935241045402     100.000000000000
      6114    1       54.079851999945      74.935241045402     103.118770080000
      6115    9       54.079851999945      78.057542758130     100.000000000000
      6116    7       54.079851999945      78.057542758130     103.118770080000
      6117    2       54.981182861605      76.496391896760     101.559385040000
      6118    8       54.981182861605      79.618693609488     101.559385040000
      6119    6       56.783844594937      76.496391896760     100.000000000000
      6120    4       56.783844594937      76.496391896760     103.118770080000
      6121   12       56.783844594937      79.618693609488     100.000000000000
      6122   10       56.783844594937      79.618693609488     103.118770080000
      6123    5       57.685175466608      74.935241045402     101.559385040000
      6124   11       57.685175466608      78.057542758130     101.559385040000
      6125    3       54.079851999945      81.179844465852     100.000000000000
      6126    1       54.079851999945      81.179844465852     103.118770080000
      6127    9       54.079851999945      84.302146178580     100.000000000000
      6128    7       54.079851999945      84.302146178580     103.118770080000
      6129    2       54.981182861605      82.740995317210     101.559385040000
      6130    8       54.981182861605      85.863297029938     101.559385040000
      6131    6       56.783844594937      82.740995317210     100.000000000000
      6132    4       56.783844594937      82.740995317210     103.118770080000
      6133   12       56.783844594937      85.863297029938     100.000000000000
      6134   10       56.783844594937      85.863297029938     103.118770080000
      6135    5       57.685175466608      81.179844465852     101.559385040000
      6136   11       57.685175466608      84.302146178580     101.559385040000
      6137    3       54.079851999945      87.424447886302     100.000000000000
      6138    1       54.079851999945      87.424447886302     103.118770080000
      6139    9       54.079851999945      90.546749599030     100.000000000000
      6140    7       54.079851999945      90.546749599030     103.118770080000
      6141    2       54.981182861605      88.985598737661     101.559385040000
      6142    8       54.981182861605      92.107900450389     101.559385040000
      6143    6       56.783844594937      88.985598737661     100.000000000000
      6144    4       56.783844594937      88.985598737661     103.118770080000
      6145   12       56.783844594937      92.107900450389     100.000000000000
      6146   10       56.783844594937      92.107900450389     103.118770080000
      6147    5       57.685175466608      87.424447886302     101.559385040000
      6148   11       57.685175466608      90.546749599030     101.559385040000
      6149    3       54.079851999945      93.669051306752     100.000000000000
      6150    1       54.079851999945      93.669051306752     103.118770080000
      6151    9       54.079851999945      96.791353019480     100.000000000000
      6152    7       54.079851999945      96.791353019480     103.118770080000
      6153    2       54.981182861605      95.230202158111     101.559385040000
      6154    8       54.981182861605      98.352503870839     101.559385040000
      6155    6       56.783844594937      95.230202158111     100.000000000000
      6156    4       56.783844594937      95.230202158111     103.118770080000
      6157   12       56.783844594937      98.352503870839     100.000000000000
      6158   10       56.783844594937      98.352503870839     103.118770080000
      6159    5       57.685175466608      93.669051306752     101.559385040000
      6160   11       57.685175466608      96.791353019480     101.559385040000
      6161    3       54.079851999945      99.913654727203     100.000000000000
      6162    1       54.079851999945      99.913654727203     103.118770080000
      6163    9       54.079851999945     103.035956439931     100.000000000000
      6164    7       54.079851999945     103.035956439931     103.118770080000
      6165    2       54.981182861605     101.474805578561     101.559385040000
      6166    8       54.981182861605     104.597107291289     101.559385040000
      6167    6       56.783844594937     101.474805578561     100.000000000000
      6168    4       56.783844594937     101.474805578561     103.118770080000
      6169   12       56.783844594937     104.597107291289     100.000000000000
      6170   10       56.783844594937     104.597107291289     103.118770080000
      6171    5       57.685175466608      99.913654727203     101.559385040000
      6172   11       57.685175466608     103.035956439931     101.559385040000
      6173    3       54.079851999945     106.158258147653     100.000000000000
      6174    1       54.079851999945     106.158258147653     103.118770080000
      6175    9       54.079851999945     109.280559860381     100.000000000000
      6176    7       54.079851999945     109.280559860381     103.118770080000
      6177    2       54.981182861605     107.719408999011     101.559385040000
      6178    8       54.981182861605     110.841710711739     101.559385040000
      6179    6       56.783844594937     107.719408999011     100.000000000000
      6180    4       56.783844594937     107.719408999011     103.118770080000
      6181   12       56.783844594937     110.841710711739     100.000000000000
      6182   10       56.783844594937     110.841710711739     103.118770080000
      6183    5       57.685175466608     106.158258147653     101.559385040000
      6184   11       57.685175466608     109.280559860381     101.559385040000
      6185    3       59.487837199940      74.935241045402     100.000000000000
      6186    1       59.487837199940      74.935241045402     103.118770080000
      6187    9       59.487837199940      78.057542758130     100.000000000000
      6188    7       59.487837199940      78.057542758130     103.118770080000
      6189    2       60.389168061600      76.496391896760     101.559385040000
      6190    8       60.389168061600      79.618693609488     101.559385040000
      6191    6       62.191829794931      76.496391896760     100.000000000000
      6192    4       62.191829794931      76.496391896760     103.118770080000
      6193   12       62.191829794931      79.618693609488     100.000000000000
      6194   10       62.191829794931      79.618693609488     103.118770080000
      6195    5       63.093160666603      74.935241045402     101.559385040000
      6196   11       63.093160666603      78.057542758130     101.559385040000
      6197    3       59.487837199940      81.179844465852     100.000000000000
      6198    1       59.487837199940      81.179844465852     103.118770080000
      6199    9       59.487837199940      84.302146178580     100.000000000000
      6200    7       59.487837199940      84.302146178580     103.118770080000
      6201    2       60.389168061600      82.740995317210     101.559385040000
      6202    8       60.389168061600      85.863297029938     101.559385040000
      6203    6       62.191829794931      82.740995317210     100.000000000000
      6204    4       62.191829794931      82.740995317210     103.118770080000
      6205   12       62.191829794931      85.863297029938     100.000000000000
      6206   10       62.191829794931      85.863297029938     103.118770080000
      6207    5       63.093160666603      81.179844465852     101.559385040000
      6208   11       63.093160666603      84.302146178580     101.559385040000
      6209    3       59.487837199940      87.424447886302     100.000000000000
      6210    1       59.487837199940      87.424447886302     103.118770080000
      6211    9       59.487837199940      90.546749599030     100.000000000000
      6212    7       59.487837199940      90.546749599030     103.118770080000
      6213    2       60.389168061600      88.985598737661     101.559385040000
      6214    8       60.389168061600      92.107900450389     101.559385040000
      6215    6       62.191829794931      88.985598737661     100.000000000000
      6216    4       62.191829794931      88.985598737661     103.118770080000
      6217   12       62.191829794931      92.107900450389     100.000000000000
      6218   10       62.191829794931      92.107900450389     103.118770080000
      6219    5       63.093160666603      87.424447886302     101.559385040000
      6220   11       63.093160666603      90.546749599030     101.559385040000
      6221    3       59.487837199940      93.669051306752     100.000000000000
      6222    1       59.487837199940      93.669051306752     103.118770080000
      6223    9       59.487837199940      96.791353019480     100.000000000000
      6224    7       59.487837199940      96.791353019480     103.118770080000
      6225    2       60.389168061600      95.230202158111     101.559385040000
      6226    8       60.389168061600      98.352503870839     101.559385040000
      6227    6       62.191829794931      95.230202158111     100.000000000000
      6228    4       62.191829794931      95.230202158111     103.118770080000
      6229   12       62.191829794931      98.352503870839     100.000000000000
      6230   10       62.191829794931      98.352503870839     103.118770080000
      6231    5       63.093160666603      93.669051306752     101.559385040000
      6232   11       63.093160666603      96.791353019480     101.559385040000
      6233    3       59.487837199940      99.913654727203     100.000000000000
      6234    1       59.487837199940      99.913654727203     103.118770080000
      6235    9       59.487837199940     103.035956439931     100.000000000000
      6236    7       59.487837199940     103.035956439931     103.118770080000
      6237    2       60.389168061600     101.474805578561     101.559385040000
      6238    8       60.389168061600     104.597107291289     101.559385040000
      6239    6       62.191829794931     101.474805578561     100.000000000000
      6240    4       62.191829794931     101.474805578561     103.118770080000
      6241   12       62.191829794931     104.597107291289     100.000000000000
      6242   10       62.191829794931     104.597107291289     103.118770080000
      6243    5       63.093160666603      99.913654727203     101.559385040000
      6244   11       63.093160666603     103.035956439931     101.559385040000
      6245    3       59.487837199940     106.158258147653     100.000000000000
      6246    1       59.487837199940     106.158258147653     103.118770080000
      6247    9       59.487837199940     109.280559860381     100.000000000000
      6248    7       59.487837199940     109.280559860381     103.118770080000
      6249    2       60.389168061600     107.719408999011     101.559385040000
      6250    8       60.389168061600     110.841710711739     101.559385040000
      6251    6       62.191829794931     107.719408999011     100.000000000000
      6252    4       62.191829794931     107.719408999011     103.118770080000
      6253   12       62.191829794931     110.841710711739     100.000000000000
      6254   10       62.191829794931     110.841710711739     103.118770080000
      6255    5       63.093160666603     106.158258147653     101.559385040000
      6256   11       63.093160666603     109.280559860381     101.559385040000
      6257   14        0.000000000000      74.935241045402     106.818770080000
      6258   13        0.983270030902      76.638314701429     106.818770080000
      6259   14        2.949810103627      76.638314701429     106.818770080000
      6260   13        3.933080145451      74.935241045402     106.818770080000
      6261   14        0.000000000000      78.341388365648     106.818770080000
      6262   13        0.983270030902      80.044462021675     106.818770080000
      6263   14        2.949810103627      80.044462021675     106.818770080000
      6264   13        3.933080145451      78.341388365648     106.818770080000
      6265   14        0.000000000000      81.747535685893     106.818770080000
      6266   13        0.983270030902      83.450609341920     106.818770080000
      6267   14        2.949810103627      83.450609341920     106.818770080000
      6268   13        3.933080145451      81.747535685893     106.818770080000
      6269   14        0.000000000000      85.153683006139     106.818770080000
      6270   13        0.983270030902      86.856756662166     106.818770080000
      6271   14        2.949810103627      86.856756662166     106.818770080000
      6272   13        3.933080145451      85.153683006139     106.818770080000
      6273   14        0.000000000000      88.559830326384     106.818770080000
      6274   13        0.983270030902      90.262903982412     106.818770080000
      6275   14        2.949810103627      90.262903982412     106.818770080000
      6276   13        3.933080145451      88.559830326384     106.818770080000
      6277   14        0.000000000000      91.965977646630     106.818770080000
      6278   13        0.983270030902      93.669051302657     106.818770080000
      6279   14        2.949810103627      93.669051302657     106.818770080000
      6280   13        3.933080145451      91.965977646630     106.818770080000
      6281   14        0.000000000000      95.372124966875     106.818770080000
      6282   13        0.983270030902      97.075198622903     106.818770080000
      6283   14        2.949810103627      97.075198622903     106.818770080000
      6284   13        3.933080145451      95.372124966875     106.818770080000
      6285   14        0.000000000000      98.778272287121     106.818770080000
      6286   13        0.983270030902     100.481345943148     106.818770080000
      6287   14        2.949810103627     100.481345943148     106.818770080000
      6288   13        3.933080145451      98.778272287121     106.818770080000
      6289   14        0.000000000000     102.184419607366     106.818770080000
      6290   13        0.983270030902     103.887493263394     106.818770080000
      6291   14        2.949810103627     103.887493263394     106.818770080000
      6292   13        3.933080145451     102.184419607366     106.818770080000
      6293   14        0.000000000000     105.590566927612     106.818770080000
      6294   13        0.983270030902     107.293640583639     106.818770080000
      6295   14        2.949810103627     107.293640583639     106.818770080000
      6296   13        3.933080145451     105.590566927612     106.818770080000
      6297   14        0.000000000000     108.996714247857     106.818770080000
      6298   13        0.983270030902     110.699787903885     106.818770080000
      6299   14        2.949810103627     110.699787903885     106.818770080000
      6300   13        3.933080145451     108.996714247857     106.818770080000
      6301   14        5.899620218176      74.935241045402     106.818770080000
      6302   13        6.882890249078      76.638314701429     106.818770080000
      6303   14        8.849430321803      76.638314701429     106.818770080000
      6304   13        9.832700363627      74.935241045402     106.818770080000
      6305   14        5.899620218176      78.341388365648     106.818770080000
      6306   13        6.882890249078      80.044462021675     106.818770080000
      6307   14        8.849430321803      80.044462021675     106.818770080000
      6308   13        9.832700363627      78.341388365648     106.818770080000
      6309   14        5.899620218176      81.747535685893     106.818770080000
      6310   13        6.882890249078      83.450609341920     106.818770080000
      6311   14        8.849430321803      83.450609341920     106.818770080000
      6312   13        9.832700363627      81.747535685893     106.818770080000
      6313   14        5.899620218176      85.153683006139     106.818770080000
      6314   13        6.882890249078      86.856756662166     106.818770080000
      6315   14        8.849430321803      86.856756662166     106.818770080000
      6316   13        9.832700363627      85.153683006139     106.818770080000
      6317   14        5.899620218176      88.559830326384     106.818770080000
      6318   13        6.882890249078      90.262903982412     106.818770080000
      6319   14        8.849430321803      90.262903982412     106.818770080000
      6320   13        9.832700363627      88.559830326384     106.818770080000
      6321   14        5.899620218176      91.965977646630     106.818770080000
      6322   13        6.882890249078      93.669051302657     106.818770080000
      6323   14        8.849430321803      93.669051302657     106.818770080000
      6324   13        9.832700363627      91.965977646630     106.818770080000
      6325   14        5.899620218176      95.372124966875     106.818770080000
      6326   13        6.882890249078      97.075198622903     106.818770080000
      6327   14        8.849430321803      97.075198622903     106.818770080000
      6328   13        9.832700363627      95.372124966875     106.818770080000
      6329   14        5.899620218176      98.778272287121     106.818770080000
      6330   13        6.882890249078     100.481345943148     106.818770080000
      6331   14        8.849430321803     100.481345943148     106.818770080000
      6332   13        9.832700363627      98.778272287121     106.818770080000
      6333   14        5.899620218176     102.184419607366     106.818770080000
      6334   13        6.882890249078     103.887493263394     106.818770080000
      6335   14        8.849430321803     103.887493263394     106.818770080000
      6336   13        9.832700363627     102.184419607366     106.818770080000
      6337   14        5.899620218176     105.590566927612     106.818770080000
      6338   13        6.882890249078     107.293640583639     106.818770080000
      6339   14        8.849430321803     107.293640583639     106.818770080000
      6340   13        9.832700363627     105.590566927612     106.818770080000
      6341   14        5.899620218176     108.996714247857     106.818770080000
      6342   13        6.882890249078     110.699787903885     106.818770080000
      6343   14        8.849430321803     110.699787903885     106.818770080000
      6344   13        9.832700363627     108.996714247857     106.818770080000
      6345   14       11.799240436352      74.935241045402     106.818770080000
      6346   13       12.782510467254      76.638314701429     106.818770080000
      6347   14       14.749050539979      76.638314701429     106.818770080000
      6348   13       15.732320581803      74.935241045402     106.818770080000
      6349   14       11.799240436352      78.341388365648     106.818770080000
      6350   13       12.782510467254      80.044462021675     106.818770080000
      6351   14       14.749050539979      80.044462021675     106.818770080000
      6352   13       15.732320581803      78.341388365648     106.818770080000
      6353   14       11.799240436352      81.747535685893     106.818770080000
      6354   13       12.782510467254      83.450609341920     106.818770080000
      6355   14       14.749050539979      83.450609341920     106.818770080000
      6356   13       15.732320581803      81.747535685893     106.818770080000
      6357   14       11.799240436352      85.153683006139     106.818770080000
      6358   13       12.782510467254      86.856756662166     106.818770080000
      6359   14       14.749050539979      86.856756662166     106.818770080000
      6360   13       15.732320581803      85.153683006139     106.818770080000
      6361   14       11.799240436352      88.559830326384     106.818770080000
      6362   13       12.782510467254      90.262903982412     106.818770080000
      6363   14       14.749050539979      90.262903982412     106.818770080000
      6364   13       15.732320581803      88.559830326384     106.818770080000
      6365   14       11.799240436352      91.965977646630     106.818770080000
      6366   13       12.782510467254      93.669051302657     106.818770080000
      6367   14       14.749050539979      93.669051302657     106.818770080000
      6368   13       15.732320581803      91.965977646630     106.818770080000
      6369   14       11.799240436352      95.372124966875     106.818770080000
      6370   13       12.782510467254      97.075198622903     106.818770080000
      6371   14       14.749050539979      97.075198622903     106.818770080000
      6372   13       15.732320581803      95.372124966875     106.818770080000
      6373   14       11.799240436352      98.778272287121     106.818770080000
      6374   13       12.782510467254     100.481345943148     106.818770080000
      6375   14       14.749050539979     100.481345943148     106.818770080000
      6376   13       15.732320581803      98.778272287121     106.818770080000
      6377   14       11.799240436352     102.184419607366     106.818770080000
      6378   13       12.782510467254     103.887493263394     106.818770080000
      6379   14       14.749050539979     103.887493263394     106.818770080000
      6380   13       15.732320581803     102.184419607366     106.818770080000
      6381   14       11.799240436352     105.590566927612     106.818770080000
      6382   13       12.782510467254     107.293640583639     106.818770080000
      6383   14       14.749050539979     107.293640583639     106.818770080000
      6384   13       15.732320581803     105.590566927612     106.818770080000
      6385   14       11.799240436352     108.996714247857     106.818770080000
      6386   13       12.782510467254     110.699787903885     106.818770080000
      6387   14       14.749050539979     110.699787903885     106.818770080000
      6388   13       15.732320581803     108.996714247857     106.818770080000
      6389   14       17.698860654528      74.935241045402     106.818770080000
      6390   13       18.682130685429      76.638314701429     106.818770080000
      6391   14       20.648670758155      76.638314701429     106.818770080000
      6392   13       21.631940799978      74.935241045402     106.818770080000
      6393   14       17.698860654528      78.341388365648     106.818770080000
      6394   13       18.682130685429      80.044462021675     106.818770080000
      6395   14       20.648670758155      80.044462021675     106.818770080000
      6396   13       21.631940799978      78.341388365648     106.818770080000
      6397   14       17.698860654528      81.747535685893     106.818770080000
      6398   13       18.682130685429      83.450609341920     106.818770080000
      6399   14       20.648670758155      83.450609341920     106.818770080000
      6400   13       21.631940799978      81.747535685893     106.818770080000
      6401   14       17.698860654528      85.153683006139     106.818770080000
      6402   13       18.682130685429      86.856756662166     106.818770080000
      6403   14       20.648670758155      86.856756662166     106.818770080000
      6404   13       21.631940799978      85.153683006139     106.818770080000
      6405   14       17.698860654528      88.559830326384     106.818770080000
      6406   13       18.682130685429      90.262903982412     106.818770080000
      6407   14       20.648670758155      90.262903982412     106.818770080000
      6408   13       21.631940799978      88.559830326384     106.818770080000
      6409   14       17.698860654528      91.965977646630     106.818770080000
      6410   13       18.682130685429      93.669051302657     106.818770080000
      6411   14       20.648670758155      93.669051302657     106.818770080000
      6412   13       21.631940799978      91.965977646630     106.818770080000
      6413   14       17.698860654528      95.372124966875     106.818770080000
      6414   13       18.682130685429      97.075198622903     106.818770080000
      6415   14       20.648670758155      97.075198622903     106.818770080000
      6416   13       21.631940799978      95.372124966875     106.818770080000
      6417   14       17.698860654528      98.778272287121     106.818770080000
      6418   13       18.682130685429     100.481345943148     106.818770080000
      6419   14       20.648670758155     100.481345943148     106.818770080000
      6420   13       21.631940799978      98.778272287121     106.818770080000
      6421   14       17.698860654528     102.184419607366     106.818770080000
      6422   13       18.682130685429     103.887493263394     106.818770080000
      6423   14       20.648670758155     103.887493263394     106.818770080000
      6424   13       21.631940799978     102.184419607366     106.818770080000
      6425   14       17.698860654528     105.590566927612     106.818770080000
      6426   13       18.682130685429     107.293640583639     106.818770080000
      6427   14       20.648670758155     107.293640583639     106.818770080000
      6428   13       21.631940799978     105.590566927612     106.818770080000
      6429   14       17.698860654528     108.996714247857     106.818770080000
      6430   13       18.682130685429     110.699787903885     106.818770080000
      6431   14       20.648670758155     110.699787903885     106.818770080000
      6432   13       21.631940799978     108.996714247857     106.818770080000
      6433   14       23.598480872703      74.935241045402     106.818770080000
      6434   13       24.581750903605      76.638314701429     106.818770080000
      6435   14       26.548290976331      76.638314701429     106.818770080000
      6436   13       27.531561018154      74.935241045402     106.818770080000
      6437   14       23.598480872703      78.341388365648     106.818770080000
      6438   13       24.581750903605      80.044462021675     106.818770080000
      6439   14       26.548290976331      80.044462021675     106.818770080000
      6440   13       27.531561018154      78.341388365648     106.818770080000
      6441   14       23.598480872703      81.747535685893     106.818770080000
      6442   13       24.581750903605      83.450609341920     106.818770080000
      6443   14       26.548290976331      83.450609341920     106.818770080000
      6444   13       27.531561018154      81.747535685893     106.818770080000
      6445   14       23.598480872703      85.153683006139     106.818770080000
      6446   13       24.581750903605      86.856756662166     106.818770080000
      6447   14       26.548290976331      86.856756662166     106.818770080000
      6448   13       27.531561018154      85.153683006139     106.818770080000
      6449   14       23.598480872703      88.559830326384     106.818770080000
      6450   13       24.581750903605      90.262903982412     106.818770080000
      6451   14       26.548290976331      90.262903982412     106.818770080000
      6452   13       27.531561018154      88.559830326384     106.818770080000
      6453   14       23.598480872703      91.965977646630     106.818770080000
      6454   13       24.581750903605      93.669051302657     106.818770080000
      6455   14       26.548290976331      93.669051302657     106.818770080000
      6456   13       27.531561018154      91.965977646630     106.818770080000
      6457   14       23.598480872703      95.372124966875     106.818770080000
      6458   13       24.581750903605      97.075198622903     106.818770080000
      6459   14       26.548290976331      97.075198622903     106.818770080000
      6460   13       27.531561018154      95.372124966875     106.818770080000
      6461   14       23.598480872703      98.778272287121     106.818770080000
      6462   13       24.581750903605     100.481345943148     106.818770080000
      6463   14       26.548290976331     100.481345943148     106.818770080000
      6464   13       27.531561018154      98.778272287121     106.818770080000
      6465   14       23.598480872703     102.184419607366     106.818770080000
      6466   13       24.581750903605     103.887493263394     106.818770080000
      6467   14       26.548290976331     103.887493263394     106.818770080000
      6468   13       27.531561018154     102.184419607366     106.818770080000
      6469   14       23.598480872703     105.590566927612     106.818770080000
      6470   13       24.581750903605     107.293640583639     106.818770080000
      6471   14       26.548290976331     107.293640583639     106.818770080000
      6472   13       27.531561018154     105.590566927612     106.818770080000
      6473   14       23.598480872703     108.996714247857     106.818770080000
      6474   13       24.581750903605     110.699787903885     106.818770080000
      6475   14       26.548290976331     110.699787903885     106.818770080000
      6476   13       27.531561018154     108.996714247857     106.818770080000
      6477   14       29.498101090879      74.935241045402     106.818770080000
      6478   13       30.481371121781      76.638314701429     106.818770080000
      6479   14       32.447911194507      76.638314701429     106.818770080000
      6480   13       33.431181236330      74.935241045402     106.818770080000
      6481   14       29.498101090879      78.341388365648     106.818770080000
      6482   13       30.481371121781      80.044462021675     106.818770080000
      6483   14       32.447911194507      80.044462021675     106.818770080000
      6484   13       33.431181236330      78.341388365648     106.818770080000
      6485   14       29.498101090879      81.747535685893     106.818770080000
      6486   13       30.481371121781      83.450609341920     106.818770080000
      6487   14       32.447911194507      83.450609341920     106.818770080000
      6488   13       33.431181236330      81.747535685893     106.818770080000
      6489   14       29.498101090879      85.153683006139     106.818770080000
      6490   13       30.481371121781      86.856756662166     106.818770080000
      6491   14       32.447911194507      86.856756662166     106.818770080000
      6492   13       33.431181236330      85.153683006139     106.818770080000
      6493   14       29.498101090879      88.559830326384     106.818770080000
      6494   13       30.481371121781      90.262903982412     106.818770080000
      6495   14       32.447911194507      90.262903982412     106.818770080000
      6496   13       33.431181236330      88.559830326384     106.818770080000
      6497   14       29.498101090879      91.965977646630     106.818770080000
      6498   13       30.481371121781      93.669051302657     106.818770080000
      6499   14       32.447911194507      93.669051302657     106.818770080000
      6500   13       33.431181236330      91.965977646630     106.818770080000
      6501   14       29.498101090879      95.372124966875     106.818770080000
      6502   13       30.481371121781      97.075198622903     106.818770080000
      6503   14       32.447911194507      97.075198622903     106.818770080000
      6504   13       33.431181236330      95.372124966875     106.818770080000
      6505   14       29.498101090879      98.778272287121     106.818770080000
      6506   13       30.481371121781     100.481345943148     106.818770080000
      6507   14       32.447911194507     100.481345943148     106.818770080000
      6508   13       33.431181236330      98.778272287121     106.818770080000
      6509   14       29.498101090879     102.184419607366     106.818770080000
      6510   13       30.481371121781     103.887493263394     106.818770080000
      6511   14       32.447911194507     103.887493263394     106.818770080000
      6512   13       33.431181236330     102.184419607366     106.818770080000
      6513   14       29.498101090879     105.590566927612     106.818770080000
      6514   13       30.481371121781     107.293640583639     106.818770080000
      6515   14       32.447911194507     107.293640583639     106.818770080000
      6516   13       33.431181236330     105.590566927612     106.818770080000
      6517   14       29.498101090879     108.996714247857     106.818770080000
      6518   13       30.481371121781     110.699787903885     106.818770080000
      6519   14       32.447911194507     110.699787903885     106.818770080000
      6520   13       33.431181236330     108.996714247857     106.818770080000
      6521   14       35.397721309055      74.935241045402     106.818770080000
      6522   13       36.380991339957      76.638314701429     106.818770080000
      6523   14       38.347531412682      76.638314701429     106.818770080000
      6524   13       39.330801454506      74.935241045402     106.818770080000
      6525   14       35.397721309055      78.341388365648     106.818770080000
      6526   13       36.380991339957      80.044462021675     106.818770080000
      6527   14       38.347531412682      80.044462021675     106.818770080000
      6528   13       39.330801454506      78.341388365648     106.818770080000
      6529   14       35.397721309055      81.747535685893     106.818770080000
      6530   13       36.380991339957      83.450609341920     106.818770080000
      6531   14       38.347531412682      83.450609341920     106.818770080000
      6532   13       39.330801454506      81.747535685893     106.818770080000
      6533   14       35.397721309055      85.153683006139     106.818770080000
      6534   13       36.380991339957      86.856756662166     106.818770080000
      6535   14       38.347531412682      86.856756662166     106.818770080000
      6536   13       39.330801454506      85.153683006139     106.818770080000
      6537   14       35.397721309055      88.559830326384     106.818770080000
      6538   13       36.380991339957      90.262903982412     106.818770080000
      6539   14       38.347531412682      90.262903982412     106.818770080000
      6540   13       39.330801454506      88.559830326384     106.818770080000
      6541   14       35.397721309055      91.965977646630     106.818770080000
      6542   13       36.380991339957      93.669051302657     106.818770080000
      6543   14       38.347531412682      93.669051302657     106.818770080000
      6544   13       39.330801454506      91.965977646630     106.818770080000
      6545   14       35.397721309055      95.372124966875     106.818770080000
      6546   13       36.380991339957      97.075198622903     106.818770080000
      6547   14       38.347531412682      97.075198622903     106.818770080000
      6548   13       39.330801454506      95.372124966875     106.818770080000
      6549   14       35.397721309055      98.778272287121     106.818770080000
      6550   13       36.380991339957     100.481345943148     106.818770080000
      6551   14       38.347531412682     100.481345943148     106.818770080000
      6552   13       39.330801454506      98.778272287121     106.818770080000
      6553   14       35.397721309055     102.184419607366     106.818770080000
      6554   13       36.380991339957     103.887493263394     106.818770080000
      6555   14       38.347531412682     103.887493263394     106.818770080000
      6556   13       39.330801454506     102.184419607366     106.818770080000
      6557   14       35.397721309055     105.590566927612     106.818770080000
      6558   13       36.380991339957     107.293640583639     106.818770080000
      6559   14       38.347531412682     107.293640583639     106.818770080000
      6560   13       39.330801454506     105.590566927612     106.818770080000
      6561   14       35.397721309055     108.996714247857     106.818770080000
      6562   13       36.380991339957     110.699787903885     106.818770080000
      6563   14       38.347531412682     110.699787903885     106.818770080000
      6564   13       39.330801454506     108.996714247857     106.818770080000
      6565   14       41.297341527231      74.935241045402     106.818770080000
      6566   13       42.280611558133      76.638314701429     106.818770080000
      6567   14       44.247151630858      76.638314701429     106.818770080000
      6568   13       45.230421672682      74.935241045402     106.818770080000
      6569   14       41.297341527231      78.341388365648     106.818770080000
      6570   13       42.280611558133      80.044462021675     106.818770080000
      6571   14       44.247151630858      80.044462021675     106.818770080000
      6572   13       45.230421672682      78.341388365648     106.818770080000
      6573   14       41.297341527231      81.747535685893     106.818770080000
      6574   13       42.280611558133      83.450609341920     106.818770080000
      6575   14       44.247151630858      83.450609341920     106.818770080000
      6576   13       45.230421672682      81.747535685893     106.818770080000
      6577   14       41.297341527231      85.153683006139     106.818770080000
      6578   13       42.280611558133      86.856756662166     106.818770080000
      6579   14       44.247151630858      86.856756662166     106.818770080000
      6580   13       45.230421672682      85.153683006139     106.818770080000
      6581   14       41.297341527231      88.559830326384     106.818770080000
      6582   13       42.280611558133      90.262903982412     106.818770080000
      6583   14       44.247151630858      90.262903982412     106.818770080000
      6584   13       45.230421672682      88.559830326384     106.818770080000
      6585   14       41.297341527231      91.965977646630     106.818770080000
      6586   13       42.280611558133      93.669051302657     106.818770080000
      6587   14       44.247151630858      93.669051302657     106.818770080000
      6588   13       45.230421672682      91.965977646630     106.818770080000
      6589   14       41.297341527231      95.372124966875     106.818770080000
      6590   13       42.280611558133      97.075198622903     106.818770080000
      6591   14       44.247151630858      97.075198622903     106.818770080000
      6592   13       45.230421672682      95.372124966875     106.818770080000
      6593   14       41.297341527231      98.778272287121     106.818770080000
      6594   13       42.280611558133     100.481345943148     106.818770080000
      6595   14       44.247151630858     100.481345943148     106.818770080000
      6596   13       45.230421672682      98.778272287121     106.818770080000
      6597   14       41.297341527231     102.184419607366     106.818770080000
      6598   13       42.280611558133     103.887493263394     106.818770080000
      6599   14       44.247151630858     103.887493263394     106.818770080000
      6600   13       45.230421672682     102.184419607366     106.818770080000
      6601   14       41.297341527231     105.590566927612     106.818770080000
      6602   13       42.280611558133     107.293640583639     106.818770080000
      6603   14       44.247151630858     107.293640583639     106.818770080000
      6604   13       45.230421672682     105.590566927612     106.818770080000
      6605   14       41.297341527231     108.996714247857     106.818770080000
      6606   13       42.280611558133     110.699787903885     106.818770080000
      6607   14       44.247151630858     110.699787903885     106.818770080000
      6608   13       45.230421672682     108.996714247857     106.818770080000
      6609   14       47.196961745407      74.935241045402     106.818770080000
      6610   13       48.180231776309      76.638314701429     106.818770080000
      6611   14       50.146771849034      76.638314701429     106.818770080000
      6612   13       51.130041890858      74.935241045402     106.818770080000
      6613   14       47.196961745407      78.341388365648     106.818770080000
      6614   13       48.180231776309      80.044462021675     106.818770080000
      6615   14       50.146771849034      80.044462021675     106.818770080000
      6616   13       51.130041890858      78.341388365648     106.818770080000
      6617   14       47.196961745407      81.747535685893     106.818770080000
      6618   13       48.180231776309      83.450609341920     106.818770080000
      6619   14       50.146771849034      83.450609341920     106.818770080000
      6620   13       51.130041890858      81.747535685893     106.818770080000
      6621   14       47.196961745407      85.153683006139     106.818770080000
      6622   13       48.180231776309      86.856756662166     106.818770080000
      6623   14       50.146771849034      86.856756662166     106.818770080000
      6624   13       51.130041890858      85.153683006139     106.818770080000
      6625   14       47.196961745407      88.559830326384     106.818770080000
      6626   13       48.180231776309      90.262903982412     106.818770080000
      6627   14       50.146771849034      90.262903982412     106.818770080000
      6628   13       51.130041890858      88.559830326384     106.818770080000
      6629   14       47.196961745407      91.965977646630     106.818770080000
      6630   13       48.180231776309      93.669051302657     106.818770080000
      6631   14       50.146771849034      93.669051302657     106.818770080000
      6632   13       51.130041890858      91.965977646630     106.818770080000
      6633   14       47.196961745407      95.372124966875     106.818770080000
      6634   13       48.180231776309      97.075198622903     106.818770080000
      6635   14       50.146771849034      97.075198622903     106.818770080000
      6636   13       51.130041890858      95.372124966875     106.818770080000
      6637   14       47.196961745407      98.778272287121     106.818770080000
      6638   13       48.180231776309     100.481345943148     106.818770080000
      6639   14       50.146771849034     100.481345943148     106.818770080000
      6640   13       51.130041890858      98.778272287121     106.818770080000
      6641   14       47.196961745407     102.184419607366     106.818770080000
      6642   13       48.180231776309     103.887493263394     106.818770080000
      6643   14       50.146771849034     103.887493263394     106.818770080000
      6644   13       51.130041890858     102.184419607366     106.818770080000
      6645   14       47.196961745407     105.590566927612     106.818770080000
      6646   13       48.180231776309     107.293640583639     106.818770080000
      6647   14       50.146771849034     107.293640583639     106.818770080000
      6648   13       51.130041890858     105.590566927612     106.818770080000
      6649   14       47.196961745407     108.996714247857     106.818770080000
      6650   13       48.180231776309     110.699787903885     106.818770080000
      6651   14       50.146771849034     110.699787903885     106.818770080000
      6652   13       51.130041890858     108.996714247857     106.818770080000
      6653   14       53.096581963583      74.935241045402     106.818770080000
      6654   13       54.079851994484      76.638314701429     106.818770080000
      6655   14       56.046392067210      76.638314701429     106.818770080000
      6656   13       57.029662109033      74.935241045402     106.818770080000
      6657   14       53.096581963583      78.341388365648     106.818770080000
      6658   13       54.079851994484      80.044462021675     106.818770080000
      6659   14       56.046392067210      80.044462021675     106.818770080000
      6660   13       57.029662109033      78.341388365648     106.818770080000
      6661   14       53.096581963583      81.747535685893     106.818770080000
      6662   13       54.079851994484      83.450609341920     106.818770080000
      6663   14       56.046392067210      83.450609341920     106.818770080000
      6664   13       57.029662109033      81.747535685893     106.818770080000
      6665   14       53.096581963583      85.153683006139     106.818770080000
      6666   13       54.079851994484      86.856756662166     106.818770080000
      6667   14       56.046392067210      86.856756662166     106.818770080000
      6668   13       57.029662109033      85.153683006139     106.818770080000
      6669   14       53.096581963583      88.559830326384     106.818770080000
      6670   13       54.079851994484      90.262903982412     106.818770080000
      6671   14       56.046392067210      90.262903982412     106.818770080000
      6672   13       57.029662109033      88.559830326384     106.818770080000
      6673   14       53.096581963583      91.965977646630     106.818770080000
      6674   13       54.079851994484      93.669051302657     106.818770080000
      6675   14       56.046392067210      93.669051302657     106.818770080000
      6676   13       57.029662109033      91.965977646630     106.818770080000
      6677   14       53.096581963583      95.372124966875     106.818770080000
      6678   13       54.079851994484      97.075198622903     106.818770080000
      6679   14       56.046392067210      97.075198622903     106.818770080000
      6680   13       57.029662109033      95.372124966875     106.818770080000
      6681   14       53.096581963583      98.778272287121     106.818770080000
      6682   13       54.079851994484     100.481345943148     106.818770080000
      6683   14       56.046392067210     100.481345943148     106.818770080000
      6684   13       57.029662109033      98.778272287121     106.818770080000
      6685   14       53.096581963583     102.184419607366     106.818770080000
      6686   13       54.079851994484     103.887493263394     106.818770080000
      6687   14       56.046392067210     103.887493263394     106.818770080000
      6688   13       57.029662109033     102.184419607366     106.818770080000
      6689   14       53.096581963583     105.590566927612     106.818770080000
      6690   13       54.079851994484     107.293640583639     106.818770080000
      6691   14       56.046392067210     107.293640583639     106.818770080000
      6692   13       57.029662109033     105.590566927612     106.818770080000
      6693   14       53.096581963583     108.996714247857     106.818770080000
      6694   13       54.079851994484     110.699787903885     106.818770080000
      6695   14       56.046392067210     110.699787903885     106.818770080000
      6696   13       57.029662109033     108.996714247857     106.818770080000
      6697   14       58.996202181758      74.935241045402     106.818770080000
      6698   13       59.979472212660      76.638314701429     106.818770080000
      6699   14       61.946012285386      76.638314701429     106.818770080000
      6700   13       62.929282327209      74.935241045402     106.818770080000
      6701   14       58.996202181758      78.341388365648     106.818770080000
      6702   13       59.979472212660      80.044462021675     106.818770080000
      6703   14       61.946012285386      80.044462021675     106.818770080000
      6704   13       62.929282327209      78.341388365648     106.818770080000
      6705   14       58.996202181758      81.747535685893     106.818770080000
      6706   13       59.979472212660      83.450609341920     106.818770080000
      6707   14       61.946012285386      83.450609341920     106.818770080000
      6708   13       62.929282327209      81.747535685893     106.818770080000
      6709   14       58.996202181758      85.153683006139     106.818770080000
      6710   13       59.979472212660      86.856756662166     106.818770080000
      6711   14       61.946012285386      86.856756662166     106.818770080000
      6712   13       62.929282327209      85.153683006139     106.818770080000
      6713   14       58.996202181758      88.559830326384     106.818770080000
      6714   13       59.979472212660      90.262903982412     106.818770080000
      6715   14       61.946012285386      90.262903982412     106.818770080000
      6716   13       62.929282327209      88.559830326384     106.818770080000
      6717   14       58.996202181758      91.965977646630     106.818770080000
      6718   13       59.979472212660      93.669051302657     106.818770080000
      6719   14       61.946012285386      93.669051302657     106.818770080000
      6720   13       62.929282327209      91.965977646630     106.818770080000
      6721   14       58.996202181758      95.372124966875     106.818770080000
      6722   13       59.979472212660      97.075198622903     106.818770080000
      6723   14       61.946012285386      97.075198622903     106.818770080000
      6724   13       62.929282327209      95.372124966875     106.818770080000
      6725   14       58.996202181758      98.778272287121     106.818770080000
      6726   13       59.979472212660     100.481345943148     106.818770080000
      6727   14       61.946012285386     100.481345943148     106.818770080000
      6728   13       62.929282327209      98.778272287121     106.818770080000
      6729   14       58.996202181758     102.184419607366     106.818770080000
      6730   13       59.979472212660     103.887493263394     106.818770080000
      6731   14       61.946012285386     103.887493263394     106.818770080000
      6732   13       62.929282327209     102.184419607366     106.818770080000
      6733   14       58.996202181758     105.590566927612     106.818770080000
      6734   13       59.979472212660     107.293640583639     106.818770080000
      6735   14       61.946012285386     107.293640583639     106.818770080000
      6736   13       62.929282327209     105.590566927612     106.818770080000
      6737   14       58.996202181758     108.996714247857     106.818770080000
      6738   13       59.979472212660     110.699787903885     106.818770080000
      6739   14       61.946012285386     110.699787903885     106.818770080000
      6740   13       62.929282327209     108.996714247857     106.818770080000
      6741    3       64.895822399934      74.935241045402     100.000000000000
      6742    1       64.895822399934      74.935241045402     103.118770080000
      6743    9       64.895822399934      78.057542758130     100.000000000000
      6744    7       64.895822399934      78.057542758130     103.118770080000
      6745    2       65.797153261594      76.496391896760     101.559385040000
      6746    8       65.797153261594      79.618693609488     101.559385040000
      6747    6       67.599814994926      76.496391896760     100.000000000000
      6748    4       67.599814994926      76.496391896760     103.118770080000
      6749   12       67.599814994926      79.618693609488     100.000000000000
      6750   10       67.599814994926      79.618693609488     103.118770080000
      6751    5       68.501145866597      74.935241045402     101.559385040000
      6752   11       68.501145866597      78.057542758130     101.559385040000
      6753    3       64.895822399934      81.179844465852     100.000000000000
      6754    1       64.895822399934      81.179844465852     103.118770080000
      6755    9       64.895822399934      84.302146178580     100.000000000000
      6756    7       64.895822399934      84.302146178580     103.118770080000
      6757    2       65.797153261594      82.740995317210     101.559385040000
      6758    8       65.797153261594      85.863297029938     101.559385040000
      6759    6       67.599814994926      82.740995317210     100.000000000000
      6760    4       67.599814994926      82.740995317210     103.118770080000
      6761   12       67.599814994926      85.863297029938     100.000000000000
      6762   10       67.599814994926      85.863297029938     103.118770080000
      6763    5       68.501145866597      81.179844465852     101.559385040000
      6764   11       68.501145866597      84.302146178580     101.559385040000
      6765    3       64.895822399934      87.424447886302     100.000000000000
      6766    1       64.895822399934      87.424447886302     103.118770080000
      6767    9       64.895822399934      90.546749599030     100.000000000000
      6768    7       64.895822399934      90.546749599030     103.118770080000
      6769    2       65.797153261594      88.985598737661     101.559385040000
      6770    8       65.797153261594      92.107900450389     101.559385040000
      6771    6       67.599814994926      88.985598737661     100.000000000000
      6772    4       67.599814994926      88.985598737661     103.118770080000
      6773   12       67.599814994926      92.107900450389     100.000000000000
      6774   10       67.599814994926      92.107900450389     103.118770080000
      6775    5       68.501145866597      87.424447886302     101.559385040000
      6776   11       68.501145866597      90.546749599030     101.559385040000
      6777    3       64.895822399934      93.669051306752     100.000000000000
      6778    1       64.895822399934      93.669051306752     103.118770080000
      6779    9       64.895822399934      96.791353019480     100.000000000000
      6780    7       64.895822399934      96.791353019480     103.118770080000
      6781    2       65.797153261594      95.230202158111     101.559385040000
      6782    8       65.797153261594      98.352503870839     101.559385040000
      6783    6       67.599814994926      95.230202158111     100.000000000000
      6784    4       67.599814994926      95.230202158111     103.118770080000
      6785   12       67.599814994926      98.352503870839     100.000000000000
      6786   10       67.599814994926      98.352503870839     103.118770080000
      6787    5       68.501145866597      93.669051306752     101.559385040000
      6788   11       68.501145866597      96.791353019480     101.559385040000
      6789    3       64.895822399934      99.913654727203     100.000000000000
      6790    1       64.895822399934      99.913654727203     103.118770080000
      6791    9       64.895822399934     103.035956439931     100.000000000000
      6792    7       64.895822399934     103.035956439931     103.118770080000
      6793    2       65.797153261594     101.474805578561     101.559385040000
      6794    8       65.797153261594     104.597107291289     101.559385040000
      6795    6       67.599814994926     101.474805578561     100.000000000000
      6796    4       67.599814994926     101.474805578561     103.118770080000
      6797   12       67.599814994926     104.597107291289     100.000000000000
      6798   10       67.599814994926     104.597107291289     103.118770080000
      6799    5       68.501145866597      99.913654727203     101.559385040000
      6800   11       68.501145866597     103.035956439931     101.559385040000
      6801    3       64.895822399934     106.158258147653     100.000000000000
      6802    1       64.895822399934     106.158258147653     103.118770080000
      6803    9       64.895822399934     109.280559860381     100.000000000000
      6804    7       64.895822399934     109.280559860381     103.118770080000
      6805    2       65.797153261594     107.719408999011     101.559385040000
      6806    8       65.797153261594     110.841710711739     101.559385040000
      6807    6       67.599814994926     107.719408999011     100.000000000000
      6808    4       67.599814994926     107.719408999011     103.118770080000
      6809   12       67.599814994926     110.841710711739     100.000000000000
      6810   10       67.599814994926     110.841710711739     103.118770080000
      6811    5       68.501145866597     106.158258147653     101.559385040000
      6812   11       68.501145866597     109.280559860381     101.559385040000
      6813    3       70.303807599929      74.935241045402     100.000000000000
      6814    1       70.303807599929      74.935241045402     103.118770080000
      6815    9       70.303807599929      78.057542758130     100.000000000000
      6816    7       70.303807599929      78.057542758130     103.118770080000
      6817    2       71.205138461589      76.496391896760     101.559385040000
      6818    8       71.205138461589      79.618693609488     101.559385040000
      6819    6       73.007800194920      76.496391896760     100.000000000000
      6820    4       73.007800194920      76.496391896760     103.118770080000
      6821   12       73.007800194920      79.618693609488     100.000000000000
      6822   10       73.007800194920      79.618693609488     103.118770080000
      6823    5       73.909131066592      74.935241045402     101.559385040000
      6824   11       73.909131066592      78.057542758130     101.559385040000
      6825    3       70.303807599929      81.179844465852     100.000000000000
      6826    1       70.303807599929      81.179844465852     103.118770080000
      6827    9       70.303807599929      84.302146178580     100.000000000000
      6828    7       70.303807599929      84.302146178580     103.118770080000
      6829    2       71.205138461589      82.740995317210     101.559385040000
      6830    8       71.205138461589      85.863297029938     101.559385040000
      6831    6       73.007800194920      82.740995317210     100.000000000000
      6832    4       73.007800194920      82.740995317210     103.118770080000
      6833   12       73.007800194920      85.863297029938     100.000000000000
      6834   10       73.007800194920      85.863297029938     103.118770080000
      6835    5       73.909131066592      81.179844465852     101.559385040000
      6836   11       73.909131066592      84.302146178580     101.559385040000
      6837    3       70.303807599929      87.424447886302     100.000000000000
      6838    1       70.303807599929      87.424447886302     103.118770080000
      6839    9       70.303807599929      90.546749599030     100.000000000000
      6840    7       70.303807599929      90.546749599030     103.118770080000
      6841    2       71.205138461589      88.985598737661     101.559385040000
      6842    8       71.205138461589      92.107900450389     101.559385040000
      6843    6       73.007800194920      88.985598737661     100.000000000000
      6844    4       73.007800194920      88.985598737661     103.118770080000
      6845   12       73.007800194920      92.107900450389     100.000000000000
      6846   10       73.007800194920      92.107900450389     103.118770080000
      6847    5       73.909131066592      87.424447886302     101.559385040000
      6848   11       73.909131066592      90.546749599030     101.559385040000
      6849    3       70.303807599929      93.669051306752     100.000000000000
      6850    1       70.303807599929      93.669051306752     103.118770080000
      6851    9       70.303807599929      96.791353019480     100.000000000000
      6852    7       70.303807599929      96.791353019480     103.118770080000
      6853    2       71.205138461589      95.230202158111     101.559385040000
      6854    8       71.205138461589      98.352503870839     101.559385040000
      6855    6       73.007800194920      95.230202158111     100.000000000000
      6856    4       73.007800194920      95.230202158111     103.118770080000
      6857   12       73.007800194920      98.352503870839     100.000000000000
      6858   10       73.007800194920      98.352503870839     103.118770080000
      6859    5       73.909131066592      93.669051306752     101.559385040000
      6860   11       73.909131066592      96.791353019480     101.559385040000
      6861    3       70.303807599929      99.913654727203     100.000000000000
      6862    1       70.303807599929      99.913654727203     103.118770080000
      6863    9       70.303807599929     103.035956439931     100.000000000000
      6864    7       70.303807599929     103.035956439931     103.118770080000
      6865    2       71.205138461589     101.474805578561     101.559385040000
      6866    8       71.205138461589     104.597107291289     101.559385040000
      6867    6       73.007800194920     101.474805578561     100.000000000000
      6868    4       73.007800194920     101.474805578561     103.118770080000
      6869   12       73.007800194920     104.597107291289     100.000000000000
      6870   10       73.007800194920     104.597107291289     103.118770080000
      6871    5       73.909131066592      99.913654727203     101.559385040000
      6872   11       73.909131066592     103.035956439931     101.559385040000
      6873    3       70.303807599929     106.158258147653     100.000000000000
      6874    1       70.303807599929     106.158258147653     103.118770080000
      6875    9       70.303807599929     109.280559860381     100.000000000000
      6876    7       70.303807599929     109.280559860381     103.118770080000
      6877    2       71.205138461589     107.719408999011     101.559385040000
      6878    8       71.205138461589     110.841710711739     101.559385040000
      6879    6       73.007800194920     107.719408999011     100.000000000000
      6880    4       73.007800194920     107.719408999011     103.118770080000
      6881   12       73.007800194920     110.841710711739     100.000000000000
      6882   10       73.007800194920     110.841710711739     103.118770080000
      6883    5       73.909131066592     106.158258147653     101.559385040000
      6884   11       73.909131066592     109.280559860381     101.559385040000
      6885    3       75.711792799923      74.935241045402     100.000000000000
      6886    1       75.711792799923      74.935241045402     103.118770080000
      6887    9       75.711792799923      78.057542758130     100.000000000000
      6888    7       75.711792799923      78.057542758130     103.118770080000
      6889    2       76.613123661583      76.496391896760     101.559385040000
      6890    8       76.613123661583      79.618693609488     101.559385040000
      6891    6       78.415785394915      76.496391896760     100.000000000000
      6892    4       78.415785394915      76.496391896760     103.118770080000
      6893   12       78.415785394915      79.618693609488     100.000000000000
      6894   10       78.415785394915      79.618693609488     103.118770080000
      6895    5       79.317116266586      74.935241045402     101.559385040000
      6896   11       79.317116266586      78.057542758130     101.559385040000
      6897    3       75.711792799923      81.179844465852     100.000000000000
      6898    1       75.711792799923      81.179844465852     103.118770080000
      6899    9       75.711792799923      84.302146178580     100.000000000000
      6900    7       75.711792799923      84.302146178580     103.118770080000
      6901    2       76.613123661583      82.740995317210     101.559385040000
      6902    8       76.613123661583      85.863297029938     101.559385040000
      6903    6       78.415785394915      82.740995317210     100.000000000000
      6904    4       78.415785394915      82.740995317210     103.118770080000
      6905   12       78.415785394915      85.863297029938     100.000000000000
      6906   10       78.415785394915      85.863297029938     103.118770080000
      6907    5       79.317116266586      81.179844465852     101.559385040000
      6908   11       79.317116266586      84.302146178580     101.559385040000
      6909    3       75.711792799923      87.424447886302     100.000000000000
      6910    1       75.711792799923      87.424447886302     103.118770080000
      6911    9       75.711792799923      90.546749599030     100.000000000000
      6912    7       75.711792799923      90.546749599030     103.118770080000
      6913    2       76.613123661583      88.985598737661     101.559385040000
      6914    8       76.613123661583      92.107900450389     101.559385040000
      6915    6       78.415785394915      88.985598737661     100.000000000000
      6916    4       78.415785394915      88.985598737661     103.118770080000
      6917   12       78.415785394915      92.107900450389     100.000000000000
      6918   10       78.415785394915      92.107900450389     103.118770080000
      6919    5       79.317116266586      87.424447886302     101.559385040000
      6920   11       79.317116266586      90.546749599030     101.559385040000
      6921    3       75.711792799923      93.669051306752     100.000000000000
      6922    1       75.711792799923      93.669051306752     103.118770080000
      6923    9       75.711792799923      96.791353019480     100.000000000000
      6924    7       75.711792799923      96.791353019480     103.118770080000
      6925    2       76.613123661583      95.230202158111     101.559385040000
      6926    8       76.613123661583      98.352503870839     101.559385040000
      6927    6       78.415785394915      95.230202158111     100.000000000000
      6928    4       78.415785394915      95.230202158111     103.118770080000
      6929   12       78.415785394915      98.352503870839     100.000000000000
      6930   10       78.415785394915      98.352503870839     103.118770080000
      6931    5       79.317116266586      93.669051306752     101.559385040000
      6932   11       79.317116266586      96.791353019480     101.559385040000
      6933    3       75.711792799923      99.913654727203     100.000000000000
      6934    1       75.711792799923      99.913654727203     103.118770080000
      6935    9       75.711792799923     103.035956439931     100.000000000000
      6936    7       75.711792799923     103.035956439931     103.118770080000
      6937    2       76.613123661583     101.474805578561     101.559385040000
      6938    8       76.613123661583     104.597107291289     101.559385040000
      6939    6       78.415785394915     101.474805578561     100.000000000000
      6940    4       78.415785394915     101.474805578561     103.118770080000
      6941   12       78.415785394915     104.597107291289     100.000000000000
      6942   10       78.415785394915     104.597107291289     103.118770080000
      6943    5       79.317116266586      99.913654727203     101.559385040000
      6944   11       79.317116266586     103.035956439931     101.559385040000
      6945    3       75.711792799923     106.158258147653     100.000000000000
      6946    1       75.711792799923     106.158258147653     103.118770080000
      6947    9       75.711792799923     109.280559860381     100.000000000000
      6948    7       75.711792799923     109.280559860381     103.118770080000
      6949    2       76.613123661583     107.719408999011     101.559385040000
      6950    8       76.613123661583     110.841710711739     101.559385040000
      6951    6       78.415785394915     107.719408999011     100.000000000000
      6952    4       78.415785394915     107.719408999011     103.118770080000
      6953   12       78.415785394915     110.841710711739     100.000000000000
      6954   10       78.415785394915     110.841710711739     103.118770080000
      6955    5       79.317116266586     106.158258147653     101.559385040000
      6956   11       79.317116266586     109.280559860381     101.559385040000
      6957    3       81.119777999918      74.935241045402     100.000000000000
      6958    1       81.119777999918      74.935241045402     103.118770080000
      6959    9       81.119777999918      78.057542758130     100.000000000000
      6960    7       81.119777999918      78.057542758130     103.118770080000
      6961    2       82.021108861578      76.496391896760     101.559385040000
      6962    8       82.021108861578      79.618693609488     101.559385040000
      6963    6       83.823770594909      76.496391896760     100.000000000000
      6964    4       83.823770594909      76.496391896760     103.118770080000
      6965   12       83.823770594909      79.618693609488     100.000000000000
      6966   10       83.823770594909      79.618693609488     103.118770080000
      6967    5       84.725101466581      74.935241045402     101.559385040000
      6968   11       84.725101466581      78.057542758130     101.559385040000
      6969    3       81.119777999918      81.179844465852     100.000000000000
      6970    1       81.119777999918      81.179844465852     103.118770080000
      6971    9       81.119777999918      84.302146178580     100.000000000000
      6972    7       81.119777999918      84.302146178580     103.118770080000
      6973    2       82.021108861578      82.740995317210     101.559385040000
      6974    8       82.021108861578      85.863297029938     101.559385040000
      6975    6       83.823770594909      82.740995317210     100.000000000000
      6976    4       83.823770594909      82.740995317210     103.118770080000
      6977   12       83.823770594909      85.863297029938     100.000000000000
      6978   10       83.823770594909      85.863297029938     103.118770080000
      6979    5       84.725101466581      81.179844465852     101.559385040000
      6980   11       84.725101466581      84.302146178580     101.559385040000
      6981    3       81.119777999918      87.424447886302     100.000000000000
      6982    1       81.119777999918      87.424447886302     103.118770080000
      6983    9       81.119777999918      90.546749599030     100.000000000000
      6984    7       81.119777999918      90.546749599030     103.118770080000
      6985    2       82.021108861578      88.985598737661     101.559385040000
      6986    8       82.021108861578      92.107900450389     101.559385040000
      6987    6       83.823770594909      88.985598737661     100.000000000000
      6988    4       83.823770594909      88.985598737661     103.118770080000
      6989   12       83.823770594909      92.107900450389     100.000000000000
      6990   10       83.823770594909      92.107900450389     103.118770080000
      6991    5       84.725101466581      87.424447886302     101.559385040000
      6992   11       84.725101466581      90.546749599030     101.559385040000
      6993    3       81.119777999918      93.669051306752     100.000000000000
      6994    1       81.119777999918      93.669051306752     103.118770080000
      6995    9       81.119777999918      96.791353019480     100.000000000000
      6996    7       81.119777999918      96.791353019480     103.118770080000
      6997    2       82.021108861578      95.230202158111     101.559385040000
      6998    8       82.021108861578      98.352503870839     101.559385040000
      6999    6       83.823770594909      95.230202158111     100.000000000000
      7000    4       83.823770594909      95.230202158111     103.118770080000
      7001   12       83.823770594909      98.352503870839     100.000000000000
      7002   10       83.823770594909      98.352503870839     103.118770080000
      7003    5       84.725101466581      93.669051306752     101.559385040000
      7004   11       84.725101466581      96.791353019480     101.559385040000
      7005    3       81.119777999918      99.913654727203     100.000000000000
      7006    1       81.119777999918      99.913654727203     103.118770080000
      7007    9       81.119777999918     103.035956439931     100.000000000000
      7008    7       81.119777999918     103.035956439931     103.118770080000
      7009    2       82.021108861578     101.474805578561     101.559385040000
      7010    8       82.021108861578     104.597107291289     101.559385040000
      7011    6       83.823770594909     101.474805578561     100.000000000000
      7012    4       83.823770594909     101.474805578561     103.118770080000
      7013   12       83.823770594909     104.597107291289     100.000000000000
      7014   10       83.823770594909     104.597107291289     103.118770080000
      7015    5       84.725101466581      99.913654727203     101.559385040000
      7016   11       84.725101466581     103.035956439931     101.559385040000
      7017    3       81.119777999918     106.158258147653     100.000000000000
      7018    1       81.119777999918     106.158258147653     103.118770080000
      7019    9       81.119777999918     109.280559860381     100.000000000000
      7020    7       81.119777999918     109.280559860381     103.118770080000
      7021    2       82.021108861578     107.719408999011     101.559385040000
      7022    8       82.021108861578     110.841710711739     101.559385040000
      7023    6       83.823770594909     107.719408999011     100.000000000000
      7024    4       83.823770594909     107.719408999011     103.118770080000
      7025   12       83.823770594909     110.841710711739     100.000000000000
      7026   10       83.823770594909     110.841710711739     103.118770080000
      7027    5       84.725101466581     106.158258147653     101.559385040000
      7028   11       84.725101466581     109.280559860381     101.559385040000
      7029    3       86.527763199912      74.935241045402     100.000000000000
      7030    1       86.527763199912      74.935241045402     103.118770080000
      7031    9       86.527763199912      78.057542758130     100.000000000000
      7032    7       86.527763199912      78.057542758130     103.118770080000
      7033    2       87.429094061572      76.496391896760     101.559385040000
      7034    8       87.429094061572      79.618693609488     101.559385040000
      7035    6       89.231755794904      76.496391896760     100.000000000000
      7036    4       89.231755794904      76.496391896760     103.118770080000
      7037   12       89.231755794904      79.618693609488     100.000000000000
      7038   10       89.231755794904      79.618693609488     103.118770080000
      7039    5       90.133086666575      74.935241045402     101.559385040000
      7040   11       90.133086666575      78.057542758130     101.559385040000
      7041    3       86.527763199912      81.179844465852     100.000000000000
      7042    1       86.527763199912      81.179844465852     103.118770080000
      7043    9       86.527763199912      84.302146178580     100.000000000000
      7044    7       86.527763199912      84.302146178580     103.118770080000
      7045    2       87.429094061572      82.740995317210     101.559385040000
      7046    8       87.429094061572      85.863297029938     101.559385040000
      7047    6       89.231755794904      82.740995317210     100.000000000000
      7048    4       89.231755794904      82.740995317210     103.118770080000
      7049   12       89.231755794904      85.863297029938     100.000000000000
      7050   10       89.231755794904      85.863297029938     103.118770080000
      7051    5       90.133086666575      81.179844465852     101.559385040000
      7052   11       90.133086666575      84.302146178580     101.559385040000
      7053    3       86.527763199912      87.424447886302     100.000000000000
      7054    1       86.527763199912      87.424447886302     103.118770080000
      7055    9       86.527763199912      90.546749599030     100.000000000000
      7056    7       86.527763199912      90.546749599030     103.118770080000
      7057    2       87.429094061572      88.985598737661     101.559385040000
      7058    8       87.429094061572      92.107900450389     101.559385040000
      7059    6       89.231755794904      88.985598737661     100.000000000000
      7060    4       89.231755794904      88.985598737661     103.118770080000
      7061   12       89.231755794904      92.107900450389     100.000000000000
      7062   10       89.231755794904      92.107900450389     103.118770080000
      7063    5       90.133086666575      87.424447886302     101.559385040000
      7064   11       90.133086666575      90.546749599030     101.559385040000
      7065    3       86.527763199912      93.669051306752     100.000000000000
      7066    1       86.527763199912      93.669051306752     103.118770080000
      7067    9       86.527763199912      96.791353019480     100.000000000000
      7068    7       86.527763199912      96.791353019480     103.118770080000
      7069    2       87.429094061572      95.230202158111     101.559385040000
      7070    8       87.429094061572      98.352503870839     101.559385040000
      7071    6       89.231755794904      95.230202158111     100.000000000000
      7072    4       89.231755794904      95.230202158111     103.118770080000
      7073   12       89.231755794904      98.352503870839     100.000000000000
      7074   10       89.231755794904      98.352503870839     103.118770080000
      7075    5       90.133086666575      93.669051306752     101.559385040000
      7076   11       90.133086666575      96.791353019480     101.559385040000
      7077    3       86.527763199912      99.913654727203     100.000000000000
      7078    1       86.527763199912      99.913654727203     103.118770080000
      7079    9       86.527763199912     103.035956439931     100.000000000000
      7080    7       86.527763199912     103.035956439931     103.118770080000
      7081    2       87.429094061572     101.474805578561     101.559385040000
      7082    8       87.429094061572     104.597107291289     101.559385040000
      7083    6       89.231755794904     101.474805578561     100.000000000000
      7084    4       89.231755794904     101.474805578561     103.118770080000
      7085   12       89.231755794904     104.597107291289     100.000000000000
      7086   10       89.231755794904     104.597107291289     103.118770080000
      7087    5       90.133086666575      99.913654727203     101.559385040000
      7088   11       90.133086666575     103.035956439931     101.559385040000
      7089    3       86.527763199912     106.158258147653     100.000000000000
      7090    1       86.527763199912     106.158258147653     103.118770080000
      7091    9       86.527763199912     109.280559860381     100.000000000000
      7092    7       86.527763199912     109.280559860381     103.118770080000
      7093    2       87.429094061572     107.719408999011     101.559385040000
      7094    8       87.429094061572     110.841710711739     101.559385040000
      7095    6       89.231755794904     107.719408999011     100.000000000000
      7096    4       89.231755794904     107.719408999011     103.118770080000
      7097   12       89.231755794904     110.841710711739     100.000000000000
      7098   10       89.231755794904     110.841710711739     103.118770080000
      7099    5       90.133086666575     106.158258147653     101.559385040000
      7100   11       90.133086666575     109.280559860381     101.559385040000
      7101    3       91.935748399907      74.935241045402     100.000000000000
      7102    1       91.935748399907      74.935241045402     103.118770080000
      7103    9       91.935748399907      78.057542758130     100.000000000000
      7104    7       91.935748399907      78.057542758130     103.118770080000
      7105    2       92.837079261567      76.496391896760     101.559385040000
      7106    8       92.837079261567      79.618693609488     101.559385040000
      7107    6       94.639740994898      76.496391896760     100.000000000000
      7108    4       94.639740994898      76.496391896760     103.118770080000
      7109   12       94.639740994898      79.618693609488     100.000000000000
      7110   10       94.639740994898      79.618693609488     103.118770080000
      7111    5       95.541071866570      74.935241045402     101.559385040000
      7112   11       95.541071866570      78.057542758130     101.559385040000
      7113    3       91.935748399907      81.179844465852     100.000000000000
      7114    1       91.935748399907      81.179844465852     103.118770080000
      7115    9       91.935748399907      84.302146178580     100.000000000000
      7116    7       91.935748399907      84.302146178580     103.118770080000
      7117    2       92.837079261567      82.740995317210     101.559385040000
      7118    8       92.837079261567      85.863297029938     101.559385040000
      7119    6       94.639740994898      82.740995317210     100.000000000000
      7120    4       94.639740994898      82.740995317210     103.118770080000
      7121   12       94.639740994898      85.863297029938     100.000000000000
      7122   10       94.639740994898      85.863297029938     103.118770080000
      7123    5       95.541071866570      81.179844465852     101.559385040000
      7124   11       95.541071866570      84.302146178580     101.559385040000
      7125    3       91.935748399907      87.424447886302     100.000000000000
      7126    1       91.935748399907      87.424447886302     103.118770080000
      7127    9       91.935748399907      90.546749599030     100.000000000000
      7128    7       91.935748399907      90.546749599030     103.118770080000
      7129    2       92.837079261567      88.985598737661     101.559385040000
      7130    8       92.837079261567      92.107900450389     101.559385040000
      7131    6       94.639740994898      88.985598737661     100.000000000000
      7132    4       94.639740994898      88.985598737661     103.118770080000
      7133   12       94.639740994898      92.107900450389     100.000000000000
      7134   10       94.639740994898      92.107900450389     103.118770080000
      7135    5       95.541071866570      87.424447886302     101.559385040000
      7136   11       95.541071866570      90.546749599030     101.559385040000
      7137    3       91.935748399907      93.669051306752     100.000000000000
      7138    1       91.935748399907      93.669051306752     103.118770080000
      7139    9       91.935748399907      96.791353019480     100.000000000000
      7140    7       91.935748399907      96.791353019480     103.118770080000
      7141    2       92.837079261567      95.230202158111     101.559385040000
      7142    8       92.837079261567      98.352503870839     101.559385040000
      7143    6       94.639740994898      95.230202158111     100.000000000000
      7144    4       94.639740994898      95.230202158111     103.118770080000
      7145   12       94.639740994898      98.352503870839     100.000000000000
      7146   10       94.639740994898      98.352503870839     103.118770080000
      7147    5       95.541071866570      93.669051306752     101.559385040000
      7148   11       95.541071866570      96.791353019480     101.559385040000
      7149    3       91.935748399907      99.913654727203     100.000000000000
      7150    1       91.935748399907      99.913654727203     103.118770080000
      7151    9       91.935748399907     103.035956439931     100.000000000000
      7152    7       91.935748399907     103.035956439931     103.118770080000
      7153    2       92.837079261567     101.474805578561     101.559385040000
      7154    8       92.837079261567     104.597107291289     101.559385040000
      7155    6       94.639740994898     101.474805578561     100.000000000000
      7156    4       94.639740994898     101.474805578561     103.118770080000
      7157   12       94.639740994898     104.597107291289     100.000000000000
      7158   10       94.639740994898     104.597107291289     103.118770080000
      7159    5       95.541071866570      99.913654727203     101.559385040000
      7160   11       95.541071866570     103.035956439931     101.559385040000
      7161    3       91.935748399907     106.158258147653     100.000000000000
      7162    1       91.935748399907     106.158258147653     103.118770080000
      7163    9       91.935748399907     109.280559860381     100.000000000000
      7164    7       91.935748399907     109.280559860381     103.118770080000
      7165    2       92.837079261567     107.719408999011     101.559385040000
      7166    8       92.837079261567     110.841710711739     101.559385040000
      7167    6       94.639740994898     107.719408999011     100.000000000000
      7168    4       94.639740994898     107.719408999011     103.118770080000
      7169   12       94.639740994898     110.841710711739     100.000000000000
      7170   10       94.639740994898     110.841710711739     103.118770080000
      7171    5       95.541071866570     106.158258147653     101.559385040000
      7172   11       95.541071866570     109.280559860381     101.559385040000
      7173    3       97.343733599901      74.935241045402     100.000000000000
      7174    1       97.343733599901      74.935241045402     103.118770080000
      7175    9       97.343733599901      78.057542758130     100.000000000000
      7176    7       97.343733599901      78.057542758130     103.118770080000
      7177    2       98.245064461561      76.496391896760     101.559385040000
      7178    8       98.245064461561      79.618693609488     101.559385040000
      7179    6      100.047726194893      76.496391896760     100.000000000000
      7180    4      100.047726194893      76.496391896760     103.118770080000
      7181   12      100.047726194893      79.618693609488     100.000000000000
      7182   10      100.047726194893      79.618693609488     103.118770080000
      7183    5      100.949057066564      74.935241045402     101.559385040000
      7184   11      100.949057066564      78.057542758130     101.559385040000
      7185    3       97.343733599901      81.179844465852     100.000000000000
      7186    1       97.343733599901      81.179844465852     103.118770080000
      7187    9       97.343733599901      84.302146178580     100.000000000000
      7188    7       97.343733599901      84.302146178580     103.118770080000
      7189    2       98.245064461561      82.740995317210     101.559385040000
      7190    8       98.245064461561      85.863297029938     101.559385040000
      7191    6      100.047726194893      82.740995317210     100.000000000000
      7192    4      100.047726194893      82.740995317210     103.118770080000
      7193   12      100.047726194893      85.863297029938     100.000000000000
      7194   10      100.047726194893      85.863297029938     103.118770080000
      7195    5      100.949057066564      81.179844465852     101.559385040000
      7196   11      100.949057066564      84.302146178580     101.559385040000
      7197    3       97.343733599901      87.424447886302     100.000000000000
      7198    1       97.343733599901      87.424447886302     103.118770080000
      7199    9       97.343733599901      90.546749599030     100.000000000000
      7200    7       97.343733599901      90.546749599030     103.118770080000
      7201    2       98.245064461561      88.985598737661     101.559385040000
      7202    8       98.245064461561      92.107900450389     101.559385040000
      7203    6      100.047726194893      88.985598737661     100.000000000000
      7204    4      100.047726194893      88.985598737661     103.118770080000
      7205   12      100.047726194893      92.107900450389     100.000000000000
      7206   10      100.047726194893      92.107900450389     103.118770080000
      7207    5      100.949057066564      87.424447886302     101.559385040000
      7208   11      100.949057066564      90.546749599030     101.559385040000
      7209    3       97.343733599901      93.669051306752     100.000000000000
      7210    1       97.343733599901      93.669051306752     103.118770080000
      7211    9       97.343733599901      96.791353019480     100.000000000000
      7212    7       97.343733599901      96.791353019480     103.118770080000
      7213    2       98.245064461561      95.230202158111     101.559385040000
      7214    8       98.245064461561      98.352503870839     101.559385040000
      7215    6      100.047726194893      95.230202158111     100.000000000000
      7216    4      100.047726194893      95.230202158111     103.118770080000
      7217   12      100.047726194893      98.352503870839     100.000000000000
      7218   10      100.047726194893      98.352503870839     103.118770080000
      7219    5      100.949057066564      93.669051306752     101.559385040000
      7220   11      100.949057066564      96.791353019480     101.559385040000
      7221    3       97.343733599901      99.913654727203     100.000000000000
      7222    1       97.343733599901      99.913654727203     103.118770080000
      7223    9       97.343733599901     103.035956439931     100.000000000000
      7224    7       97.343733599901     103.035956439931     103.118770080000
      7225    2       98.245064461561     101.474805578561     101.559385040000
      7226    8       98.245064461561     104.597107291289     101.559385040000
      7227    6      100.047726194893     101.474805578561     100.000000000000
      7228    4      100.047726194893     101.474805578561     103.118770080000
      7229   12      100.047726194893     104.597107291289     100.000000000000
      7230   10      100.047726194893     104.597107291289     103.118770080000
      7231    5      100.949057066564      99.913654727203     101.559385040000
      7232   11      100.949057066564     103.035956439931     101.559385040000
      7233    3       97.343733599901     106.158258147653     100.000000000000
      7234    1       97.343733599901     106.158258147653     103.118770080000
      7235    9       97.343733599901     109.280559860381     100.000000000000
      7236    7       97.343733599901     109.280559860381     103.118770080000
      7237    2       98.245064461561     107.719408999011     101.559385040000
      7238    8       98.245064461561     110.841710711739     101.559385040000
      7239    6      100.047726194893     107.719408999011     100.000000000000
      7240    4      100.047726194893     107.719408999011     103.118770080000
      7241   12      100.047726194893     110.841710711739     100.000000000000
      7242   10      100.047726194893     110.841710711739     103.118770080000
      7243    5      100.949057066564     106.158258147653     101.559385040000
      7244   11      100.949057066564     109.280559860381     101.559385040000
      7245    3      102.751718799896      74.935241045402     100.000000000000
      7246    1      102.751718799896      74.935241045402     103.118770080000
      7247    9      102.751718799896      78.057542758130     100.000000000000
      7248    7      102.751718799896      78.057542758130     103.118770080000
      7249    2      103.653049661556      76.496391896760     101.559385040000
      7250    8      103.653049661556      79.618693609488     101.559385040000
      7251    6      105.455711394887      76.496391896760     100.000000000000
      7252    4      105.455711394887      76.496391896760     103.118770080000
      7253   12      105.455711394887      79.618693609488     100.000000000000
      7254   10      105.455711394887      79.618693609488     103.118770080000
      7255    5      106.357042266559      74.935241045402     101.559385040000
      7256   11      106.357042266559      78.057542758130     101.559385040000
      7257    3      102.751718799896      81.179844465852     100.000000000000
      7258    1      102.751718799896      81.179844465852     103.118770080000
      7259    9      102.751718799896      84.302146178580     100.000000000000
      7260    7      102.751718799896      84.302146178580     103.118770080000
      7261    2      103.653049661556      82.740995317210     101.559385040000
      7262    8      103.653049661556      85.863297029938     101.559385040000
      7263    6      105.455711394887      82.740995317210     100.000000000000
      7264    4      105.455711394887      82.740995317210     103.118770080000
      7265   12      105.455711394887      85.863297029938     100.000000000000
      7266   10      105.455711394887      85.863297029938     103.118770080000
      7267    5      106.357042266559      81.179844465852     101.559385040000
      7268   11      106.357042266559      84.302146178580     101.559385040000
      7269    3      102.751718799896      87.424447886302     100.000000000000
      7270    1      102.751718799896      87.424447886302     103.118770080000
      7271    9      102.751718799896      90.546749599030     100.000000000000
      7272    7      102.751718799896      90.546749599030     103.118770080000
      7273    2      103.653049661556      88.985598737661     101.559385040000
      7274    8      103.653049661556      92.107900450389     101.559385040000
      7275    6      105.455711394887      88.985598737661     100.000000000000
      7276    4      105.455711394887      88.985598737661     103.118770080000
      7277   12      105.455711394887      92.107900450389     100.000000000000
      7278   10      105.455711394887      92.107900450389     103.118770080000
      7279    5      106.357042266559      87.424447886302     101.559385040000
      7280   11      106.357042266559      90.546749599030     101.559385040000
      7281    3      102.751718799896      93.669051306752     100.000000000000
      7282    1      102.751718799896      93.669051306752     103.118770080000
      7283    9      102.751718799896      96.791353019480     100.000000000000
      7284    7      102.751718799896      96.791353019480     103.118770080000
      7285    2      103.653049661556      95.230202158111     101.559385040000
      7286    8      103.653049661556      98.352503870839     101.559385040000
      7287    6      105.455711394887      95.230202158111     100.000000000000
      7288    4      105.455711394887      95.230202158111     103.118770080000
      7289   12      105.455711394887      98.352503870839     100.000000000000
      7290   10      105.455711394887      98.352503870839     103.118770080000
      7291    5      106.357042266559      93.669051306752     101.559385040000
      7292   11      106.357042266559      96.791353019480     101.559385040000
      7293    3      102.751718799896      99.913654727203     100.000000000000
      7294    1      102.751718799896      99.913654727203     103.118770080000
      7295    9      102.751718799896     103.035956439931     100.000000000000
      7296    7      102.751718799896     103.035956439931     103.118770080000
      7297    2      103.653049661556     101.474805578561     101.559385040000
      7298    8      103.653049661556     104.597107291289     101.559385040000
      7299    6      105.455711394887     101.474805578561     100.000000000000
      7300    4      105.455711394887     101.474805578561     103.118770080000
      7301   12      105.455711394887     104.597107291289     100.000000000000
      7302   10      105.455711394887     104.597107291289     103.118770080000
      7303    5      106.357042266559      99.913654727203     101.559385040000
      7304   11      106.357042266559     103.035956439931     101.559385040000
      7305    3      102.751718799896     106.158258147653     100.000000000000
      7306    1      102.751718799896     106.158258147653     103.118770080000
      7307    9      102.751718799896     109.280559860381     100.000000000000
      7308    7      102.751718799896     109.280559860381     103.118770080000
      7309    2      103.653049661556     107.719408999011     101.559385040000
      7310    8      103.653049661556     110.841710711739     101.559385040000
      7311    6      105.455711394887     107.719408999011     100.000000000000
      7312    4      105.455711394887     107.719408999011     103.118770080000
      7313   12      105.455711394887     110.841710711739     100.000000000000
      7314   10      105.455711394887     110.841710711739     103.118770080000
      7315    5      106.357042266559     106.158258147653     101.559385040000
      7316   11      106.357042266559     109.280559860381     101.559385040000
      7317    3      108.159703999890      74.935241045402     100.000000000000
      7318    1      108.159703999890      74.935241045402     103.118770080000
      7319    9      108.159703999890      78.057542758130     100.000000000000
      7320    7      108.159703999890      78.057542758130     103.118770080000
      7321    2      109.061034861550      76.496391896760     101.559385040000
      7322    8      109.061034861550      79.618693609488     101.559385040000
      7323    6      110.863696594882      76.496391896760     100.000000000000
      7324    4      110.863696594882      76.496391896760     103.118770080000
      7325   12      110.863696594882      79.618693609488     100.000000000000
      7326   10      110.863696594882      79.618693609488     103.118770080000
      7327    5      111.765027466553      74.935241045402     101.559385040000
      7328   11      111.765027466553      78.057542758130     101.559385040000
      7329    3      108.159703999890      81.179844465852     100.000000000000
      7330    1      108.159703999890      81.179844465852     103.118770080000
      7331    9      108.159703999890      84.302146178580     100.000000000000
      7332    7      108.159703999890      84.302146178580     103.118770080000
      7333    2      109.061034861550      82.740995317210     101.559385040000
      7334    8      109.061034861550      85.863297029938     101.559385040000
      7335    6      110.863696594882      82.740995317210     100.000000000000
      7336    4      110.863696594882      82.740995317210     103.118770080000
      7337   12      110.863696594882      85.863297029938     100.000000000000
      7338   10      110.863696594882      85.863297029938     103.118770080000
      7339    5      111.765027466553      81.179844465852     101.559385040000
      7340   11      111.765027466553      84.302146178580     101.559385040000
      7341    3      108.159703999890      87.424447886302     100.000000000000
      7342    1      108.159703999890      87.424447886302     103.118770080000
      7343    9      108.159703999890      90.546749599030     100.000000000000
      7344    7      108.159703999890      90.546749599030     103.118770080000
      7345    2      109.061034861550      88.985598737661     101.559385040000
      7346    8      109.061034861550      92.107900450389     101.559385040000
      7347    6      110.863696594882      88.985598737661     100.000000000000
      7348    4      110.863696594882      88.985598737661     103.118770080000
      7349   12      110.863696594882      92.107900450389     100.000000000000
      7350   10      110.863696594882      92.107900450389     103.118770080000
      7351    5      111.765027466553      87.424447886302     101.559385040000
      7352   11      111.765027466553      90.546749599030     101.559385040000
      7353    3      108.159703999890      93.669051306752     100.000000000000
      7354    1      108.159703999890      93.669051306752     103.118770080000
      7355    9      108.159703999890      96.791353019480     100.000000000000
      7356    7      108.159703999890      96.791353019480     103.118770080000
      7357    2      109.061034861550      95.230202158111     101.559385040000
      7358    8      109.061034861550      98.352503870839     101.559385040000
      7359    6      110.863696594882      95.230202158111     100.000000000000
      7360    4      110.863696594882      95.230202158111     103.118770080000
      7361   12      110.863696594882      98.352503870839     100.000000000000
      7362   10      110.863696594882      98.352503870839     103.118770080000
      7363    5      111.765027466553      93.669051306752     101.559385040000
      7364   11      111.765027466553      96.791353019480     101.559385040000
      7365    3      108.159703999890      99.913654727203     100.000000000000
      7366    1      108.159703999890      99.913654727203     103.118770080000
      7367    9      108.159703999890     103.035956439931     100.000000000000
      7368    7      108.159703999890     103.035956439931     103.118770080000
      7369    2      109.061034861550     101.474805578561     101.559385040000
      7370    8      109.061034861550     104.597107291289     101.559385040000
      7371    6      110.863696594882     101.474805578561     100.000000000000
      7372    4      110.863696594882     101.474805578561     103.118770080000
      7373   12      110.863696594882     104.597107291289     100.000000000000
      7374   10      110.863696594882     104.597107291289     103.118770080000
      7375    5      111.765027466553      99.913654727203     101.559385040000
      7376   11      111.765027466553     103.035956439931     101.559385040000
      7377    3      108.159703999890     106.158258147653     100.000000000000
      7378    1      108.159703999890     106.158258147653     103.118770080000
      7379    9      108.159703999890     109.280559860381     100.000000000000
      7380    7      108.159703999890     109.280559860381     103.118770080000
      7381    2      109.061034861550     107.719408999011     101.559385040000
      7382    8      109.061034861550     110.841710711739     101.559385040000
      7383    6      110.863696594882     107.719408999011     100.000000000000
      7384    4      110.863696594882     107.719408999011     103.118770080000
      7385   12      110.863696594882     110.841710711739     100.000000000000
      7386   10      110.863696594882     110.841710711739     103.118770080000
      7387    5      111.765027466553     106.158258147653     101.559385040000
      7388   11      111.765027466553     109.280559860381     101.559385040000
      7389    3      113.567689199885      74.935241045402     100.000000000000
      7390    1      113.567689199885      74.935241045402     103.118770080000
      7391    9      113.567689199885      78.057542758130     100.000000000000
      7392    7      113.567689199885      78.057542758130     103.118770080000
      7393    2      114.469020061545      76.496391896760     101.559385040000
      7394    8      114.469020061545      79.618693609488     101.559385040000
      7395    6      116.271681794876      76.496391896760     100.000000000000
      7396    4      116.271681794876      76.496391896760     103.118770080000
      7397   12      116.271681794876      79.618693609488     100.000000000000
      7398   10      116.271681794876      79.618693609488     103.118770080000
      7399    5      117.173012666548      74.935241045402     101.559385040000
      7400   11      117.173012666548      78.057542758130     101.559385040000
      7401    3      113.567689199885      81.179844465852     100.000000000000
      7402    1      113.567689199885      81.179844465852     103.118770080000
      7403    9      113.567689199885      84.302146178580     100.000000000000
      7404    7      113.567689199885      84.302146178580     103.118770080000
      7405    2      114.469020061545      82.740995317210     101.559385040000
      7406    8      114.469020061545      85.863297029938     101.559385040000
      7407    6      116.271681794876      82.740995317210     100.000000000000
      7408    4      116.271681794876      82.740995317210     103.118770080000
      7409   12      116.271681794876      85.863297029938     100.000000000000
      7410   10      116.271681794876      85.863297029938     103.118770080000
      7411    5      117.173012666548      81.179844465852     101.559385040000
      7412   11      117.173012666548      84.302146178580     101.559385040000
      7413    3      113.567689199885      87.424447886302     100.000000000000
      7414    1      113.567689199885      87.424447886302     103.118770080000
      7415    9      113.567689199885      90.546749599030     100.000000000000
      7416    7      113.567689199885      90.546749599030     103.118770080000
      7417    2      114.469020061545      88.985598737661     101.559385040000
      7418    8      114.469020061545      92.107900450389     101.559385040000
      7419    6      116.271681794876      88.985598737661     100.000000000000
      7420    4      116.271681794876      88.985598737661     103.118770080000
      7421   12      116.271681794876      92.107900450389     100.000000000000
      7422   10      116.271681794876      92.107900450389     103.118770080000
      7423    5      117.173012666548      87.424447886302     101.559385040000
      7424   11      117.173012666548      90.546749599030     101.559385040000
      7425    3      113.567689199885      93.669051306752     100.000000000000
      7426    1      113.567689199885      93.669051306752     103.118770080000
      7427    9      113.567689199885      96.791353019480     100.000000000000
      7428    7      113.567689199885      96.791353019480     103.118770080000
      7429    2      114.469020061545      95.230202158111     101.559385040000
      7430    8      114.469020061545      98.352503870839     101.559385040000
      7431    6      116.271681794876      95.230202158111     100.000000000000
      7432    4      116.271681794876      95.230202158111     103.118770080000
      7433   12      116.271681794876      98.352503870839     100.000000000000
      7434   10      116.271681794876      98.352503870839     103.118770080000
      7435    5      117.173012666548      93.669051306752     101.559385040000
      7436   11      117.173012666548      96.791353019480     101.559385040000
      7437    3      113.567689199885      99.913654727203     100.000000000000
      7438    1      113.567689199885      99.913654727203     103.118770080000
      7439    9      113.567689199885     103.035956439931     100.000000000000
      7440    7      113.567689199885     103.035956439931     103.118770080000
      7441    2      114.469020061545     101.474805578561     101.559385040000
      7442    8      114.469020061545     104.597107291289     101.559385040000
      7443    6      116.271681794876     101.474805578561     100.000000000000
      7444    4      116.271681794876     101.474805578561     103.118770080000
      7445   12      116.271681794876     104.597107291289     100.000000000000
      7446   10      116.271681794876     104.597107291289     103.118770080000
      7447    5      117.173012666548      99.913654727203     101.559385040000
      7448   11      117.173012666548     103.035956439931     101.559385040000
      7449    3      113.567689199885     106.158258147653     100.000000000000
      7450    1      113.567689199885     106.158258147653     103.118770080000
      7451    9      113.567689199885     109.280559860381     100.000000000000
      7452    7      113.567689199885     109.280559860381     103.118770080000
      7453    2      114.469020061545     107.719408999011     101.559385040000
      7454    8      114.469020061545     110.841710711739     101.559385040000
      7455    6      116.271681794876     107.719408999011     100.000000000000
      7456    4      116.271681794876     107.719408999011     103.118770080000
      7457   12      116.271681794876     110.841710711739     100.000000000000
      7458   10      116.271681794876     110.841710711739     103.118770080000
      7459    5      117.173012666548     106.158258147653     101.559385040000
      7460   11      117.173012666548     109.280559860381     101.559385040000
      7461    3      118.975674399879      74.935241045402     100.000000000000
      7462    1      118.975674399879      74.935241045402     103.118770080000
      7463    9      118.975674399879      78.057542758130     100.000000000000
      7464    7      118.975674399879      78.057542758130     103.118770080000
      7465    2      119.877005261539      76.496391896760     101.559385040000
      7466    8      119.877005261539      79.618693609488     101.559385040000
      7467    6      121.679666994871      76.496391896760     100.000000000000
      7468    4      121.679666994871      76.496391896760     103.118770080000
      7469   12      121.679666994871      79.618693609488     100.000000000000
      7470   10      121.679666994871      79.618693609488     103.118770080000
      7471    5      122.580997866542      74.935241045402     101.559385040000
      7472   11      122.580997866542      78.057542758130     101.559385040000
      7473    3      118.975674399879      81.179844465852     100.000000000000
      7474    1      118.975674399879      81.179844465852     103.118770080000
      7475    9      118.975674399879      84.302146178580     100.000000000000
      7476    7      118.975674399879      84.302146178580     103.118770080000
      7477    2      119.877005261539      82.740995317210     101.559385040000
      7478    8      119.877005261539      85.863297029938     101.559385040000
      7479    6      121.679666994871      82.740995317210     100.000000000000
      7480    4      121.679666994871      82.740995317210     103.118770080000
      7481   12      121.679666994871      85.863297029938     100.000000000000
      7482   10      121.679666994871      85.863297029938     103.118770080000
      7483    5      122.580997866542      81.179844465852     101.559385040000
      7484   11      122.580997866542      84.302146178580     101.559385040000
      7485    3      118.975674399879      87.424447886302     100.000000000000
      7486    1      118.975674399879      87.424447886302     103.118770080000
      7487    9      118.975674399879      90.546749599030     100.000000000000
      7488    7      118.975674399879      90.546749599030     103.118770080000
      7489    2      119.877005261539      88.985598737661     101.559385040000
      7490    8      119.877005261539      92.107900450389     101.559385040000
      7491    6      121.679666994871      88.985598737661     100.000000000000
      7492    4      121.679666994871      88.985598737661     103.118770080000
      7493   12      121.679666994871      92.107900450389     100.000000000000
      7494   10      121.679666994871      92.107900450389     103.118770080000
      7495    5      122.580997866542      87.424447886302     101.559385040000
      7496   11      122.580997866542      90.546749599030     101.559385040000
      7497    3      118.975674399879      93.669051306752     100.000000000000
      7498    1      118.975674399879      93.669051306752     103.118770080000
      7499    9      118.975674399879      96.791353019480     100.000000000000
      7500    7      118.975674399879      96.791353019480     103.118770080000
      7501    2      119.877005261539      95.230202158111     101.559385040000
      7502    8      119.877005261539      98.352503870839     101.559385040000
      7503    6      121.679666994871      95.230202158111     100.000000000000
      7504    4      121.679666994871      95.230202158111     103.118770080000
      7505   12      121.679666994871      98.352503870839     100.000000000000
      7506   10      121.679666994871      98.352503870839     103.118770080000
      7507    5      122.580997866542      93.669051306752     101.559385040000
      7508   11      122.580997866542      96.791353019480     101.559385040000
      7509    3      118.975674399879      99.913654727203     100.000000000000
      7510    1      118.975674399879      99.913654727203     103.118770080000
      7511    9      118.975674399879     103.035956439931     100.000000000000
      7512    7      118.975674399879     103.035956439931     103.118770080000
      7513    2      119.877005261539     101.474805578561     101.559385040000
      7514    8      119.877005261539     104.597107291289     101.559385040000
      7515    6      121.679666994871     101.474805578561     100.000000000000
      7516    4      121.679666994871     101.474805578561     103.118770080000
      7517   12      121.679666994871     104.597107291289     100.000000000000
      7518   10      121.679666994871     104.597107291289     103.118770080000
      7519    5      122.580997866542      99.913654727203     101.559385040000
      7520   11      122.580997866542     103.035956439931     101.559385040000
      7521    3      118.975674399879     106.158258147653     100.000000000000
      7522    1      118.975674399879     106.158258147653     103.118770080000
      7523    9      118.975674399879     109.280559860381     100.000000000000
      7524    7      118.975674399879     109.280559860381     103.118770080000
      7525    2      119.877005261539     107.719408999011     101.559385040000
      7526    8      119.877005261539     110.841710711739     101.559385040000
      7527    6      121.679666994871     107.719408999011     100.000000000000
      7528    4      121.679666994871     107.719408999011     103.118770080000
      7529   12      121.679666994871     110.841710711739     100.000000000000
      7530   10      121.679666994871     110.841710711739     103.118770080000
      7531    5      122.580997866542     106.158258147653     101.559385040000
      7532   11      122.580997866542     109.280559860381     101.559385040000
      7533    3      124.383659599874      74.935241045402     100.000000000000
      7534    1      124.383659599874      74.935241045402     103.118770080000
      7535    9      124.383659599874      78.057542758130     100.000000000000
      7536    7      124.383659599874      78.057542758130     103.118770080000
      7537    2      125.284990461534      76.496391896760     101.559385040000
      7538    8      125.284990461534      79.618693609488     101.559385040000
      7539    6      127.087652194865      76.496391896760     100.000000000000
      7540    4      127.087652194865      76.496391896760     103.118770080000
      7541   12      127.087652194865      79.618693609488     100.000000000000
      7542   10      127.087652194865      79.618693609488     103.118770080000
      7543    5      127.988983066537      74.935241045402     101.559385040000
      7544   11      127.988983066537      78.057542758130     101.559385040000
      7545    3      124.383659599874      81.179844465852     100.000000000000
      7546    1      124.383659599874      81.179844465852     103.118770080000
      7547    9      124.383659599874      84.302146178580     100.000000000000
      7548    7      124.383659599874      84.302146178580     103.118770080000
      7549    2      125.284990461534      82.740995317210     101.559385040000
      7550    8      125.284990461534      85.863297029938     101.559385040000
      7551    6      127.087652194865      82.740995317210     100.000000000000
      7552    4      127.087652194865      82.740995317210     103.118770080000
      7553   12      127.087652194865      85.863297029938     100.000000000000
      7554   10      127.087652194865      85.863297029938     103.118770080000
      7555    5      127.988983066537      81.179844465852     101.559385040000
      7556   11      127.988983066537      84.302146178580     101.559385040000
      7557    3      124.383659599874      87.424447886302     100.000000000000
      7558    1      124.383659599874      87.424447886302     103.118770080000
      7559    9      124.383659599874      90.546749599030     100.000000000000
      7560    7      124.383659599874      90.546749599030     103.118770080000
      7561    2      125.284990461534      88.985598737661     101.559385040000
      7562    8      125.284990461534      92.107900450389     101.559385040000
      7563    6      127.087652194865      88.985598737661     100.000000000000
      7564    4      127.087652194865      88.985598737661     103.118770080000
      7565   12      127.087652194865      92.107900450389     100.000000000000
      7566   10      127.087652194865      92.107900450389     103.118770080000
      7567    5      127.988983066537      87.424447886302     101.559385040000
      7568   11      127.988983066537      90.546749599030     101.559385040000
      7569    3      124.383659599874      93.669051306752     100.000000000000
      7570    1      124.383659599874      93.669051306752     103.118770080000
      7571    9      124.383659599874      96.791353019480     100.000000000000
      7572    7      124.383659599874      96.791353019480     103.118770080000
      7573    2      125.284990461534      95.230202158111     101.559385040000
      7574    8      125.284990461534      98.352503870839     101.559385040000
      7575    6      127.087652194865      95.230202158111     100.000000000000
      7576    4      127.087652194865      95.230202158111     103.118770080000
      7577   12      127.087652194865      98.352503870839     100.000000000000
      7578   10      127.087652194865      98.352503870839     103.118770080000
      7579    5      127.988983066537      93.669051306752     101.559385040000
      7580   11      127.988983066537      96.791353019480     101.559385040000
      7581    3      124.383659599874      99.913654727203     100.000000000000
      7582    1      124.383659599874      99.913654727203     103.118770080000
      7583    9      124.383659599874     103.035956439931     100.000000000000
      7584    7      124.383659599874     103.035956439931     103.118770080000
      7585    2      125.284990461534     101.474805578561     101.559385040000
      7586    8      125.284990461534     104.597107291289     101.559385040000
      7587    6      127.087652194865     101.474805578561     100.000000000000
      7588    4      127.087652194865     101.474805578561     103.118770080000
      7589   12      127.087652194865     104.597107291289     100.000000000000
      7590   10      127.087652194865     104.597107291289     103.118770080000
      7591    5      127.988983066537      99.913654727203     101.559385040000
      7592   11      127.988983066537     103.035956439931     101.559385040000
      7593    3      124.383659599874     106.158258147653     100.000000000000
      7594    1      124.383659599874     106.158258147653     103.118770080000
      7595    9      124.383659599874     109.280559860381     100.000000000000
      7596    7      124.383659599874     109.280559860381     103.118770080000
      7597    2      125.284990461534     107.719408999011     101.559385040000
      7598    8      125.284990461534     110.841710711739     101.559385040000
      7599    6      127.087652194865     107.719408999011     100.000000000000
      7600    4      127.087652194865     107.719408999011     103.118770080000
      7601   12      127.087652194865     110.841710711739     100.000000000000
      7602   10      127.087652194865     110.841710711739     103.118770080000
      7603    5      127.988983066537     106.158258147653     101.559385040000
      7604   11      127.988983066537     109.280559860381     101.559385040000
      7605   14       64.895822399934      74.935241045402     106.818770080000
      7606   13       65.879092430836      76.638314701429     106.818770080000
      7607   14       67.845632503561      76.638314701429     106.818770080000
      7608   13       68.828902545385      74.935241045402     106.818770080000
      7609   14       64.895822399934      78.341388365648     106.818770080000
      7610   13       65.879092430836      80.044462021675     106.818770080000
      7611   14       67.845632503561      80.044462021675     106.818770080000
      7612   13       68.828902545385      78.341388365648     106.818770080000
      7613   14       64.895822399934      81.747535685893     106.818770080000
      7614   13       65.879092430836      83.450609341920     106.818770080000
      7615   14       67.845632503561      83.450609341920     106.818770080000
      7616   13       68.828902545385      81.747535685893     106.818770080000
      7617   14       64.895822399934      85.153683006139     106.818770080000
      7618   13       65.879092430836      86.856756662166     106.818770080000
      7619   14       67.845632503561      86.856756662166     106.818770080000
      7620   13       68.828902545385      85.153683006139     106.818770080000
      7621   14       64.895822399934      88.559830326384     106.818770080000
      7622   13       65.879092430836      90.262903982412     106.818770080000
      7623   14       67.845632503561      90.262903982412     106.818770080000
      7624   13       68.828902545385      88.559830326384     106.818770080000
      7625   14       64.895822399934      91.965977646630     106.818770080000
      7626   13       65.879092430836      93.669051302657     106.818770080000
      7627   14       67.845632503561      93.669051302657     106.818770080000
      7628   13       68.828902545385      91.965977646630     106.818770080000
      7629   14       64.895822399934      95.372124966875     106.818770080000
      7630   13       65.879092430836      97.075198622903     106.818770080000
      7631   14       67.845632503561      97.075198622903     106.818770080000
      7632   13       68.828902545385      95.372124966875     106.818770080000
      7633   14       64.895822399934      98.778272287121     106.818770080000
      7634   13       65.879092430836     100.481345943148     106.818770080000
      7635   14       67.845632503561     100.481345943148     106.818770080000
      7636   13       68.828902545385      98.778272287121     106.818770080000
      7637   14       64.895822399934     102.184419607366     106.818770080000
      7638   13       65.879092430836     103.887493263394     106.818770080000
      7639   14       67.845632503561     103.887493263394     106.818770080000
      7640   13       68.828902545385     102.184419607366     106.818770080000
      7641   14       64.895822399934     105.590566927612     106.818770080000
      7642   13       65.879092430836     107.293640583639     106.818770080000
      7643   14       67.845632503561     107.293640583639     106.818770080000
      7644   13       68.828902545385     105.590566927612     106.818770080000
      7645   14       64.895822399934     108.996714247857     106.818770080000
      7646   13       65.879092430836     110.699787903885     106.818770080000
      7647   14       67.845632503561     110.699787903885     106.818770080000
      7648   13       68.828902545385     108.996714247857     106.818770080000
      7649   14       70.795442618110      74.935241045402     106.818770080000
      7650   13       71.778712649012      76.638314701429     106.818770080000
      7651   14       73.745252721737      76.638314701429     106.818770080000
      7652   13       74.728522763561      74.935241045402     106.818770080000
      7653   14       70.795442618110      78.341388365648     106.818770080000
      7654   13       71.778712649012      80.044462021675     106.818770080000
      7655   14       73.745252721737      80.044462021675     106.818770080000
      7656   13       74.728522763561      78.341388365648     106.818770080000
      7657   14       70.795442618110      81.747535685893     106.818770080000
      7658   13       71.778712649012      83.450609341920     106.818770080000
      7659   14       73.745252721737      83.450609341920     106.818770080000
      7660   13       74.728522763561      81.747535685893     106.818770080000
      7661   14       70.795442618110      85.153683006139     106.818770080000
      7662   13       71.778712649012      86.856756662166     106.818770080000
      7663   14       73.745252721737      86.856756662166     106.818770080000
      7664   13       74.728522763561      85.153683006139     106.818770080000
      7665   14       70.795442618110      88.559830326384     106.818770080000
      7666   13       71.778712649012      90.262903982412     106.818770080000
      7667   14       73.745252721737      90.262903982412     106.818770080000
      7668   13       74.728522763561      88.559830326384     106.818770080000
      7669   14       70.795442618110      91.965977646630     106.818770080000
      7670   13       71.778712649012      93.669051302657     106.818770080000
      7671   14       73.745252721737      93.669051302657     106.818770080000
      7672   13       74.728522763561      91.965977646630     106.818770080000
      7673   14       70.795442618110      95.372124966875     106.818770080000
      7674   13       71.778712649012      97.075198622903     106.818770080000
      7675   14       73.745252721737      97.075198622903     106.818770080000
      7676   13       74.728522763561      95.372124966875     106.818770080000
      7677   14       70.795442618110      98.778272287121     106.818770080000
      7678   13       71.778712649012     100.481345943148     106.818770080000
      7679   14       73.745252721737     100.481345943148     106.818770080000
      7680   13       74.728522763561      98.778272287121     106.818770080000
      7681   14       70.795442618110     102.184419607366     106.818770080000
      7682   13       71.778712649012     103.887493263394     106.818770080000
      7683   14       73.745252721737     103.887493263394     106.818770080000
      7684   13       74.728522763561     102.184419607366     106.818770080000
      7685   14       70.795442618110     105.590566927612     106.818770080000
      7686   13       71.778712649012     107.293640583639     106.818770080000
      7687   14       73.745252721737     107.293640583639     106.818770080000
      7688   13       74.728522763561     105.590566927612     106.818770080000
      7689   14       70.795442618110     108.996714247857     106.818770080000
      7690   13       71.778712649012     110.699787903885     106.818770080000
      7691   14       73.745252721737     110.699787903885     106.818770080000
      7692   13       74.728522763561     108.996714247857     106.818770080000
      7693   14       76.695062836286      74.935241045402     106.818770080000
      7694   13       77.678332867188      76.638314701429     106.818770080000
      7695   14       79.644872939913      76.638314701429     106.818770080000
      7696   13       80.628142981737      74.935241045402     106.818770080000
      7697   14       76.695062836286      78.341388365648     106.818770080000
      7698   13       77.678332867188      80.044462021675     106.818770080000
      7699   14       79.644872939913      80.044462021675     106.818770080000
      7700   13       80.628142981737      78.341388365648     106.818770080000
      7701   14       76.695062836286      81.747535685893     106.818770080000
      7702   13       77.678332867188      83.450609341920     106.818770080000
      7703   14       79.644872939913      83.450609341920     106.818770080000
      7704   13       80.628142981737      81.747535685893     106.818770080000
      7705   14       76.695062836286      85.153683006139     106.818770080000
      7706   13       77.678332867188      86.856756662166     106.818770080000
      7707   14       79.644872939913      86.856756662166     106.818770080000
      7708   13       80.628142981737      85.153683006139     106.818770080000
      7709   14       76.695062836286      88.559830326384     106.818770080000
      7710   13       77.678332867188      90.262903982412     106.818770080000
      7711   14       79.644872939913      90.262903982412     106.818770080000
      7712   13       80.628142981737      88.559830326384     106.818770080000
      7713   14       76.695062836286      91.965977646630     106.818770080000
      7714   13       77.678332867188      93.669051302657     106.818770080000
      7715   14       79.644872939913      93.669051302657     106.818770080000
      7716   13       80.628142981737      91.965977646630     106.818770080000
      7717   14       76.695062836286      95.372124966875     106.818770080000
      7718   13       77.678332867188      97.075198622903     106.818770080000
      7719   14       79.644872939913      97.075198622903     106.818770080000
      7720   13       80.628142981737      95.372124966875     106.818770080000
      7721   14       76.695062836286      98.778272287121     106.818770080000
      7722   13       77.678332867188     100.481345943148     106.818770080000
      7723   14       79.644872939913     100.481345943148     106.818770080000
      7724   13       80.628142981737      98.778272287121     106.818770080000
      7725   14       76.695062836286     102.184419607366     106.818770080000
      7726   13       77.678332867188     103.887493263394     106.818770080000
      7727   14       79.644872939913     103.887493263394     106.818770080000
      7728   13       80.628142981737     102.184419607366     106.818770080000
      7729   14       76.695062836286     105.590566927612     106.818770080000
      7730   13       77.678332867188     107.293640583639     106.818770080000
      7731   14       79.644872939913     107.293640583639     106.818770080000
      7732   13       80.628142981737     105.590566927612     106.818770080000
      7733   14       76.695062836286     108.996714247857     106.818770080000
      7734   13       77.678332867188     110.699787903885     106.818770080000
      7735   14       79.644872939913     110.699787903885     106.818770080000
      7736   13       80.628142981737     108.996714247857     106.818770080000
      7737   14       82.594683054462      74.935241045402     106.818770080000
      7738   13       83.577953085363      76.638314701429     106.818770080000
      7739   14       85.544493158089      76.638314701429     106.818770080000
      7740   13       86.527763199912      74.935241045402     106.818770080000
      7741   14       82.594683054462      78.341388365648     106.818770080000
      7742   13       83.577953085363      80.044462021675     106.818770080000
      7743   14       85.544493158089      80.044462021675     106.818770080000
      7744   13       86.527763199912      78.341388365648     106.818770080000
      7745   14       82.594683054462      81.747535685893     106.818770080000
      7746   13       83.577953085363      83.450609341920     106.818770080000
      7747   14       85.544493158089      83.450609341920     106.818770080000
      7748   13       86.527763199912      81.747535685893     106.818770080000
      7749   14       82.594683054462      85.153683006139     106.818770080000
      7750   13       83.577953085363      86.856756662166     106.818770080000
      7751   14       85.544493158089      86.856756662166     106.818770080000
      7752   13       86.527763199912      85.153683006139     106.818770080000
      7753   14       82.594683054462      88.559830326384     106.818770080000
      7754   13       83.577953085363      90.262903982412     106.818770080000
      7755   14       85.544493158089      90.262903982412     106.818770080000
      7756   13       86.527763199912      88.559830326384     106.818770080000
      7757   14       82.594683054462      91.965977646630     106.818770080000
      7758   13       83.577953085363      93.669051302657     106.818770080000
      7759   14       85.544493158089      93.669051302657     106.818770080000
      7760   13       86.527763199912      91.965977646630     106.818770080000
      7761   14       82.594683054462      95.372124966875     106.818770080000
      7762   13       83.577953085363      97.075198622903     106.818770080000
      7763   14       85.544493158089      97.075198622903     106.818770080000
      7764   13       86.527763199912      95.372124966875     106.818770080000
      7765   14       82.594683054462      98.778272287121     106.818770080000
      7766   13       83.577953085363     100.481345943148     106.818770080000
      7767   14       85.544493158089     100.481345943148     106.818770080000
      7768   13       86.527763199912      98.778272287121     106.818770080000
      7769   14       82.594683054462     102.184419607366     106.818770080000
      7770   13       83.577953085363     103.887493263394     106.818770080000
      7771   14       85.544493158089     103.887493263394     106.818770080000
      7772   13       86.527763199912     102.184419607366     106.818770080000
      7773   14       82.594683054462     105.590566927612     106.818770080000
      7774   13       83.577953085363     107.293640583639     106.818770080000
      7775   14       85.544493158089     107.293640583639     106.818770080000
      7776   13       86.527763199912     105.590566927612     106.818770080000
      7777   14       82.594683054462     108.996714247857     106.818770080000
      7778   13       83.577953085363     110.699787903885     106.818770080000
      7779   14       85.544493158089     110.699787903885     106.818770080000
      7780   13       86.527763199912     108.996714247857     106.818770080000
      7781   14       88.494303272637      74.935241045402     106.818770080000
      7782   13       89.477573303539      76.638314701429     106.818770080000
      7783   14       91.444113376265      76.638314701429     106.818770080000
      7784   13       92.427383418088      74.935241045402     106.818770080000
      7785   14       88.494303272637      78.341388365648     106.818770080000
      7786   13       89.477573303539      80.044462021675     106.818770080000
      7787   14       91.444113376265      80.044462021675     106.818770080000
      7788   13       92.427383418088      78.341388365648     106.818770080000
      7789   14       88.494303272637      81.747535685893     106.818770080000
      7790   13       89.477573303539      83.450609341920     106.818770080000
      7791   14       91.444113376265      83.450609341920     106.818770080000
      7792   13       92.427383418088      81.747535685893     106.818770080000
      7793   14       88.494303272637      85.153683006139     106.818770080000
      7794   13       89.477573303539      86.856756662166     106.818770080000
      7795   14       91.444113376265      86.856756662166     106.818770080000
      7796   13       92.427383418088      85.153683006139     106.818770080000
      7797   14       88.494303272637      88.559830326384     106.818770080000
      7798   13       89.477573303539      90.262903982412     106.818770080000
      7799   14       91.444113376265      90.262903982412     106.818770080000
      7800   13       92.427383418088      88.559830326384     106.818770080000
      7801   14       88.494303272637      91.965977646630     106.818770080000
      7802   13       89.477573303539      93.669051302657     106.818770080000
      7803   14       91.444113376265      93.669051302657     106.818770080000
      7804   13       92.427383418088      91.965977646630     106.818770080000
      7805   14       88.494303272637      95.372124966875     106.818770080000
      7806   13       89.477573303539      97.075198622903     106.818770080000
      7807   14       91.444113376265      97.075198622903     106.818770080000
      7808   13       92.427383418088      95.372124966875     106.818770080000
      7809   14       88.494303272637      98.778272287121     106.818770080000
      7810   13       89.477573303539     100.481345943148     106.818770080000
      7811   14       91.444113376265     100.481345943148     106.818770080000
      7812   13       92.427383418088      98.778272287121     106.818770080000
      7813   14       88.494303272637     102.184419607366     106.818770080000
      7814   13       89.477573303539     103.887493263394     106.818770080000
      7815   14       91.444113376265     103.887493263394     106.818770080000
      7816   13       92.427383418088     102.184419607366     106.818770080000
      7817   14       88.494303272637     105.590566927612     106.818770080000
      7818   13       89.477573303539     107.293640583639     106.818770080000
      7819   14       91.444113376265     107.293640583639     106.818770080000
      7820   13       92.427383418088     105.590566927612     106.818770080000
      7821   14       88.494303272637     108.996714247857     106.818770080000
      7822   13       89.477573303539     110.699787903885     106.818770080000
      7823   14       91.444113376265     110.699787903885     106.818770080000
      7824   13       92.427383418088     108.996714247857     106.818770080000
      7825   14       94.393923490813      74.935241045402     106.818770080000
      7826   13       95.377193521715      76.638314701429     106.818770080000
      7827   14       97.343733594441      76.638314701429     106.818770080000
      7828   13       98.327003636264      74.935241045402     106.818770080000
      7829   14       94.393923490813      78.341388365648     106.818770080000
      7830   13       95.377193521715      80.044462021675     106.818770080000
      7831   14       97.343733594441      80.044462021675     106.818770080000
      7832   13       98.327003636264      78.341388365648     106.818770080000
      7833   14       94.393923490813      81.747535685893     106.818770080000
      7834   13       95.377193521715      83.450609341920     106.818770080000
      7835   14       97.343733594441      83.450609341920     106.818770080000
      7836   13       98.327003636264      81.747535685893     106.818770080000
      7837   14       94.393923490813      85.153683006139     106.818770080000
      7838   13       95.377193521715      86.856756662166     106.818770080000
      7839   14       97.343733594441      86.856756662166     106.818770080000
      7840   13       98.327003636264      85.153683006139     106.818770080000
      7841   14       94.393923490813      88.559830326384     106.818770080000
      7842   13       95.377193521715      90.262903982412     106.818770080000
      7843   14       97.343733594441      90.262903982412     106.818770080000
      7844   13       98.327003636264      88.559830326384     106.818770080000
      7845   14       94.393923490813      91.965977646630     106.818770080000
      7846   13       95.377193521715      93.669051302657     106.818770080000
      7847   14       97.343733594441      93.669051302657     106.818770080000
      7848   13       98.327003636264      91.965977646630     106.818770080000
      7849   14       94.393923490813      95.372124966875     106.818770080000
      7850   13       95.377193521715      97.075198622903     106.818770080000
      7851   14       97.343733594441      97.075198622903     106.818770080000
      7852   13       98.327003636264      95.372124966875     106.818770080000
      7853   14       94.393923490813      98.778272287121     106.818770080000
      7854   13       95.377193521715     100.481345943148     106.818770080000
      7855   14       97.343733594441     100.481345943148     106.818770080000
      7856   13       98.327003636264      98.778272287121     106.818770080000
      7857   14       94.393923490813     102.184419607366     106.818770080000
      7858   13       95.377193521715     103.887493263394     106.818770080000
      7859   14       97.343733594441     103.887493263394     106.818770080000
      7860   13       98.327003636264     102.184419607366     106.818770080000
      7861   14       94.393923490813     105.590566927612     106.818770080000
      7862   13       95.377193521715     107.293640583639     106.818770080000
      7863   14       97.343733594441     107.293640583639     106.818770080000
      7864   13       98.327003636264     105.590566927612     106.818770080000
      7865   14       94.393923490813     108.996714247857     106.818770080000
      7866   13       95.377193521715     110.699787903885     106.818770080000
      7867   14       97.343733594441     110.699787903885     106.818770080000
      7868   13       98.327003636264     108.996714247857     106.818770080000
      7869   14      100.293543708989      74.935241045402     106.818770080000
      7870   13      101.276813739891      76.638314701429     106.818770080000
      7871   14      103.243353812616      76.638314701429     106.818770080000
      7872   13      104.226623854440      74.935241045402     106.818770080000
      7873   14      100.293543708989      78.341388365648     106.818770080000
      7874   13      101.276813739891      80.044462021675     106.818770080000
      7875   14      103.243353812616      80.044462021675     106.818770080000
      7876   13      104.226623854440      78.341388365648     106.818770080000
      7877   14      100.293543708989      81.747535685893     106.818770080000
      7878   13      101.276813739891      83.450609341920     106.818770080000
      7879   14      103.243353812616      83.450609341920     106.818770080000
      7880   13      104.226623854440      81.747535685893     106.818770080000
      7881   14      100.293543708989      85.153683006139     106.818770080000
      7882   13      101.276813739891      86.856756662166     106.818770080000
      7883   14      103.243353812616      86.856756662166     106.818770080000
      7884   13      104.226623854440      85.153683006139     106.818770080000
      7885   14      100.293543708989      88.559830326384     106.818770080000
      7886   13      101.276813739891      90.262903982412     106.818770080000
      7887   14      103.243353812616      90.262903982412     106.818770080000
      7888   13      104.226623854440      88.559830326384     106.818770080000
      7889   14      100.293543708989      91.965977646630     106.818770080000
      7890   13      101.276813739891      93.669051302657     106.818770080000
      7891   14      103.243353812616      93.669051302657     106.818770080000
      7892   13      104.226623854440      91.965977646630     106.818770080000
      7893   14      100.293543708989      95.372124966875     106.818770080000
      7894   13      101.276813739891      97.075198622903     106.818770080000
      7895   14      103.243353812616      97.075198622903     106.818770080000
      7896   13      104.226623854440      95.372124966875     106.818770080000
      7897   14      100.293543708989      98.778272287121     106.818770080000
      7898   13      101.276813739891     100.481345943148     106.818770080000
      7899   14      103.243353812616     100.481345943148     106.818770080000
      7900   13      104.226623854440      98.778272287121     106.818770080000
      7901   14      100.293543708989     102.184419607366     106.818770080000
      7902   13      101.276813739891     103.887493263394     106.818770080000
      7903   14      103.243353812616     103.887493263394     106.818770080000
      7904   13      104.226623854440     102.184419607366     106.818770080000
      7905   14      100.293543708989     105.590566927612     106.818770080000
      7906   13      101.276813739891     107.293640583639     106.818770080000
      7907   14      103.243353812616     107.293640583639     106.818770080000
      7908   13      104.226623854440     105.590566927612     106.818770080000
      7909   14      100.293543708989     108.996714247857     106.818770080000
      7910   13      101.276813739891     110.699787903885     106.818770080000
      7911   14      103.243353812616     110.699787903885     106.818770080000
      7912   13      104.226623854440     108.996714247857     106.818770080000
      7913   14      106.193163927165      74.935241045402     106.818770080000
      7914   13      107.176433958067      76.638314701429     106.818770080000
      7915   14      109.142974030792      76.638314701429     106.818770080000
      7916   13      110.126244072616      74.935241045402     106.818770080000
      7917   14      106.193163927165      78.341388365648     106.818770080000
      7918   13      107.176433958067      80.044462021675     106.818770080000
      7919   14      109.142974030792      80.044462021675     106.818770080000
      7920   13      110.126244072616      78.341388365648     106.818770080000
      7921   14      106.193163927165      81.747535685893     106.818770080000
      7922   13      107.176433958067      83.450609341920     106.818770080000
      7923   14      109.142974030792      83.450609341920     106.818770080000
      7924   13      110.126244072616      81.747535685893     106.818770080000
      7925   14      106.193163927165      85.153683006139     106.818770080000
      7926   13      107.176433958067      86.856756662166     106.818770080000
      7927   14      109.142974030792      86.856756662166     106.818770080000
      7928   13      110.126244072616      85.153683006139     106.818770080000
      7929   14      106.193163927165      88.559830326384     106.818770080000
      7930   13      107.176433958067      90.262903982412     106.818770080000
      7931   14      109.142974030792      90.262903982412     106.818770080000
      7932   13      110.126244072616      88.559830326384     106.818770080000
      7933   14      106.193163927165      91.965977646630     106.818770080000
      7934   13      107.176433958067      93.669051302657     106.818770080000
      7935   14      109.142974030792      93.669051302657     106.818770080000
      7936   13      110.126244072616      91.965977646630     106.818770080000
      7937   14      106.193163927165      95.372124966875     106.818770080000
      7938   13      107.176433958067      97.075198622903     106.818770080000
      7939   14      109.142974030792      97.075198622903     106.818770080000
      7940   13      110.126244072616      95.372124966875     106.818770080000
      7941   14      106.193163927165      98.778272287121     106.818770080000
      7942   13      107.176433958067     100.481345943148     106.818770080000
      7943   14      109.142974030792     100.481345943148     106.818770080000
      7944   13      110.126244072616      98.778272287121     106.818770080000
      7945   14      106.193163927165     102.184419607366     106.818770080000
      7946   13      107.176433958067     103.887493263394     106.818770080000
      7947   14      109.142974030792     103.887493263394     106.818770080000
      7948   13      110.126244072616     102.184419607366     106.818770080000
      7949   14      106.193163927165     105.590566927612     106.818770080000
      7950   13      107.176433958067     107.293640583639     106.818770080000
      7951   14      109.142974030792     107.293640583639     106.818770080000
      7952   13      110.126244072616     105.590566927612     106.818770080000
      7953   14      106.193163927165     108.996714247857     106.818770080000
      7954   13      107.176433958067     110.699787903885     106.818770080000
      7955   14      109.142974030792     110.699787903885     106.818770080000
      7956   13      110.126244072616     108.996714247857     106.818770080000
      7957   14      112.092784145341      74.935241045402     106.818770080000
      7958   13      113.076054176243      76.638314701429     106.818770080000
      7959   14      115.042594248968      76.638314701429     106.818770080000
      7960   13      116.025864290792      74.935241045402     106.818770080000
      7961   14      112.092784145341      78.341388365648     106.818770080000
      7962   13      113.076054176243      80.044462021675     106.818770080000
      7963   14      115.042594248968      80.044462021675     106.818770080000
      7964   13      116.025864290792      78.341388365648     106.818770080000
      7965   14      112.092784145341      81.747535685893     106.818770080000
      7966   13      113.076054176243      83.450609341920     106.818770080000
      7967   14      115.042594248968      83.450609341920     106.818770080000
      7968   13      116.025864290792      81.747535685893     106.818770080000
      7969   14      112.092784145341      85.153683006139     106.818770080000
      7970   13      113.076054176243      86.856756662166     106.818770080000
      7971   14      115.042594248968      86.856756662166     106.818770080000
      7972   13      116.025864290792      85.153683006139     106.818770080000
      7973   14      112.092784145341      88.559830326384     106.818770080000
      7974   13      113.076054176243      90.262903982412     106.818770080000
      7975   14      115.042594248968      90.262903982412     106.818770080000
      7976   13      116.025864290792      88.559830326384     106.818770080000
      7977   14      112.092784145341      91.965977646630     106.818770080000
      7978   13      113.076054176243      93.669051302657     106.818770080000
      7979   14      115.042594248968      93.669051302657     106.818770080000
      7980   13      116.025864290792      91.965977646630     106.818770080000
      7981   14      112.092784145341      95.372124966875     106.818770080000
      7982   13      113.076054176243      97.075198622903     106.818770080000
      7983   14      115.042594248968      97.075198622903     106.818770080000
      7984   13      116.025864290792      95.372124966875     106.818770080000
      7985   14      112.092784145341      98.778272287121     106.818770080000
      7986   13      113.076054176243     100.481345943148     106.818770080000
      7987   14      115.042594248968     100.481345943148     106.818770080000
      7988   13      116.025864290792      98.778272287121     106.818770080000
      7989   14      112.092784145341     102.184419607366     106.818770080000
      7990   13      113.076054176243     103.887493263394     106.818770080000
      7991   14      115.042594248968     103.887493263394     106.818770080000
      7992   13      116.025864290792     102.184419607366     106.818770080000
      7993   14      112.092784145341     105.590566927612     106.818770080000
      7994   13      113.076054176243     107.293640583639     106.818770080000
      7995   14      115.042594248968     107.293640583639     106.818770080000
      7996   13      116.025864290792     105.590566927612     106.818770080000
      7997   14      112.092784145341     108.996714247857     106.818770080000
      7998   13      113.076054176243     110.699787903885     106.818770080000
      7999   14      115.042594248968     110.699787903885     106.818770080000
      8000   13      116.025864290792     108.996714247857     106.818770080000
      8001   14      117.992404363517      74.935241045402     106.818770080000
      8002   13      118.975674394418      76.638314701429     106.818770080000
      8003   14      120.942214467144      76.638314701429     106.818770080000
      8004   13      121.925484508967      74.935241045402     106.818770080000
      8005   14      117.992404363517      78.341388365648     106.818770080000
      8006   13      118.975674394418      80.044462021675     106.818770080000
      8007   14      120.942214467144      80.044462021675     106.818770080000
      8008   13      121.925484508967      78.341388365648     106.818770080000
      8009   14      117.992404363517      81.747535685893     106.818770080000
      8010   13      118.975674394418      83.450609341920     106.818770080000
      8011   14      120.942214467144      83.450609341920     106.818770080000
      8012   13      121.925484508967      81.747535685893     106.818770080000
      8013   14      117.992404363517      85.153683006139     106.818770080000
      8014   13      118.975674394418      86.856756662166     106.818770080000
      8015   14      120.942214467144      86.856756662166     106.818770080000
      8016   13      121.925484508967      85.153683006139     106.818770080000
      8017   14      117.992404363517      88.559830326384     106.818770080000
      8018   13      118.975674394418      90.262903982412     106.818770080000
      8019   14      120.942214467144      90.262903982412     106.818770080000
      8020   13      121.925484508967      88.559830326384     106.818770080000
      8021   14      117.992404363517      91.965977646630     106.818770080000
      8022   13      118.975674394418      93.669051302657     106.818770080000
      8023   14      120.942214467144      93.669051302657     106.818770080000
      8024   13      121.925484508967      91.965977646630     106.818770080000
      8025   14      117.992404363517      95.372124966875     106.818770080000
      8026   13      118.975674394418      97.075198622903     106.818770080000
      8027   14      120.942214467144      97.075198622903     106.818770080000
      8028   13      121.925484508967      95.372124966875     106.818770080000
      8029   14      117.992404363517      98.778272287121     106.818770080000
      8030   13      118.975674394418     100.481345943148     106.818770080000
      8031   14      120.942214467144     100.481345943148     106.818770080000
      8032   13      121.925484508967      98.778272287121     106.818770080000
      8033   14      117.992404363517     102.184419607366     106.818770080000
      8034   13      118.975674394418     103.887493263394     106.818770080000
      8035   14      120.942214467144     103.887493263394     106.818770080000
      8036   13      121.925484508967     102.184419607366     106.818770080000
      8037   14      117.992404363517     105.590566927612     106.818770080000
      8038   13      118.975674394418     107.293640583639     106.818770080000
      8039   14      120.942214467144     107.293640583639     106.818770080000
      8040   13      121.925484508967     105.590566927612     106.818770080000
      8041   14      117.992404363517     108.996714247857     106.818770080000
      8042   13      118.975674394418     110.699787903885     106.818770080000
      8043   14      120.942214467144     110.699787903885     106.818770080000
      8044   13      121.925484508967     108.996714247857     106.818770080000
      8045   14      123.892024581692      74.935241045402     106.818770080000
      8046   13      124.875294612594      76.638314701429     106.818770080000
      8047   14      126.841834685320      76.638314701429     106.818770080000
      8048   13      127.825104727143      74.935241045402     106.818770080000
      8049   14      123.892024581692      78.341388365648     106.818770080000
      8050   13      124.875294612594      80.044462021675     106.818770080000
      8051   14      126.841834685320      80.044462021675     106.818770080000
      8052   13      127.825104727143      78.341388365648     106.818770080000
      8053   14      123.892024581692      81.747535685893     106.818770080000
      8054   13      124.875294612594      83.450609341920     106.818770080000
      8055   14      126.841834685320      83.450609341920     106.818770080000
      8056   13      127.825104727143      81.747535685893     106.818770080000
      8057   14      123.892024581692      85.153683006139     106.818770080000
      8058   13      124.875294612594      86.856756662166     106.818770080000
      8059   14      126.841834685320      86.856756662166     106.818770080000
      8060   13      127.825104727143      85.153683006139     106.818770080000
      8061   14      123.892024581692      88.559830326384     106.818770080000
      8062   13      124.875294612594      90.262903982412     106.818770080000
      8063   14      126.841834685320      90.262903982412     106.818770080000
      8064   13      127.825104727143      88.559830326384     106.818770080000
      8065   14      123.892024581692      91.965977646630     106.818770080000
      8066   13      124.875294612594      93.669051302657     106.818770080000
      8067   14      126.841834685320      93.669051302657     106.818770080000
      8068   13      127.825104727143      91.965977646630     106.818770080000
      8069   14      123.892024581692      95.372124966875     106.818770080000
      8070   13      124.875294612594      97.075198622903     106.818770080000
      8071   14      126.841834685320      97.075198622903     106.818770080000
      8072   13      127.825104727143      95.372124966875     106.818770080000
      8073   14      123.892024581692      98.778272287121     106.818770080000
      8074   13      124.875294612594     100.481345943148     106.818770080000
      8075   14      126.841834685320     100.481345943148     106.818770080000
      8076   13      127.825104727143      98.778272287121     106.818770080000
      8077   14      123.892024581692     102.184419607366     106.818770080000
      8078   13      124.875294612594     103.887493263394     106.818770080000
      8079   14      126.841834685320     103.887493263394     106.818770080000
      8080   13      127.825104727143     102.184419607366     106.818770080000
      8081   14      123.892024581692     105.590566927612     106.818770080000
      8082   13      124.875294612594     107.293640583639     106.818770080000
      8083   14      126.841834685320     107.293640583639     106.818770080000
      8084   13      127.825104727143     105.590566927612     106.818770080000
      8085   14      123.892024581692     108.996714247857     106.818770080000
      8086   13      124.875294612594     110.699787903885     106.818770080000
      8087   14      126.841834685320     110.699787903885     106.818770080000
      8088   13      127.825104727143     108.996714247857     106.818770080000
      8089    3        0.000000000000     112.402861568103     100.000000000000
      8090    1        0.000000000000     112.402861568103     103.118770080000
      8091    9        0.000000000000     115.525163280831     100.000000000000
      8092    7        0.000000000000     115.525163280831     103.118770080000
      8093    2        0.901330861660     113.964012419461     101.559385040000
      8094    8        0.901330861660     117.086314132189     101.559385040000
      8095    6        2.703992594992     113.964012419461     100.000000000000
      8096    4        2.703992594992     113.964012419461     103.118770080000
      8097   12        2.703992594992     117.086314132189     100.000000000000
      8098   10        2.703992594992     117.086314132189     103.118770080000
      8099    5        3.605323466663     112.402861568103     101.559385040000
      8100   11        3.605323466663     115.525163280831     101.559385040000
      8101    3        0.000000000000     118.647464988553     100.000000000000
      8102    1        0.000000000000     118.647464988553     103.118770080000
      8103    9        0.000000000000     121.769766701281     100.000000000000
      8104    7        0.000000000000     121.769766701281     103.118770080000
      8105    2        0.901330861660     120.208615839911     101.559385040000
      8106    8        0.901330861660     123.330917552639     101.559385040000
      8107    6        2.703992594992     120.208615839911     100.000000000000
      8108    4        2.703992594992     120.208615839911     103.118770080000
      8109   12        2.703992594992     123.330917552639     100.000000000000
      8110   10        2.703992594992     123.330917552639     103.118770080000
      8111    5        3.605323466663     118.647464988553     101.559385040000
      8112   11        3.605323466663     121.769766701281     101.559385040000
      8113    3        0.000000000000     124.892068409003     100.000000000000
      8114    1        0.000000000000     124.892068409003     103.118770080000
      8115    9        0.000000000000     128.014370121731     100.000000000000
      8116    7        0.000000000000     128.014370121731     103.118770080000
      8117    2        0.901330861660     126.453219260362     101.559385040000
      8118    8        0.901330861660     129.575520973090     101.559385040000
      8119    6        2.703992594992     126.453219260362     100.000000000000
      8120    4        2.703992594992     126.453219260362     103.118770080000
      8121   12        2.703992594992     129.575520973090     100.000000000000
      8122   10        2.703992594992     129.575520973090     103.118770080000
      8123    5        3.605323466663     124.892068409003     101.559385040000
      8124   11        3.605323466663     128.014370121731     101.559385040000
      8125    3        0.000000000000     131.136671829453     100.000000000000
      8126    1        0.000000000000     131.136671829453     103.118770080000
      8127    9        0.000000000000     134.258973542181     100.000000000000
      8128    7        0.000000000000     134.258973542181     103.118770080000
      8129    2        0.901330861660     132.697822680812     101.559385040000
      8130    8        0.901330861660     135.820124393540     101.559385040000
      8131    6        2.703992594992     132.697822680812     100.000000000000
      8132    4        2.703992594992     132.697822680812     103.118770080000
      8133   12        2.703992594992     135.820124393540     100.000000000000
      8134   10        2.703992594992     135.820124393540     103.118770080000
      8135    5        3.605323466663     131.136671829453     101.559385040000
      8136   11        3.605323466663     134.258973542181     101.559385040000
      8137    3        0.000000000000     137.381275249904     100.000000000000
      8138    1        0.000000000000     137.381275249904     103.118770080000
      8139    9        0.000000000000     140.503576962632     100.000000000000
      8140    7        0.000000000000     140.503576962632     103.118770080000
      8141    2        0.901330861660     138.942426101262     101.559385040000
      8142    8        0.901330861660     142.064727813990     101.559385040000
      8143    6        2.703992594992     138.942426101262     100.000000000000
      8144    4        2.703992594992     138.942426101262     103.118770080000
      8145   12        2.703992594992     142.064727813990     100.000000000000
      8146   10        2.703992594992     142.064727813990     103.118770080000
      8147    5        3.605323466663     137.381275249904     101.559385040000
      8148   11        3.605323466663     140.503576962632     101.559385040000
      8149    3        0.000000000000     143.625878670354     100.000000000000
      8150    1        0.000000000000     143.625878670354     103.118770080000
      8151    9        0.000000000000     146.748180383082     100.000000000000
      8152    7        0.000000000000     146.748180383082     103.118770080000
      8153    2        0.901330861660     145.187029521712     101.559385040000
      8154    8        0.901330861660     148.309331234440     101.559385040000
      8155    6        2.703992594992     145.187029521712     100.000000000000
      8156    4        2.703992594992     145.187029521712     103.118770080000
      8157   12        2.703992594992     148.309331234440     100.000000000000
      8158   10        2.703992594992     148.309331234440     103.118770080000
      8159    5        3.605323466663     143.625878670354     101.559385040000
      8160   11        3.605323466663     146.748180383082     101.559385040000
      8161    3        5.407985199995     112.402861568103     100.000000000000
      8162    1        5.407985199995     112.402861568103     103.118770080000
      8163    9        5.407985199995     115.525163280831     100.000000000000
      8164    7        5.407985199995     115.525163280831     103.118770080000
      8165    2        6.309316061655     113.964012419461     101.559385040000
      8166    8        6.309316061655     117.086314132189     101.559385040000
      8167    6        8.111977794986     113.964012419461     100.000000000000
      8168    4        8.111977794986     113.964012419461     103.118770080000
      8169   12        8.111977794986     117.086314132189     100.000000000000
      8170   10        8.111977794986     117.086314132189     103.118770080000
      8171    5        9.013308666658     112.402861568103     101.559385040000
      8172   11        9.013308666658     115.525163280831     101.559385040000
      8173    3        5.407985199995     118.647464988553     100.000000000000
      8174    1        5.407985199995     118.647464988553     103.118770080000
      8175    9        5.407985199995     121.769766701281     100.000000000000
      8176    7        5.407985199995     121.769766701281     103.118770080000
      8177    2        6.309316061655     120.208615839911     101.559385040000
      8178    8        6.309316061655     123.330917552639     101.559385040000
      8179    6        8.111977794986     120.208615839911     100.000000000000
      8180    4        8.111977794986     120.208615839911     103.118770080000
      8181   12        8.111977794986     123.330917552639     100.000000000000
      8182   10        8.111977794986     123.330917552639     103.118770080000
      8183    5        9.013308666658     118.647464988553     101.559385040000
      8184   11        9.013308666658     121.769766701281     101.559385040000
      8185    3        5.407985199995     124.892068409003     100.000000000000
      8186    1        5.407985199995     124.892068409003     103.118770080000
      8187    9        5.407985199995     128.014370121731     100.000000000000
      8188    7        5.407985199995     128.014370121731     103.118770080000
      8189    2        6.309316061655     126.453219260362     101.559385040000
      8190    8        6.309316061655     129.575520973090     101.559385040000
      8191    6        8.111977794986     126.453219260362     100.000000000000
      8192    4        8.111977794986     126.453219260362     103.118770080000
      8193   12        8.111977794986     129.575520973090     100.000000000000
      8194   10        8.111977794986     129.575520973090     103.118770080000
      8195    5        9.013308666658     124.892068409003     101.559385040000
      8196   11        9.013308666658     128.014370121731     101.559385040000
      8197    3        5.407985199995     131.136671829453     100.000000000000
      8198    1        5.407985199995     131.136671829453     103.118770080000
      8199    9        5.407985199995     134.258973542181     100.000000000000
      8200    7        5.407985199995     134.258973542181     103.118770080000
      8201    2        6.309316061655     132.697822680812     101.559385040000
      8202    8        6.309316061655     135.820124393540     101.559385040000
      8203    6        8.111977794986     132.697822680812     100.000000000000
      8204    4        8.111977794986     132.697822680812     103.118770080000
      8205   12        8.111977794986     135.820124393540     100.000000000000
      8206   10        8.111977794986     135.820124393540     103.118770080000
      8207    5        9.013308666658     131.136671829453     101.559385040000
      8208   11        9.013308666658     134.258973542181     101.559385040000
      8209    3        5.407985199995     137.381275249904     100.000000000000
      8210    1        5.407985199995     137.381275249904     103.118770080000
      8211    9        5.407985199995     140.503576962632     100.000000000000
      8212    7        5.407985199995     140.503576962632     103.118770080000
      8213    2        6.309316061655     138.942426101262     101.559385040000
      8214    8        6.309316061655     142.064727813990     101.559385040000
      8215    6        8.111977794986     138.942426101262     100.000000000000
      8216    4        8.111977794986     138.942426101262     103.118770080000
      8217   12        8.111977794986     142.064727813990     100.000000000000
      8218   10        8.111977794986     142.064727813990     103.118770080000
      8219    5        9.013308666658     137.381275249904     101.559385040000
      8220   11        9.013308666658     140.503576962632     101.559385040000
      8221    3        5.407985199995     143.625878670354     100.000000000000
      8222    1        5.407985199995     143.625878670354     103.118770080000
      8223    9        5.407985199995     146.748180383082     100.000000000000
      8224    7        5.407985199995     146.748180383082     103.118770080000
      8225    2        6.309316061655     145.187029521712     101.559385040000
      8226    8        6.309316061655     148.309331234440     101.559385040000
      8227    6        8.111977794986     145.187029521712     100.000000000000
      8228    4        8.111977794986     145.187029521712     103.118770080000
      8229   12        8.111977794986     148.309331234440     100.000000000000
      8230   10        8.111977794986     148.309331234440     103.118770080000
      8231    5        9.013308666658     143.625878670354     101.559385040000
      8232   11        9.013308666658     146.748180383082     101.559385040000
      8233    3       10.815970399989     112.402861568103     100.000000000000
      8234    1       10.815970399989     112.402861568103     103.118770080000
      8235    9       10.815970399989     115.525163280831     100.000000000000
      8236    7       10.815970399989     115.525163280831     103.118770080000
      8237    2       11.717301261649     113.964012419461     101.559385040000
      8238    8       11.717301261649     117.086314132189     101.559385040000
      8239    6       13.519962994981     113.964012419461     100.000000000000
      8240    4       13.519962994981     113.964012419461     103.118770080000
      8241   12       13.519962994981     117.086314132189     100.000000000000
      8242   10       13.519962994981     117.086314132189     103.118770080000
      8243    5       14.421293866652     112.402861568103     101.559385040000
      8244   11       14.421293866652     115.525163280831     101.559385040000
      8245    3       10.815970399989     118.647464988553     100.000000000000
      8246    1       10.815970399989     118.647464988553     103.118770080000
      8247    9       10.815970399989     121.769766701281     100.000000000000
      8248    7       10.815970399989     121.769766701281     103.118770080000
      8249    2       11.717301261649     120.208615839911     101.559385040000
      8250    8       11.717301261649     123.330917552639     101.559385040000
      8251    6       13.519962994981     120.208615839911     100.000000000000
      8252    4       13.519962994981     120.208615839911     103.118770080000
      8253   12       13.519962994981     123.330917552639     100.000000000000
      8254   10       13.519962994981     123.330917552639     103.118770080000
      8255    5       14.421293866652     118.647464988553     101.559385040000
      8256   11       14.421293866652     121.769766701281     101.559385040000
      8257    3       10.815970399989     124.892068409003     100.000000000000
      8258    1       10.815970399989     124.892068409003     103.118770080000
      8259    9       10.815970399989     128.014370121731     100.000000000000
      8260    7       10.815970399989     128.014370121731     103.118770080000
      8261    2       11.717301261649     126.453219260362     101.559385040000
      8262    8       11.717301261649     129.575520973090     101.559385040000
      8263    6       13.519962994981     126.453219260362     100.000000000000
      8264    4       13.519962994981     126.453219260362     103.118770080000
      8265   12       13.519962994981     129.575520973090     100.000000000000
      8266   10       13.519962994981     129.575520973090     103.118770080000
      8267    5       14.421293866652     124.892068409003     101.559385040000
      8268   11       14.421293866652     128.014370121731     101.559385040000
      8269    3       10.815970399989     131.136671829453     100.000000000000
      8270    1       10.815970399989     131.136671829453     103.118770080000
      8271    9       10.815970399989     134.258973542181     100.000000000000
      8272    7       10.815970399989     134.258973542181     103.118770080000
      8273    2       11.717301261649     132.697822680812     101.559385040000
      8274    8       11.717301261649     135.820124393540     101.559385040000
      8275    6       13.519962994981     132.697822680812     100.000000000000
      8276    4       13.519962994981     132.697822680812     103.118770080000
      8277   12       13.519962994981     135.820124393540     100.000000000000
      8278   10       13.519962994981     135.820124393540     103.118770080000
      8279    5       14.421293866652     131.136671829453     101.559385040000
      8280   11       14.421293866652     134.258973542181     101.559385040000
      8281    3       10.815970399989     137.381275249904     100.000000000000
      8282    1       10.815970399989     137.381275249904     103.118770080000
      8283    9       10.815970399989     140.503576962632     100.000000000000
      8284    7       10.815970399989     140.503576962632     103.118770080000
      8285    2       11.717301261649     138.942426101262     101.559385040000
      8286    8       11.717301261649     142.064727813990     101.559385040000
      8287    6       13.519962994981     138.942426101262     100.000000000000
      8288    4       13.519962994981     138.942426101262     103.118770080000
      8289   12       13.519962994981     142.064727813990     100.000000000000
      8290   10       13.519962994981     142.064727813990     103.118770080000
      8291    5       14.421293866652     137.381275249904     101.559385040000
      8292   11       14.421293866652     140.503576962632     101.559385040000
      8293    3       10.815970399989     143.625878670354     100.000000000000
      8294    1       10.815970399989     143.625878670354     103.118770080000
      8295    9       10.815970399989     146.748180383082     100.000000000000
      8296    7       10.815970399989     146.748180383082     103.118770080000
      8297    2       11.717301261649     145.187029521712     101.559385040000
      8298    8       11.717301261649     148.309331234440     101.559385040000
      8299    6       13.519962994981     145.187029521712     100.000000000000
      8300    4       13.519962994981     145.187029521712     103.118770080000
      8301   12       13.519962994981     148.309331234440     100.000000000000
      8302   10       13.519962994981     148.309331234440     103.118770080000
      8303    5       14.421293866652     143.625878670354     101.559385040000
      8304   11       14.421293866652     146.748180383082     101.559385040000
      8305    3       16.223955599984     112.402861568103     100.000000000000
      8306    1       16.223955599984     112.402861568103     103.118770080000
      8307    9       16.223955599984     115.525163280831     100.000000000000
      8308    7       16.223955599984     115.525163280831     103.118770080000
      8309    2       17.125286461644     113.964012419461     101.559385040000
      8310    8       17.125286461644     117.086314132189     101.559385040000
      8311    6       18.927948194975     113.964012419461     100.000000000000
      8312    4       18.927948194975     113.964012419461     103.118770080000
      8313   12       18.927948194975     117.086314132189     100.000000000000
      8314   10       18.927948194975     117.086314132189     103.118770080000
      8315    5       19.829279066647     112.402861568103     101.559385040000
      8316   11       19.829279066647     115.525163280831     101.559385040000
      8317    3       16.223955599984     118.647464988553     100.000000000000
      8318    1       16.223955599984     118.647464988553     103.118770080000
      8319    9       16.223955599984     121.769766701281     100.000000000000
      8320    7       16.223955599984     121.769766701281     103.118770080000
      8321    2       17.125286461644     120.208615839911     101.559385040000
      8322    8       17.125286461644     123.330917552639     101.559385040000
      8323    6       18.927948194975     120.208615839911     100.000000000000
      8324    4       18.927948194975     120.208615839911     103.118770080000
      8325   12       18.927948194975     123.330917552639     100.000000000000
      8326   10       18.927948194975     123.330917552639     103.118770080000
      8327    5       19.829279066647     118.647464988553     101.559385040000
      8328   11       19.829279066647     121.769766701281     101.559385040000
      8329    3       16.223955599984     124.892068409003     100.000000000000
      8330    1       16.223955599984     124.892068409003     103.118770080000
      8331    9       16.223955599984     128.014370121731     100.000000000000
      8332    7       16.223955599984     128.014370121731     103.118770080000
      8333    2       17.125286461644     126.453219260362     101.559385040000
      8334    8       17.125286461644     129.575520973090     101.559385040000
      8335    6       18.927948194975     126.453219260362     100.000000000000
      8336    4       18.927948194975     126.453219260362     103.118770080000
      8337   12       18.927948194975     129.575520973090     100.000000000000
      8338   10       18.927948194975     129.575520973090     103.118770080000
      8339    5       19.829279066647     124.892068409003     101.559385040000
      8340   11       19.829279066647     128.014370121731     101.559385040000
      8341    3       16.223955599984     131.136671829453     100.000000000000
      8342    1       16.223955599984     131.136671829453     103.118770080000
      8343    9       16.223955599984     134.258973542181     100.000000000000
      8344    7       16.223955599984     134.258973542181     103.118770080000
      8345    2       17.125286461644     132.697822680812     101.559385040000
      8346    8       17.125286461644     135.820124393540     101.559385040000
      8347    6       18.927948194975     132.697822680812     100.000000000000
      8348    4       18.927948194975     132.697822680812     103.118770080000
      8349   12       18.927948194975     135.820124393540     100.000000000000
      8350   10       18.927948194975     135.820124393540     103.118770080000
      8351    5       19.829279066647     131.136671829453     101.559385040000
      8352   11       19.829279066647     134.258973542181     101.559385040000
      8353    3       16.223955599984     137.381275249904     100.000000000000
      8354    1       16.223955599984     137.381275249904     103.118770080000
      8355    9       16.223955599984     140.503576962632     100.000000000000
      8356    7       16.223955599984     140.503576962632     103.118770080000
      8357    2       17.125286461644     138.942426101262     101.559385040000
      8358    8       17.125286461644     142.064727813990     101.559385040000
      8359    6       18.927948194975     138.942426101262     100.000000000000
      8360    4       18.927948194975     138.942426101262     103.118770080000
      8361   12       18.927948194975     142.064727813990     100.000000000000
      8362   10       18.927948194975     142.064727813990     103.118770080000
      8363    5       19.829279066647     137.381275249904     101.559385040000
      8364   11       19.829279066647     140.503576962632     101.559385040000
      8365    3       16.223955599984     143.625878670354     100.000000000000
      8366    1       16.223955599984     143.625878670354     103.118770080000
      8367    9       16.223955599984     146.748180383082     100.000000000000
      8368    7       16.223955599984     146.748180383082     103.118770080000
      8369    2       17.125286461644     145.187029521712     101.559385040000
      8370    8       17.125286461644     148.309331234440     101.559385040000
      8371    6       18.927948194975     145.187029521712     100.000000000000
      8372    4       18.927948194975     145.187029521712     103.118770080000
      8373   12       18.927948194975     148.309331234440     100.000000000000
      8374   10       18.927948194975     148.309331234440     103.118770080000
      8375    5       19.829279066647     143.625878670354     101.559385040000
      8376   11       19.829279066647     146.748180383082     101.559385040000
      8377    3       21.631940799978     112.402861568103     100.000000000000
      8378    1       21.631940799978     112.402861568103     103.118770080000
      8379    9       21.631940799978     115.525163280831     100.000000000000
      8380    7       21.631940799978     115.525163280831     103.118770080000
      8381    2       22.533271661638     113.964012419461     101.559385040000
      8382    8       22.533271661638     117.086314132189     101.559385040000
      8383    6       24.335933394970     113.964012419461     100.000000000000
      8384    4       24.335933394970     113.964012419461     103.118770080000
      8385   12       24.335933394970     117.086314132189     100.000000000000
      8386   10       24.335933394970     117.086314132189     103.118770080000
      8387    5       25.237264266641     112.402861568103     101.559385040000
      8388   11       25.237264266641     115.525163280831     101.559385040000
      8389    3       21.631940799978     118.647464988553     100.000000000000
      8390    1       21.631940799978     118.647464988553     103.118770080000
      8391    9       21.631940799978     121.769766701281     100.000000000000
      8392    7       21.631940799978     121.769766701281     103.118770080000
      8393    2       22.533271661638     120.208615839911     101.559385040000
      8394    8       22.533271661638     123.330917552639     101.559385040000
      8395    6       24.335933394970     120.208615839911     100.000000000000
      8396    4       24.335933394970     120.208615839911     103.118770080000
      8397   12       24.335933394970     123.330917552639     100.000000000000
      8398   10       24.335933394970     123.330917552639     103.118770080000
      8399    5       25.237264266641     118.647464988553     101.559385040000
      8400   11       25.237264266641     121.769766701281     101.559385040000
      8401    3       21.631940799978     124.892068409003     100.000000000000
      8402    1       21.631940799978     124.892068409003     103.118770080000
      8403    9       21.631940799978     128.014370121731     100.000000000000
      8404    7       21.631940799978     128.014370121731     103.118770080000
      8405    2       22.533271661638     126.453219260362     101.559385040000
      8406    8       22.533271661638     129.575520973090     101.559385040000
      8407    6       24.335933394970     126.453219260362     100.000000000000
      8408    4       24.335933394970     126.453219260362     103.118770080000
      8409   12       24.335933394970     129.575520973090     100.000000000000
      8410   10       24.335933394970     129.575520973090     103.118770080000
      8411    5       25.237264266641     124.892068409003     101.559385040000
      8412   11       25.237264266641     128.014370121731     101.559385040000
      8413    3       21.631940799978     131.136671829453     100.000000000000
      8414    1       21.631940799978     131.136671829453     103.118770080000
      8415    9       21.631940799978     134.258973542181     100.000000000000
      8416    7       21.631940799978     134.258973542181     103.118770080000
      8417    2       22.533271661638     132.697822680812     101.559385040000
      8418    8       22.533271661638     135.820124393540     101.559385040000
      8419    6       24.335933394970     132.697822680812     100.000000000000
      8420    4       24.335933394970     132.697822680812     103.118770080000
      8421   12       24.335933394970     135.820124393540     100.000000000000
      8422   10       24.335933394970     135.820124393540     103.118770080000
      8423    5       25.237264266641     131.136671829453     101.559385040000
      8424   11       25.237264266641     134.258973542181     101.559385040000
      8425    3       21.631940799978     137.381275249904     100.000000000000
      8426    1       21.631940799978     137.381275249904     103.118770080000
      8427    9       21.631940799978     140.503576962632     100.000000000000
      8428    7       21.631940799978     140.503576962632     103.118770080000
      8429    2       22.533271661638     138.942426101262     101.559385040000
      8430    8       22.533271661638     142.064727813990     101.559385040000
      8431    6       24.335933394970     138.942426101262     100.000000000000
      8432    4       24.335933394970     138.942426101262     103.118770080000
      8433   12       24.335933394970     142.064727813990     100.000000000000
      8434   10       24.335933394970     142.064727813990     103.118770080000
      8435    5       25.237264266641     137.381275249904     101.559385040000
      8436   11       25.237264266641     140.503576962632     101.559385040000
      8437    3       21.631940799978     143.625878670354     100.000000000000
      8438    1       21.631940799978     143.625878670354     103.118770080000
      8439    9       21.631940799978     146.748180383082     100.000000000000
      8440    7       21.631940799978     146.748180383082     103.118770080000
      8441    2       22.533271661638     145.187029521712     101.559385040000
      8442    8       22.533271661638     148.309331234440     101.559385040000
      8443    6       24.335933394970     145.187029521712     100.000000000000
      8444    4       24.335933394970     145.187029521712     103.118770080000
      8445   12       24.335933394970     148.309331234440     100.000000000000
      8446   10       24.335933394970     148.309331234440     103.118770080000
      8447    5       25.237264266641     143.625878670354     101.559385040000
      8448   11       25.237264266641     146.748180383082     101.559385040000
      8449    3       27.039925999973     112.402861568103     100.000000000000
      8450    1       27.039925999973     112.402861568103     103.118770080000
      8451    9       27.039925999973     115.525163280831     100.000000000000
      8452    7       27.039925999973     115.525163280831     103.118770080000
      8453    2       27.941256861633     113.964012419461     101.559385040000
      8454    8       27.941256861633     117.086314132189     101.559385040000
      8455    6       29.743918594964     113.964012419461     100.000000000000
      8456    4       29.743918594964     113.964012419461     103.118770080000
      8457   12       29.743918594964     117.086314132189     100.000000000000
      8458   10       29.743918594964     117.086314132189     103.118770080000
      8459    5       30.645249466636     112.402861568103     101.559385040000
      8460   11       30.645249466636     115.525163280831     101.559385040000
      8461    3       27.039925999973     118.647464988553     100.000000000000
      8462    1       27.039925999973     118.647464988553     103.118770080000
      8463    9       27.039925999973     121.769766701281     100.000000000000
      8464    7       27.039925999973     121.769766701281     103.118770080000
      8465    2       27.941256861633     120.208615839911     101.559385040000
      8466    8       27.941256861633     123.330917552639     101.559385040000
      8467    6       29.743918594964     120.208615839911     100.000000000000
      8468    4       29.743918594964     120.208615839911     103.118770080000
      8469   12       29.743918594964     123.330917552639     100.000000000000
      8470   10       29.743918594964     123.330917552639     103.118770080000
      8471    5       30.645249466636     118.647464988553     101.559385040000
      8472   11       30.645249466636     121.769766701281     101.559385040000
      8473    3       27.039925999973     124.892068409003     100.000000000000
      8474    1       27.039925999973     124.892068409003     103.118770080000
      8475    9       27.039925999973     128.014370121731     100.000000000000
      8476    7       27.039925999973     128.014370121731     103.118770080000
      8477    2       27.941256861633     126.453219260362     101.559385040000
      8478    8       27.941256861633     129.575520973090     101.559385040000
      8479    6       29.743918594964     126.453219260362     100.000000000000
      8480    4       29.743918594964     126.453219260362     103.118770080000
      8481   12       29.743918594964     129.575520973090     100.000000000000
      8482   10       29.743918594964     129.575520973090     103.118770080000
      8483    5       30.645249466636     124.892068409003     101.559385040000
      8484   11       30.645249466636     128.014370121731     101.559385040000
      8485    3       27.039925999973     131.136671829453     100.000000000000
      8486    1       27.039925999973     131.136671829453     103.118770080000
      8487    9       27.039925999973     134.258973542181     100.000000000000
      8488    7       27.039925999973     134.258973542181     103.118770080000
      8489    2       27.941256861633     132.697822680812     101.559385040000
      8490    8       27.941256861633     135.820124393540     101.559385040000
      8491    6       29.743918594964     132.697822680812     100.000000000000
      8492    4       29.743918594964     132.697822680812     103.118770080000
      8493   12       29.743918594964     135.820124393540     100.000000000000
      8494   10       29.743918594964     135.820124393540     103.118770080000
      8495    5       30.645249466636     131.136671829453     101.559385040000
      8496   11       30.645249466636     134.258973542181     101.559385040000
      8497    3       27.039925999973     137.381275249904     100.000000000000
      8498    1       27.039925999973     137.381275249904     103.118770080000
      8499    9       27.039925999973     140.503576962632     100.000000000000
      8500    7       27.039925999973     140.503576962632     103.118770080000
      8501    2       27.941256861633     138.942426101262     101.559385040000
      8502    8       27.941256861633     142.064727813990     101.559385040000
      8503    6       29.743918594964     138.942426101262     100.000000000000
      8504    4       29.743918594964     138.942426101262     103.118770080000
      8505   12       29.743918594964     142.064727813990     100.000000000000
      8506   10       29.743918594964     142.064727813990     103.118770080000
      8507    5       30.645249466636     137.381275249904     101.559385040000
      8508   11       30.645249466636     140.503576962632     101.559385040000
      8509    3       27.039925999973     143.625878670354     100.000000000000
      8510    1       27.039925999973     143.625878670354     103.118770080000
      8511    9       27.039925999973     146.748180383082     100.000000000000
      8512    7       27.039925999973     146.748180383082     103.118770080000
      8513    2       27.941256861633     145.187029521712     101.559385040000
      8514    8       27.941256861633     148.309331234440     101.559385040000
      8515    6       29.743918594964     145.187029521712     100.000000000000
      8516    4       29.743918594964     145.187029521712     103.118770080000
      8517   12       29.743918594964     148.309331234440     100.000000000000
      8518   10       29.743918594964     148.309331234440     103.118770080000
      8519    5       30.645249466636     143.625878670354     101.559385040000
      8520   11       30.645249466636     146.748180383082     101.559385040000
      8521    3       32.447911199967     112.402861568103     100.000000000000
      8522    1       32.447911199967     112.402861568103     103.118770080000
      8523    9       32.447911199967     115.525163280831     100.000000000000
      8524    7       32.447911199967     115.525163280831     103.118770080000
      8525    2       33.349242061627     113.964012419461     101.559385040000
      8526    8       33.349242061627     117.086314132189     101.559385040000
      8527    6       35.151903794959     113.964012419461     100.000000000000
      8528    4       35.151903794959     113.964012419461     103.118770080000
      8529   12       35.151903794959     117.086314132189     100.000000000000
      8530   10       35.151903794959     117.086314132189     103.118770080000
      8531    5       36.053234666630     112.402861568103     101.559385040000
      8532   11       36.053234666630     115.525163280831     101.559385040000
      8533    3       32.447911199967     118.647464988553     100.000000000000
      8534    1       32.447911199967     118.647464988553     103.118770080000
      8535    9       32.447911199967     121.769766701281     100.000000000000
      8536    7       32.447911199967     121.769766701281     103.118770080000
      8537    2       33.349242061627     120.208615839911     101.559385040000
      8538    8       33.349242061627     123.330917552639     101.559385040000
      8539    6       35.151903794959     120.208615839911     100.000000000000
      8540    4       35.151903794959     120.208615839911     103.118770080000
      8541   12       35.151903794959     123.330917552639     100.000000000000
      8542   10       35.151903794959     123.330917552639     103.118770080000
      8543    5       36.053234666630     118.647464988553     101.559385040000
      8544   11       36.053234666630     121.769766701281     101.559385040000
      8545    3       32.447911199967     124.892068409003     100.000000000000
      8546    1       32.447911199967     124.892068409003     103.118770080000
      8547    9       32.447911199967     128.014370121731     100.000000000000
      8548    7       32.447911199967     128.014370121731     103.118770080000
      8549    2       33.349242061627     126.453219260362     101.559385040000
      8550    8       33.349242061627     129.575520973090     101.559385040000
      8551    6       35.151903794959     126.453219260362     100.000000000000
      8552    4       35.151903794959     126.453219260362     103.118770080000
      8553   12       35.151903794959     129.575520973090     100.000000000000
      8554   10       35.151903794959     129.575520973090     103.118770080000
      8555    5       36.053234666630     124.892068409003     101.559385040000
      8556   11       36.053234666630     128.014370121731     101.559385040000
      8557    3       32.447911199967     131.136671829453     100.000000000000
      8558    1       32.447911199967     131.136671829453     103.118770080000
      8559    9       32.447911199967     134.258973542181     100.000000000000
      8560    7       32.447911199967     134.258973542181     103.118770080000
      8561    2       33.349242061627     132.697822680812     101.559385040000
      8562    8       33.349242061627     135.820124393540     101.559385040000
      8563    6       35.151903794959     132.697822680812     100.000000000000
      8564    4       35.151903794959     132.697822680812     103.118770080000
      8565   12       35.151903794959     135.820124393540     100.000000000000
      8566   10       35.151903794959     135.820124393540     103.118770080000
      8567    5       36.053234666630     131.136671829453     101.559385040000
      8568   11       36.053234666630     134.258973542181     101.559385040000
      8569    3       32.447911199967     137.381275249904     100.000000000000
      8570    1       32.447911199967     137.381275249904     103.118770080000
      8571    9       32.447911199967     140.503576962632     100.000000000000
      8572    7       32.447911199967     140.503576962632     103.118770080000
      8573    2       33.349242061627     138.942426101262     101.559385040000
      8574    8       33.349242061627     142.064727813990     101.559385040000
      8575    6       35.151903794959     138.942426101262     100.000000000000
      8576    4       35.151903794959     138.942426101262     103.118770080000
      8577   12       35.151903794959     142.064727813990     100.000000000000
      8578   10       35.151903794959     142.064727813990     103.118770080000
      8579    5       36.053234666630     137.381275249904     101.559385040000
      8580   11       36.053234666630     140.503576962632     101.559385040000
      8581    3       32.447911199967     143.625878670354     100.000000000000
      8582    1       32.447911199967     143.625878670354     103.118770080000
      8583    9       32.447911199967     146.748180383082     100.000000000000
      8584    7       32.447911199967     146.748180383082     103.118770080000
      8585    2       33.349242061627     145.187029521712     101.559385040000
      8586    8       33.349242061627     148.309331234440     101.559385040000
      8587    6       35.151903794959     145.187029521712     100.000000000000
      8588    4       35.151903794959     145.187029521712     103.118770080000
      8589   12       35.151903794959     148.309331234440     100.000000000000
      8590   10       35.151903794959     148.309331234440     103.118770080000
      8591    5       36.053234666630     143.625878670354     101.559385040000
      8592   11       36.053234666630     146.748180383082     101.559385040000
      8593    3       37.855896399962     112.402861568103     100.000000000000
      8594    1       37.855896399962     112.402861568103     103.118770080000
      8595    9       37.855896399962     115.525163280831     100.000000000000
      8596    7       37.855896399962     115.525163280831     103.118770080000
      8597    2       38.757227261622     113.964012419461     101.559385040000
      8598    8       38.757227261622     117.086314132189     101.559385040000
      8599    6       40.559888994953     113.964012419461     100.000000000000
      8600    4       40.559888994953     113.964012419461     103.118770080000
      8601   12       40.559888994953     117.086314132189     100.000000000000
      8602   10       40.559888994953     117.086314132189     103.118770080000
      8603    5       41.461219866625     112.402861568103     101.559385040000
      8604   11       41.461219866625     115.525163280831     101.559385040000
      8605    3       37.855896399962     118.647464988553     100.000000000000
      8606    1       37.855896399962     118.647464988553     103.118770080000
      8607    9       37.855896399962     121.769766701281     100.000000000000
      8608    7       37.855896399962     121.769766701281     103.118770080000
      8609    2       38.757227261622     120.208615839911     101.559385040000
      8610    8       38.757227261622     123.330917552639     101.559385040000
      8611    6       40.559888994953     120.208615839911     100.000000000000
      8612    4       40.559888994953     120.208615839911     103.118770080000
      8613   12       40.559888994953     123.330917552639     100.000000000000
      8614   10       40.559888994953     123.330917552639     103.118770080000
      8615    5       41.461219866625     118.647464988553     101.559385040000
      8616   11       41.461219866625     121.769766701281     101.559385040000
      8617    3       37.855896399962     124.892068409003     100.000000000000
      8618    1       37.855896399962     124.892068409003     103.118770080000
      8619    9       37.855896399962     128.014370121731     100.000000000000
      8620    7       37.855896399962     128.014370121731     103.118770080000
      8621    2       38.757227261622     126.453219260362     101.559385040000
      8622    8       38.757227261622     129.575520973090     101.559385040000
      8623    6       40.559888994953     126.453219260362     100.000000000000
      8624    4       40.559888994953     126.453219260362     103.118770080000
      8625   12       40.559888994953     129.575520973090     100.000000000000
      8626   10       40.559888994953     129.575520973090     103.118770080000
      8627    5       41.461219866625     124.892068409003     101.559385040000
      8628   11       41.461219866625     128.014370121731     101.559385040000
      8629    3       37.855896399962     131.136671829453     100.000000000000
      8630    1       37.855896399962     131.136671829453     103.118770080000
      8631    9       37.855896399962     134.258973542181     100.000000000000
      8632    7       37.855896399962     134.258973542181     103.118770080000
      8633    2       38.757227261622     132.697822680812     101.559385040000
      8634    8       38.757227261622     135.820124393540     101.559385040000
      8635    6       40.559888994953     132.697822680812     100.000000000000
      8636    4       40.559888994953     132.697822680812     103.118770080000
      8637   12       40.559888994953     135.820124393540     100.000000000000
      8638   10       40.559888994953     135.820124393540     103.118770080000
      8639    5       41.461219866625     131.136671829453     101.559385040000
      8640   11       41.461219866625     134.258973542181     101.559385040000
      8641    3       37.855896399962     137.381275249904     100.000000000000
      8642    1       37.855896399962     137.381275249904     103.118770080000
      8643    9       37.855896399962     140.503576962632     100.000000000000
      8644    7       37.855896399962     140.503576962632     103.118770080000
      8645    2       38.757227261622     138.942426101262     101.559385040000
      8646    8       38.757227261622     142.064727813990     101.559385040000
      8647    6       40.559888994953     138.942426101262     100.000000000000
      8648    4       40.559888994953     138.942426101262     103.118770080000
      8649   12       40.559888994953     142.064727813990     100.000000000000
      8650   10       40.559888994953     142.064727813990     103.118770080000
      8651    5       41.461219866625     137.381275249904     101.559385040000
      8652   11       41.461219866625     140.503576962632     101.559385040000
      8653    3       37.855896399962     143.625878670354     100.000000000000
      8654    1       37.855896399962     143.625878670354     103.118770080000
      8655    9       37.855896399962     146.748180383082     100.000000000000
      8656    7       37.855896399962     146.748180383082     103.118770080000
      8657    2       38.757227261622     145.187029521712     101.559385040000
      8658    8       38.757227261622     148.309331234440     101.559385040000
      8659    6       40.559888994953     145.187029521712     100.000000000000
      8660    4       40.559888994953     145.187029521712     103.118770080000
      8661   12       40.559888994953     148.309331234440     100.000000000000
      8662   10       40.559888994953     148.309331234440     103.118770080000
      8663    5       41.461219866625     143.625878670354     101.559385040000
      8664   11       41.461219866625     146.748180383082     101.559385040000
      8665    3       43.263881599956     112.402861568103     100.000000000000
      8666    1       43.263881599956     112.402861568103     103.118770080000
      8667    9       43.263881599956     115.525163280831     100.000000000000
      8668    7       43.263881599956     115.525163280831     103.118770080000
      8669    2       44.165212461616     113.964012419461     101.559385040000
      8670    8       44.165212461616     117.086314132189     101.559385040000
      8671    6       45.967874194948     113.964012419461     100.000000000000
      8672    4       45.967874194948     113.964012419461     103.118770080000
      8673   12       45.967874194948     117.086314132189     100.000000000000
      8674   10       45.967874194948     117.086314132189     103.118770080000
      8675    5       46.869205066619     112.402861568103     101.559385040000
      8676   11       46.869205066619     115.525163280831     101.559385040000
      8677    3       43.263881599956     118.647464988553     100.000000000000
      8678    1       43.263881599956     118.647464988553     103.118770080000
      8679    9       43.263881599956     121.769766701281     100.000000000000
      8680    7       43.263881599956     121.769766701281     103.118770080000
      8681    2       44.165212461616     120.208615839911     101.559385040000
      8682    8       44.165212461616     123.330917552639     101.559385040000
      8683    6       45.967874194948     120.208615839911     100.000000000000
      8684    4       45.967874194948     120.208615839911     103.118770080000
      8685   12       45.967874194948     123.330917552639     100.000000000000
      8686   10       45.967874194948     123.330917552639     103.118770080000
      8687    5       46.869205066619     118.647464988553     101.559385040000
      8688   11       46.869205066619     121.769766701281     101.559385040000
      8689    3       43.263881599956     124.892068409003     100.000000000000
      8690    1       43.263881599956     124.892068409003     103.118770080000
      8691    9       43.263881599956     128.014370121731     100.000000000000
      8692    7       43.263881599956     128.014370121731     103.118770080000
      8693    2       44.165212461616     126.453219260362     101.559385040000
      8694    8       44.165212461616     129.575520973090     101.559385040000
      8695    6       45.967874194948     126.453219260362     100.000000000000
      8696    4       45.967874194948     126.453219260362     103.118770080000
      8697   12       45.967874194948     129.575520973090     100.000000000000
      8698   10       45.967874194948     129.575520973090     103.118770080000
      8699    5       46.869205066619     124.892068409003     101.559385040000
      8700   11       46.869205066619     128.014370121731     101.559385040000
      8701    3       43.263881599956     131.136671829453     100.000000000000
      8702    1       43.263881599956     131.136671829453     103.118770080000
      8703    9       43.263881599956     134.258973542181     100.000000000000
      8704    7       43.263881599956     134.258973542181     103.118770080000
      8705    2       44.165212461616     132.697822680812     101.559385040000
      8706    8       44.165212461616     135.820124393540     101.559385040000
      8707    6       45.967874194948     132.697822680812     100.000000000000
      8708    4       45.967874194948     132.697822680812     103.118770080000
      8709   12       45.967874194948     135.820124393540     100.000000000000
      8710   10       45.967874194948     135.820124393540     103.118770080000
      8711    5       46.869205066619     131.136671829453     101.559385040000
      8712   11       46.869205066619     134.258973542181     101.559385040000
      8713    3       43.263881599956     137.381275249904     100.000000000000
      8714    1       43.263881599956     137.381275249904     103.118770080000
      8715    9       43.263881599956     140.503576962632     100.000000000000
      8716    7       43.263881599956     140.503576962632     103.118770080000
      8717    2       44.165212461616     138.942426101262     101.559385040000
      8718    8       44.165212461616     142.064727813990     101.559385040000
      8719    6       45.967874194948     138.942426101262     100.000000000000
      8720    4       45.967874194948     138.942426101262     103.118770080000
      8721   12       45.967874194948     142.064727813990     100.000000000000
      8722   10       45.967874194948     142.064727813990     103.118770080000
      8723    5       46.869205066619     137.381275249904     101.559385040000
      8724   11       46.869205066619     140.503576962632     101.559385040000
      8725    3       43.263881599956     143.625878670354     100.000000000000
      8726    1       43.263881599956     143.625878670354     103.118770080000
      8727    9       43.263881599956     146.748180383082     100.000000000000
      8728    7       43.263881599956     146.748180383082     103.118770080000
      8729    2       44.165212461616     145.187029521712     101.559385040000
      8730    8       44.165212461616     148.309331234440     101.559385040000
      8731    6       45.967874194948     145.187029521712     100.000000000000
      8732    4       45.967874194948     145.187029521712     103.118770080000
      8733   12       45.967874194948     148.309331234440     100.000000000000
      8734   10       45.967874194948     148.309331234440     103.118770080000
      8735    5       46.869205066619     143.625878670354     101.559385040000
      8736   11       46.869205066619     146.748180383082     101.559385040000
      8737    3       48.671866799951     112.402861568103     100.000000000000
      8738    1       48.671866799951     112.402861568103     103.118770080000
      8739    9       48.671866799951     115.525163280831     100.000000000000
      8740    7       48.671866799951     115.525163280831     103.118770080000
      8741    2       49.573197661611     113.964012419461     101.559385040000
      8742    8       49.573197661611     117.086314132189     101.559385040000
      8743    6       51.375859394942     113.964012419461     100.000000000000
      8744    4       51.375859394942     113.964012419461     103.118770080000
      8745   12       51.375859394942     117.086314132189     100.000000000000
      8746   10       51.375859394942     117.086314132189     103.118770080000
      8747    5       52.277190266614     112.402861568103     101.559385040000
      8748   11       52.277190266614     115.525163280831     101.559385040000
      8749    3       48.671866799951     118.647464988553     100.000000000000
      8750    1       48.671866799951     118.647464988553     103.118770080000
      8751    9       48.671866799951     121.769766701281     100.000000000000
      8752    7       48.671866799951     121.769766701281     103.118770080000
      8753    2       49.573197661611     120.208615839911     101.559385040000
      8754    8       49.573197661611     123.330917552639     101.559385040000
      8755    6       51.375859394942     120.208615839911     100.000000000000
      8756    4       51.375859394942     120.208615839911     103.118770080000
      8757   12       51.375859394942     123.330917552639     100.000000000000
      8758   10       51.375859394942     123.330917552639     103.118770080000
      8759    5       52.277190266614     118.647464988553     101.559385040000
      8760   11       52.277190266614     121.769766701281     101.559385040000
      8761    3       48.671866799951     124.892068409003     100.000000000000
      8762    1       48.671866799951     124.892068409003     103.118770080000
      8763    9       48.671866799951     128.014370121731     100.000000000000
      8764    7       48.671866799951     128.014370121731     103.118770080000
      8765    2       49.573197661611     126.453219260362     101.559385040000
      8766    8       49.573197661611     129.575520973090     101.559385040000
      8767    6       51.375859394942     126.453219260362     100.000000000000
      8768    4       51.375859394942     126.453219260362     103.118770080000
      8769   12       51.375859394942     129.575520973090     100.000000000000
      8770   10       51.375859394942     129.575520973090     103.118770080000
      8771    5       52.277190266614     124.892068409003     101.559385040000
      8772   11       52.277190266614     128.014370121731     101.559385040000
      8773    3       48.671866799951     131.136671829453     100.000000000000
      8774    1       48.671866799951     131.136671829453     103.118770080000
      8775    9       48.671866799951     134.258973542181     100.000000000000
      8776    7       48.671866799951     134.258973542181     103.118770080000
      8777    2       49.573197661611     132.697822680812     101.559385040000
      8778    8       49.573197661611     135.820124393540     101.559385040000
      8779    6       51.375859394942     132.697822680812     100.000000000000
      8780    4       51.375859394942     132.697822680812     103.118770080000
      8781   12       51.375859394942     135.820124393540     100.000000000000
      8782   10       51.375859394942     135.820124393540     103.118770080000
      8783    5       52.277190266614     131.136671829453     101.559385040000
      8784   11       52.277190266614     134.258973542181     101.559385040000
      8785    3       48.671866799951     137.381275249904     100.000000000000
      8786    1       48.671866799951     137.381275249904     103.118770080000
      8787    9       48.671866799951     140.503576962632     100.000000000000
      8788    7       48.671866799951     140.503576962632     103.118770080000
      8789    2       49.573197661611     138.942426101262     101.559385040000
      8790    8       49.573197661611     142.064727813990     101.559385040000
      8791    6       51.375859394942     138.942426101262     100.000000000000
      8792    4       51.375859394942     138.942426101262     103.118770080000
      8793   12       51.375859394942     142.064727813990     100.000000000000
      8794   10       51.375859394942     142.064727813990     103.118770080000
      8795    5       52.277190266614     137.381275249904     101.559385040000
      8796   11       52.277190266614     140.503576962632     101.559385040000
      8797    3       48.671866799951     143.625878670354     100.000000000000
      8798    1       48.671866799951     143.625878670354     103.118770080000
      8799    9       48.671866799951     146.748180383082     100.000000000000
      8800    7       48.671866799951     146.748180383082     103.118770080000
      8801    2       49.573197661611     145.187029521712     101.559385040000
      8802    8       49.573197661611     148.309331234440     101.559385040000
      8803    6       51.375859394942     145.187029521712     100.000000000000
      8804    4       51.375859394942     145.187029521712     103.118770080000
      8805   12       51.375859394942     148.309331234440     100.000000000000
      8806   10       51.375859394942     148.309331234440     103.118770080000
      8807    5       52.277190266614     143.625878670354     101.559385040000
      8808   11       52.277190266614     146.748180383082     101.559385040000
      8809    3       54.079851999945     112.402861568103     100.000000000000
      8810    1       54.079851999945     112.402861568103     103.118770080000
      8811    9       54.079851999945     115.525163280831     100.000000000000
      8812    7       54.079851999945     115.525163280831     103.118770080000
      8813    2       54.981182861605     113.964012419461     101.559385040000
      8814    8       54.981182861605     117.086314132189     101.559385040000
      8815    6       56.783844594937     113.964012419461     100.000000000000
      8816    4       56.783844594937     113.964012419461     103.118770080000
      8817   12       56.783844594937     117.086314132189     100.000000000000
      8818   10       56.783844594937     117.086314132189     103.118770080000
      8819    5       57.685175466608     112.402861568103     101.559385040000
      8820   11       57.685175466608     115.525163280831     101.559385040000
      8821    3       54.079851999945     118.647464988553     100.000000000000
      8822    1       54.079851999945     118.647464988553     103.118770080000
      8823    9       54.079851999945     121.769766701281     100.000000000000
      8824    7       54.079851999945     121.769766701281     103.118770080000
      8825    2       54.981182861605     120.208615839911     101.559385040000
      8826    8       54.981182861605     123.330917552639     101.559385040000
      8827    6       56.783844594937     120.208615839911     100.000000000000
      8828    4       56.783844594937     120.208615839911     103.118770080000
      8829   12       56.783844594937     123.330917552639     100.000000000000
      8830   10       56.783844594937     123.330917552639     103.118770080000
      8831    5       57.685175466608     118.647464988553     101.559385040000
      8832   11       57.685175466608     121.769766701281     101.559385040000
      8833    3       54.079851999945     124.892068409003     100.000000000000
      8834    1       54.079851999945     124.892068409003     103.118770080000
      8835    9       54.079851999945     128.014370121731     100.000000000000
      8836    7       54.079851999945     128.014370121731     103.118770080000
      8837    2       54.981182861605     126.453219260362     101.559385040000
      8838    8       54.981182861605     129.575520973090     101.559385040000
      8839    6       56.783844594937     126.453219260362     100.000000000000
      8840    4       56.783844594937     126.453219260362     103.118770080000
      8841   12       56.783844594937     129.575520973090     100.000000000000
      8842   10       56.783844594937     129.575520973090     103.118770080000
      8843    5       57.685175466608     124.892068409003     101.559385040000
      8844   11       57.685175466608     128.014370121731     101.559385040000
      8845    3       54.079851999945     131.136671829453     100.000000000000
      8846    1       54.079851999945     131.136671829453     103.118770080000
      8847    9       54.079851999945     134.258973542181     100.000000000000
      8848    7       54.079851999945     134.258973542181     103.118770080000
      8849    2       54.981182861605     132.697822680812     101.559385040000
      8850    8       54.981182861605     135.820124393540     101.559385040000
      8851    6       56.783844594937     132.697822680812     100.000000000000
      8852    4       56.783844594937     132.697822680812     103.118770080000
      8853   12       56.783844594937     135.820124393540     100.000000000000
      8854   10       56.783844594937     135.820124393540     103.118770080000
      8855    5       57.685175466608     131.136671829453     101.559385040000
      8856   11       57.685175466608     134.258973542181     101.559385040000
      8857    3       54.079851999945     137.381275249904     100.000000000000
      8858    1       54.079851999945     137.381275249904     103.118770080000
      8859    9       54.079851999945     140.503576962632     100.000000000000
      8860    7       54.079851999945     140.503576962632     103.118770080000
      8861    2       54.981182861605     138.942426101262     101.559385040000
      8862    8       54.981182861605     142.064727813990     101.559385040000
      8863    6       56.783844594937     138.942426101262     100.000000000000
      8864    4       56.783844594937     138.942426101262     103.118770080000
      8865   12       56.783844594937     142.064727813990     100.000000000000
      8866   10       56.783844594937     142.064727813990     103.118770080000
      8867    5       57.685175466608     137.381275249904     101.559385040000
      8868   11       57.685175466608     140.503576962632     101.559385040000
      8869    3       54.079851999945     143.625878670354     100.000000000000
      8870    1       54.079851999945     143.625878670354     103.118770080000
      8871    9       54.079851999945     146.748180383082     100.000000000000
      8872    7       54.079851999945     146.748180383082     103.118770080000
      8873    2       54.981182861605     145.187029521712     101.559385040000
      8874    8       54.981182861605     148.309331234440     101.559385040000
      8875    6       56.783844594937     145.187029521712     100.000000000000
      8876    4       56.783844594937     145.187029521712     103.118770080000
      8877   12       56.783844594937     148.309331234440     100.000000000000
      8878   10       56.783844594937     148.309331234440     103.118770080000
      8879    5       57.685175466608     143.625878670354     101.559385040000
      8880   11       57.685175466608     146.748180383082     101.559385040000
      8881    3       59.487837199940     112.402861568103     100.000000000000
      8882    1       59.487837199940     112.402861568103     103.118770080000
      8883    9       59.487837199940     115.525163280831     100.000000000000
      8884    7       59.487837199940     115.525163280831     103.118770080000
      8885    2       60.389168061600     113.964012419461     101.559385040000
      8886    8       60.389168061600     117.086314132189     101.559385040000
      8887    6       62.191829794931     113.964012419461     100.000000000000
      8888    4       62.191829794931     113.964012419461     103.118770080000
      8889   12       62.191829794931     117.086314132189     100.000000000000
      8890   10       62.191829794931     117.086314132189     103.118770080000
      8891    5       63.093160666603     112.402861568103     101.559385040000
      8892   11       63.093160666603     115.525163280831     101.559385040000
      8893    3       59.487837199940     118.647464988553     100.000000000000
      8894    1       59.487837199940     118.647464988553     103.118770080000
      8895    9       59.487837199940     121.769766701281     100.000000000000
      8896    7       59.487837199940     121.769766701281     103.118770080000
      8897    2       60.389168061600     120.208615839911     101.559385040000
      8898    8       60.389168061600     123.330917552639     101.559385040000
      8899    6       62.191829794931     120.208615839911     100.000000000000
      8900    4       62.191829794931     120.208615839911     103.118770080000
      8901   12       62.191829794931     123.330917552639     100.000000000000
      8902   10       62.191829794931     123.330917552639     103.118770080000
      8903    5       63.093160666603     118.647464988553     101.559385040000
      8904   11       63.093160666603     121.769766701281     101.559385040000
      8905    3       59.487837199940     124.892068409003     100.000000000000
      8906    1       59.487837199940     124.892068409003     103.118770080000
      8907    9       59.487837199940     128.014370121731     100.000000000000
      8908    7       59.487837199940     128.014370121731     103.118770080000
      8909    2       60.389168061600     126.453219260362     101.559385040000
      8910    8       60.389168061600     129.575520973090     101.559385040000
      8911    6       62.191829794931     126.453219260362     100.000000000000
      8912    4       62.191829794931     126.453219260362     103.118770080000
      8913   12       62.191829794931     129.575520973090     100.000000000000
      8914   10       62.191829794931     129.575520973090     103.118770080000
      8915    5       63.093160666603     124.892068409003     101.559385040000
      8916   11       63.093160666603     128.014370121731     101.559385040000
      8917    3       59.487837199940     131.136671829453     100.000000000000
      8918    1       59.487837199940     131.136671829453     103.118770080000
      8919    9       59.487837199940     134.258973542181     100.000000000000
      8920    7       59.487837199940     134.258973542181     103.118770080000
      8921    2       60.389168061600     132.697822680812     101.559385040000
      8922    8       60.389168061600     135.820124393540     101.559385040000
      8923    6       62.191829794931     132.697822680812     100.000000000000
      8924    4       62.191829794931     132.697822680812     103.118770080000
      8925   12       62.191829794931     135.820124393540     100.000000000000
      8926   10       62.191829794931     135.820124393540     103.118770080000
      8927    5       63.093160666603     131.136671829453     101.559385040000
      8928   11       63.093160666603     134.258973542181     101.559385040000
      8929    3       59.487837199940     137.381275249904     100.000000000000
      8930    1       59.487837199940     137.381275249904     103.118770080000
      8931    9       59.487837199940     140.503576962632     100.000000000000
      8932    7       59.487837199940     140.503576962632     103.118770080000
      8933    2       60.389168061600     138.942426101262     101.559385040000
      8934    8       60.389168061600     142.064727813990     101.559385040000
      8935    6       62.191829794931     138.942426101262     100.000000000000
      8936    4       62.191829794931     138.942426101262     103.118770080000
      8937   12       62.191829794931     142.064727813990     100.000000000000
      8938   10       62.191829794931     142.064727813990     103.118770080000
      8939    5       63.093160666603     137.381275249904     101.559385040000
      8940   11       63.093160666603     140.503576962632     101.559385040000
      8941    3       59.487837199940     143.625878670354     100.000000000000
      8942    1       59.487837199940     143.625878670354     103.118770080000
      8943    9       59.487837199940     146.748180383082     100.000000000000
      8944    7       59.487837199940     146.748180383082     103.118770080000
      8945    2       60.389168061600     145.187029521712     101.559385040000
      8946    8       60.389168061600     148.309331234440     101.559385040000
      8947    6       62.191829794931     145.187029521712     100.000000000000
      8948    4       62.191829794931     145.187029521712     103.118770080000
      8949   12       62.191829794931     148.309331234440     100.000000000000
      8950   10       62.191829794931     148.309331234440     103.118770080000
      8951    5       63.093160666603     143.625878670354     101.559385040000
      8952   11       63.093160666603     146.748180383082     101.559385040000
      8953   14        0.000000000000     112.402861568103     106.818770080000
      8954   13        0.983270030902     114.105935224130     106.818770080000
      8955   14        2.949810103627     114.105935224130     106.818770080000
      8956   13        3.933080145451     112.402861568103     106.818770080000
      8957   14        0.000000000000     115.809008888349     106.818770080000
      8958   13        0.983270030902     117.512082544376     106.818770080000
      8959   14        2.949810103627     117.512082544376     106.818770080000
      8960   13        3.933080145451     115.809008888349     106.818770080000
      8961   14        0.000000000000     119.215156208594     106.818770080000
      8962   13        0.983270030902     120.918229864621     106.818770080000
      8963   14        2.949810103627     120.918229864621     106.818770080000
      8964   13        3.933080145451     119.215156208594     106.818770080000
      8965   14        0.000000000000     122.621303528840     106.818770080000
      8966   13        0.983270030902     124.324377184867     106.818770080000
      8967   14        2.949810103627     124.324377184867     106.818770080000
      8968   13        3.933080145451     122.621303528840     106.818770080000
      8969   14        0.000000000000     126.027450849085     106.818770080000
      8970   13        0.983270030902     127.730524505113     106.818770080000
      8971   14        2.949810103627     127.730524505113     106.818770080000
      8972   13        3.933080145451     126.027450849085     106.818770080000
      8973   14        0.000000000000     129.433598169331     106.818770080000
      8974   13        0.983270030902     131.136671825358     106.818770080000
      8975   14        2.949810103627     131.136671825358     106.818770080000
      8976   13        3.933080145451     129.433598169331     106.818770080000
      8977   14        0.000000000000     132.839745489576     106.818770080000
      8978   13        0.983270030902     134.542819145604     106.818770080000
      8979   14        2.949810103627     134.542819145604     106.818770080000
      8980   13        3.933080145451     132.839745489576     106.818770080000
      8981   14        0.000000000000     136.245892809822     106.818770080000
      8982   13        0.983270030902     137.948966465849     106.818770080000
      8983   14        2.949810103627     137.948966465849     106.818770080000
      8984   13        3.933080145451     136.245892809822     106.818770080000
      8985   14        0.000000000000     139.652040130067     106.818770080000
      8986   13        0.983270030902     141.355113786095     106.818770080000
      8987   14        2.949810103627     141.355113786095     106.818770080000
      8988   13        3.933080145451     139.652040130067     106.818770080000
      8989   14        0.000000000000     143.058187450313     106.818770080000
      8990   13        0.983270030902     144.761261106340     106.818770080000
      8991   14        2.949810103627     144.761261106340     106.818770080000
      8992   13        3.933080145451     143.058187450313     106.818770080000
      8993   14        0.000000000000     146.464334770558     106.818770080000
      8994   13        0.983270030902     148.167408426586     106.818770080000
      8995   14        2.949810103627     148.167408426586     106.818770080000
      8996   13        3.933080145451     146.464334770558     106.818770080000
      8997   14        5.899620218176     112.402861568103     106.818770080000
      8998   13        6.882890249078     114.105935224130     106.818770080000
      8999   14        8.849430321803     114.105935224130     106.818770080000
      9000   13        9.832700363627     112.402861568103     106.818770080000
      9001   14        5.899620218176     115.809008888349     106.818770080000
      9002   13        6.882890249078     117.512082544376     106.818770080000
      9003   14        8.849430321803     117.512082544376     106.818770080000
      9004   13        9.832700363627     115.809008888349     106.818770080000
      9005   14        5.899620218176     119.215156208594     106.818770080000
      9006   13        6.882890249078     120.918229864621     106.818770080000
      9007   14        8.849430321803     120.918229864621     106.818770080000
      9008   13        9.832700363627     119.215156208594     106.818770080000
      9009   14        5.899620218176     122.621303528840     106.818770080000
      9010   13        6.882890249078     124.324377184867     106.818770080000
      9011   14        8.849430321803     124.324377184867     106.818770080000
      9012   13        9.832700363627     122.621303528840     106.818770080000
      9013   14        5.899620218176     126.027450849085     106.818770080000
      9014   13        6.882890249078     127.730524505113     106.818770080000
      9015   14        8.849430321803     127.730524505113     106.818770080000
      9016   13        9.832700363627     126.027450849085     106.818770080000
      9017   14        5.899620218176     129.433598169331     106.818770080000
      9018   13        6.882890249078     131.136671825358     106.818770080000
      9019   14        8.849430321803     131.136671825358     106.818770080000
      9020   13        9.832700363627     129.433598169331     106.818770080000
      9021   14        5.899620218176     132.839745489576     106.818770080000
      9022   13        6.882890249078     134.542819145604     106.818770080000
      9023   14        8.849430321803     134.542819145604     106.818770080000
      9024   13        9.832700363627     132.839745489576     106.818770080000
      9025   14        5.899620218176     136.245892809822     106.818770080000
      9026   13        6.882890249078     137.948966465849     106.818770080000
      9027   14        8.849430321803     137.948966465849     106.818770080000
      9028   13        9.832700363627     136.245892809822     106.818770080000
      9029   14        5.899620218176     139.652040130067     106.818770080000
      9030   13        6.882890249078     141.355113786095     106.818770080000
      9031   14        8.849430321803     141.355113786095     106.818770080000
      9032   13        9.832700363627     139.652040130067     106.818770080000
      9033   14        5.899620218176     143.058187450313     106.818770080000
      9034   13        6.882890249078     144.761261106340     106.818770080000
      9035   14        8.849430321803     144.761261106340     106.818770080000
      9036   13        9.832700363627     143.058187450313     106.818770080000
      9037   14        5.899620218176     146.464334770558     106.818770080000
      9038   13        6.882890249078     148.167408426586     106.818770080000
      9039   14        8.849430321803     148.167408426586     106.818770080000
      9040   13        9.832700363627     146.464334770558     106.818770080000
      9041   14       11.799240436352     112.402861568103     106.818770080000
      9042   13       12.782510467254     114.105935224130     106.818770080000
      9043   14       14.749050539979     114.105935224130     106.818770080000
      9044   13       15.732320581803     112.402861568103     106.818770080000
      9045   14       11.799240436352     115.809008888349     106.818770080000
      9046   13       12.782510467254     117.512082544376     106.818770080000
      9047   14       14.749050539979     117.512082544376     106.818770080000
      9048   13       15.732320581803     115.809008888349     106.818770080000
      9049   14       11.799240436352     119.215156208594     106.818770080000
      9050   13       12.782510467254     120.918229864621     106.818770080000
      9051   14       14.749050539979     120.918229864621     106.818770080000
      9052   13       15.732320581803     119.215156208594     106.818770080000
      9053   14       11.799240436352     122.621303528840     106.818770080000
      9054   13       12.782510467254     124.324377184867     106.818770080000
      9055   14       14.749050539979     124.324377184867     106.818770080000
      9056   13       15.732320581803     122.621303528840     106.818770080000
      9057   14       11.799240436352     126.027450849085     106.818770080000
      9058   13       12.782510467254     127.730524505113     106.818770080000
      9059   14       14.749050539979     127.730524505113     106.818770080000
      9060   13       15.732320581803     126.027450849085     106.818770080000
      9061   14       11.799240436352     129.433598169331     106.818770080000
      9062   13       12.782510467254     131.136671825358     106.818770080000
      9063   14       14.749050539979     131.136671825358     106.818770080000
      9064   13       15.732320581803     129.433598169331     106.818770080000
      9065   14       11.799240436352     132.839745489576     106.818770080000
      9066   13       12.782510467254     134.542819145604     106.818770080000
      9067   14       14.749050539979     134.542819145604     106.818770080000
      9068   13       15.732320581803     132.839745489576     106.818770080000
      9069   14       11.799240436352     136.245892809822     106.818770080000
      9070   13       12.782510467254     137.948966465849     106.818770080000
      9071   14       14.749050539979     137.948966465849     106.818770080000
      9072   13       15.732320581803     136.245892809822     106.818770080000
      9073   14       11.799240436352     139.652040130067     106.818770080000
      9074   13       12.782510467254     141.355113786095     106.818770080000
      9075   14       14.749050539979     141.355113786095     106.818770080000
      9076   13       15.732320581803     139.652040130067     106.818770080000
      9077   14       11.799240436352     143.058187450313     106.818770080000
      9078   13       12.782510467254     144.761261106340     106.818770080000
      9079   14       14.749050539979     144.761261106340     106.818770080000
      9080   13       15.732320581803     143.058187450313     106.818770080000
      9081   14       11.799240436352     146.464334770558     106.818770080000
      9082   13       12.782510467254     148.167408426586     106.818770080000
      9083   14       14.749050539979     148.167408426586     106.818770080000
      9084   13       15.732320581803     146.464334770558     106.818770080000
      9085   14       17.698860654528     112.402861568103     106.818770080000
      9086   13       18.682130685429     114.105935224130     106.818770080000
      9087   14       20.648670758155     114.105935224130     106.818770080000
      9088   13       21.631940799978     112.402861568103     106.818770080000
      9089   14       17.698860654528     115.809008888349     106.818770080000
      9090   13       18.682130685429     117.512082544376     106.818770080000
      9091   14       20.648670758155     117.512082544376     106.818770080000
      9092   13       21.631940799978     115.809008888349     106.818770080000
      9093   14       17.698860654528     119.215156208594     106.818770080000
      9094   13       18.682130685429     120.918229864621     106.818770080000
      9095   14       20.648670758155     120.918229864621     106.818770080000
      9096   13       21.631940799978     119.215156208594     106.818770080000
      9097   14       17.698860654528     122.621303528840     106.818770080000
      9098   13       18.682130685429     124.324377184867     106.818770080000
      9099   14       20.648670758155     124.324377184867     106.818770080000
      9100   13       21.631940799978     122.621303528840     106.818770080000
      9101   14       17.698860654528     126.027450849085     106.818770080000
      9102   13       18.682130685429     127.730524505113     106.818770080000
      9103   14       20.648670758155     127.730524505113     106.818770080000
      9104   13       21.631940799978     126.027450849085     106.818770080000
      9105   14       17.698860654528     129.433598169331     106.818770080000
      9106   13       18.682130685429     131.136671825358     106.818770080000
      9107   14       20.648670758155     131.136671825358     106.818770080000
      9108   13       21.631940799978     129.433598169331     106.818770080000
      9109   14       17.698860654528     132.839745489576     106.818770080000
      9110   13       18.682130685429     134.542819145604     106.818770080000
      9111   14       20.648670758155     134.542819145604     106.818770080000
      9112   13       21.631940799978     132.839745489576     106.818770080000
      9113   14       17.698860654528     136.245892809822     106.818770080000
      9114   13       18.682130685429     137.948966465849     106.818770080000
      9115   14       20.648670758155     137.948966465849     106.818770080000
      9116   13       21.631940799978     136.245892809822     106.818770080000
      9117   14       17.698860654528     139.652040130067     106.818770080000
      9118   13       18.682130685429     141.355113786095     106.818770080000
      9119   14       20.648670758155     141.355113786095     106.818770080000
      9120   13       21.631940799978     139.652040130067     106.818770080000
      9121   14       17.698860654528     143.058187450313     106.818770080000
      9122   13       18.682130685429     144.761261106340     106.818770080000
      9123   14       20.648670758155     144.761261106340     106.818770080000
      9124   13       21.631940799978     143.058187450313     106.818770080000
      9125   14       17.698860654528     146.464334770558     106.818770080000
      9126   13       18.682130685429     148.167408426586     106.818770080000
      9127   14       20.648670758155     148.167408426586     106.818770080000
      9128   13       21.631940799978     146.464334770558     106.818770080000
      9129   14       23.598480872703     112.402861568103     106.818770080000
      9130   13       24.581750903605     114.105935224130     106.818770080000
      9131   14       26.548290976331     114.105935224130     106.818770080000
      9132   13       27.531561018154     112.402861568103     106.818770080000
      9133   14       23.598480872703     115.809008888349     106.818770080000
      9134   13       24.581750903605     117.512082544376     106.818770080000
      9135   14       26.548290976331     117.512082544376     106.818770080000
      9136   13       27.531561018154     115.809008888349     106.818770080000
      9137   14       23.598480872703     119.215156208594     106.818770080000
      9138   13       24.581750903605     120.918229864621     106.818770080000
      9139   14       26.548290976331     120.918229864621     106.818770080000
      9140   13       27.531561018154     119.215156208594     106.818770080000
      9141   14       23.598480872703     122.621303528840     106.818770080000
      9142   13       24.581750903605     124.324377184867     106.818770080000
      9143   14       26.548290976331     124.324377184867     106.818770080000
      9144   13       27.531561018154     122.621303528840     106.818770080000
      9145   14       23.598480872703     126.027450849085     106.818770080000
      9146   13       24.581750903605     127.730524505113     106.818770080000
      9147   14       26.548290976331     127.730524505113     106.818770080000
      9148   13       27.531561018154     126.027450849085     106.818770080000
      9149   14       23.598480872703     129.433598169331     106.818770080000
      9150   13       24.581750903605     131.136671825358     106.818770080000
      9151   14       26.548290976331     131.136671825358     106.818770080000
      9152   13       27.531561018154     129.433598169331     106.818770080000
      9153   14       23.598480872703     132.839745489576     106.818770080000
      9154   13       24.581750903605     134.542819145604     106.818770080000
      9155   14       26.548290976331     134.542819145604     106.818770080000
      9156   13       27.531561018154     132.839745489576     106.818770080000
      9157   14       23.598480872703     136.245892809822     106.818770080000
      9158   13       24.581750903605     137.948966465849     106.818770080000
      9159   14       26.548290976331     137.948966465849     106.818770080000
      9160   13       27.531561018154     136.245892809822     106.818770080000
      9161   14       23.598480872703     139.652040130067     106.818770080000
      9162   13       24.581750903605     141.355113786095     106.818770080000
      9163   14       26.548290976331     141.355113786095     106.818770080000
      9164   13       27.531561018154     139.652040130067     106.818770080000
      9165   14       23.598480872703     143.058187450313     106.818770080000
      9166   13       24.581750903605     144.761261106340     106.818770080000
      9167   14       26.548290976331     144.761261106340     106.818770080000
      9168   13       27.531561018154     143.058187450313     106.818770080000
      9169   14       23.598480872703     146.464334770558     106.818770080000
      9170   13       24.581750903605     148.167408426586     106.818770080000
      9171   14       26.548290976331     148.167408426586     106.818770080000
      9172   13       27.531561018154     146.464334770558     106.818770080000
      9173   14       29.498101090879     112.402861568103     106.818770080000
      9174   13       30.481371121781     114.105935224130     106.818770080000
      9175   14       32.447911194507     114.105935224130     106.818770080000
      9176   13       33.431181236330     112.402861568103     106.818770080000
      9177   14       29.498101090879     115.809008888349     106.818770080000
      9178   13       30.481371121781     117.512082544376     106.818770080000
      9179   14       32.447911194507     117.512082544376     106.818770080000
      9180   13       33.431181236330     115.809008888349     106.818770080000
      9181   14       29.498101090879     119.215156208594     106.818770080000
      9182   13       30.481371121781     120.918229864621     106.818770080000
      9183   14       32.447911194507     120.918229864621     106.818770080000
      9184   13       33.431181236330     119.215156208594     106.818770080000
      9185   14       29.498101090879     122.621303528840     106.818770080000
      9186   13       30.481371121781     124.324377184867     106.818770080000
      9187   14       32.447911194507     124.324377184867     106.818770080000
      9188   13       33.431181236330     122.621303528840     106.818770080000
      9189   14       29.498101090879     126.027450849085     106.818770080000
      9190   13       30.481371121781     127.730524505113     106.818770080000
      9191   14       32.447911194507     127.730524505113     106.818770080000
      9192   13       33.431181236330     126.027450849085     106.818770080000
      9193   14       29.498101090879     129.433598169331     106.818770080000
      9194   13       30.481371121781     131.136671825358     106.818770080000
      9195   14       32.447911194507     131.136671825358     106.818770080000
      9196   13       33.431181236330     129.433598169331     106.818770080000
      9197   14       29.498101090879     132.839745489576     106.818770080000
      9198   13       30.481371121781     134.542819145604     106.818770080000
      9199   14       32.447911194507     134.542819145604     106.818770080000
      9200   13       33.431181236330     132.839745489576     106.818770080000
      9201   14       29.498101090879     136.245892809822     106.818770080000
      9202   13       30.481371121781     137.948966465849     106.818770080000
      9203   14       32.447911194507     137.948966465849     106.818770080000
      9204   13       33.431181236330     136.245892809822     106.818770080000
      9205   14       29.498101090879     139.652040130067     106.818770080000
      9206   13       30.481371121781     141.355113786095     106.818770080000
      9207   14       32.447911194507     141.355113786095     106.818770080000
      9208   13       33.431181236330     139.652040130067     106.818770080000
      9209   14       29.498101090879     143.058187450313     106.818770080000
      9210   13       30.481371121781     144.761261106340     106.818770080000
      9211   14       32.447911194507     144.761261106340     106.818770080000
      9212   13       33.431181236330     143.058187450313     106.818770080000
      9213   14       29.498101090879     146.464334770558     106.818770080000
      9214   13       30.481371121781     148.167408426586     106.818770080000
      9215   14       32.447911194507     148.167408426586     106.818770080000
      9216   13       33.431181236330     146.464334770558     106.818770080000
      9217   14       35.397721309055     112.402861568103     106.818770080000
      9218   13       36.380991339957     114.105935224130     106.818770080000
      9219   14       38.347531412682     114.105935224130     106.818770080000
      9220   13       39.330801454506     112.402861568103     106.818770080000
      9221   14       35.397721309055     115.809008888349     106.818770080000
      9222   13       36.380991339957     117.512082544376     106.818770080000
      9223   14       38.347531412682     117.512082544376     106.818770080000
      9224   13       39.330801454506     115.809008888349     106.818770080000
      9225   14       35.397721309055     119.215156208594     106.818770080000
      9226   13       36.380991339957     120.918229864621     106.818770080000
      9227   14       38.347531412682     120.918229864621     106.818770080000
      9228   13       39.330801454506     119.215156208594     106.818770080000
      9229   14       35.397721309055     122.621303528840     106.818770080000
      9230   13       36.380991339957     124.324377184867     106.818770080000
      9231   14       38.347531412682     124.324377184867     106.818770080000
      9232   13       39.330801454506     122.621303528840     106.818770080000
      9233   14       35.397721309055     126.027450849085     106.818770080000
      9234   13       36.380991339957     127.730524505113     106.818770080000
      9235   14       38.347531412682     127.730524505113     106.818770080000
      9236   13       39.330801454506     126.027450849085     106.818770080000
      9237   14       35.397721309055     129.433598169331     106.818770080000
      9238   13       36.380991339957     131.136671825358     106.818770080000
      9239   14       38.347531412682     131.136671825358     106.818770080000
      9240   13       39.330801454506     129.433598169331     106.818770080000
      9241   14       35.397721309055     132.839745489576     106.818770080000
      9242   13       36.380991339957     134.542819145604     106.818770080000
      9243   14       38.347531412682     134.542819145604     106.818770080000
      9244   13       39.330801454506     132.839745489576     106.818770080000
      9245   14       35.397721309055     136.245892809822     106.818770080000
      9246   13       36.380991339957     137.948966465849     106.818770080000
      9247   14       38.347531412682     137.948966465849     106.818770080000
      9248   13       39.330801454506     136.245892809822     106.818770080000
      9249   14       35.397721309055     139.652040130067     106.818770080000
      9250   13       36.380991339957     141.355113786095     106.818770080000
      9251   14       38.347531412682     141.355113786095     106.818770080000
      9252   13       39.330801454506     139.652040130067     106.818770080000
      9253   14       35.397721309055     143.058187450313     106.818770080000
      9254   13       36.380991339957     144.761261106340     106.818770080000
      9255   14       38.347531412682     144.761261106340     106.818770080000
      9256   13       39.330801454506     143.058187450313     106.818770080000
      9257   14       35.397721309055     146.464334770558     106.818770080000
      9258   13       36.380991339957     148.167408426586     106.818770080000
      9259   14       38.347531412682     148.167408426586     106.818770080000
      9260   13       39.330801454506     146.464334770558     106.818770080000
      9261   14       41.297341527231     112.402861568103     106.818770080000
      9262   13       42.280611558133     114.105935224130     106.818770080000
      9263   14       44.247151630858     114.105935224130     106.818770080000
      9264   13       45.230421672682     112.402861568103     106.818770080000
      9265   14       41.297341527231     115.809008888349     106.818770080000
      9266   13       42.280611558133     117.512082544376     106.818770080000
      9267   14       44.247151630858     117.512082544376     106.818770080000
      9268   13       45.230421672682     115.809008888349     106.818770080000
      9269   14       41.297341527231     119.215156208594     106.818770080000
      9270   13       42.280611558133     120.918229864621     106.818770080000
      9271   14       44.247151630858     120.918229864621     106.818770080000
      9272   13       45.230421672682     119.215156208594     106.818770080000
      9273   14       41.297341527231     122.621303528840     106.818770080000
      9274   13       42.280611558133     124.324377184867     106.818770080000
      9275   14       44.247151630858     124.324377184867     106.818770080000
      9276   13       45.230421672682     122.621303528840     106.818770080000
      9277   14       41.297341527231     126.027450849085     106.818770080000
      9278   13       42.280611558133     127.730524505113     106.818770080000
      9279   14       44.247151630858     127.730524505113     106.818770080000
      9280   13       45.230421672682     126.027450849085     106.818770080000
      9281   14       41.297341527231     129.433598169331     106.818770080000
      9282   13       42.280611558133     131.136671825358     106.818770080000
      9283   14       44.247151630858     131.136671825358     106.818770080000
      9284   13       45.230421672682     129.433598169331     106.818770080000
      9285   14       41.297341527231     132.839745489576     106.818770080000
      9286   13       42.280611558133     134.542819145604     106.818770080000
      9287   14       44.247151630858     134.542819145604     106.818770080000
      9288   13       45.230421672682     132.839745489576     106.818770080000
      9289   14       41.297341527231     136.245892809822     106.818770080000
      9290   13       42.280611558133     137.948966465849     106.818770080000
      9291   14       44.247151630858     137.948966465849     106.818770080000
      9292   13       45.230421672682     136.245892809822     106.818770080000
      9293   14       41.297341527231     139.652040130067     106.818770080000
      9294   13       42.280611558133     141.355113786095     106.818770080000
      9295   14       44.247151630858     141.355113786095     106.818770080000
      9296   13       45.230421672682     139.652040130067     106.818770080000
      9297   14       41.297341527231     143.058187450313     106.818770080000
      9298   13       42.280611558133     144.761261106340     106.818770080000
      9299   14       44.247151630858     144.761261106340     106.818770080000
      9300   13       45.230421672682     143.058187450313     106.818770080000
      9301   14       41.297341527231     146.464334770558     106.818770080000
      9302   13       42.280611558133     148.167408426586     106.818770080000
      9303   14       44.247151630858     148.167408426586     106.818770080000
      9304   13       45.230421672682     146.464334770558     106.818770080000
      9305   14       47.196961745407     112.402861568103     106.818770080000
      9306   13       48.180231776309     114.105935224130     106.818770080000
      9307   14       50.146771849034     114.105935224130     106.818770080000
      9308   13       51.130041890858     112.402861568103     106.818770080000
      9309   14       47.196961745407     115.809008888349     106.818770080000
      9310   13       48.180231776309     117.512082544376     106.818770080000
      9311   14       50.146771849034     117.512082544376     106.818770080000
      9312   13       51.130041890858     115.809008888349     106.818770080000
      9313   14       47.196961745407     119.215156208594     106.818770080000
      9314   13       48.180231776309     120.918229864621     106.818770080000
      9315   14       50.146771849034     120.918229864621     106.818770080000
      9316   13       51.130041890858     119.215156208594     106.818770080000
      9317   14       47.196961745407     122.621303528840     106.818770080000
      9318   13       48.180231776309     124.324377184867     106.818770080000
      9319   14       50.146771849034     124.324377184867     106.818770080000
      9320   13       51.130041890858     122.621303528840     106.818770080000
      9321   14       47.196961745407     126.027450849085     106.818770080000
      9322   13       48.180231776309     127.730524505113     106.818770080000
      9323   14       50.146771849034     127.730524505113     106.818770080000
      9324   13       51.130041890858     126.027450849085     106.818770080000
      9325   14       47.196961745407     129.433598169331     106.818770080000
      9326   13       48.180231776309     131.136671825358     106.818770080000
      9327   14       50.146771849034     131.136671825358     106.818770080000
      9328   13       51.130041890858     129.433598169331     106.818770080000
      9329   14       47.196961745407     132.839745489576     106.818770080000
      9330   13       48.180231776309     134.542819145604     106.818770080000
      9331   14       50.146771849034     134.542819145604     106.818770080000
      9332   13       51.130041890858     132.839745489576     106.818770080000
      9333   14       47.196961745407     136.245892809822     106.818770080000
      9334   13       48.180231776309     137.948966465849     106.818770080000
      9335   14       50.146771849034     137.948966465849     106.818770080000
      9336   13       51.130041890858     136.245892809822     106.818770080000
      9337   14       47.196961745407     139.652040130067     106.818770080000
      9338   13       48.180231776309     141.355113786095     106.818770080000
      9339   14       50.146771849034     141.355113786095     106.818770080000
      9340   13       51.130041890858     139.652040130067     106.818770080000
      9341   14       47.196961745407     143.058187450313     106.818770080000
      9342   13       48.180231776309     144.761261106340     106.818770080000
      9343   14       50.146771849034     144.761261106340     106.818770080000
      9344   13       51.130041890858     143.058187450313     106.818770080000
      9345   14       47.196961745407     146.464334770558     106.818770080000
      9346   13       48.180231776309     148.167408426586     106.818770080000
      9347   14       50.146771849034     148.167408426586     106.818770080000
      9348   13       51.130041890858     146.464334770558     106.818770080000
      9349   14       53.096581963583     112.402861568103     106.818770080000
      9350   13       54.079851994484     114.105935224130     106.818770080000
      9351   14       56.046392067210     114.105935224130     106.818770080000
      9352   13       57.029662109033     112.402861568103     106.818770080000
      9353   14       53.096581963583     115.809008888349     106.818770080000
      9354   13       54.079851994484     117.512082544376     106.818770080000
      9355   14       56.046392067210     117.512082544376     106.818770080000
      9356   13       57.029662109033     115.809008888349     106.818770080000
      9357   14       53.096581963583     119.215156208594     106.818770080000
      9358   13       54.079851994484     120.918229864621     106.818770080000
      9359   14       56.046392067210     120.918229864621     106.818770080000
      9360   13       57.029662109033     119.215156208594     106.818770080000
      9361   14       53.096581963583     122.621303528840     106.818770080000
      9362   13       54.079851994484     124.324377184867     106.818770080000
      9363   14       56.046392067210     124.324377184867     106.818770080000
      9364   13       57.029662109033     122.621303528840     106.818770080000
      9365   14       53.096581963583     126.027450849085     106.818770080000
      9366   13       54.079851994484     127.730524505113     106.818770080000
      9367   14       56.046392067210     127.730524505113     106.818770080000
      9368   13       57.029662109033     126.027450849085     106.818770080000
      9369   14       53.096581963583     129.433598169331     106.818770080000
      9370   13       54.079851994484     131.136671825358     106.818770080000
      9371   14       56.046392067210     131.136671825358     106.818770080000
      9372   13       57.029662109033     129.433598169331     106.818770080000
      9373   14       53.096581963583     132.839745489576     106.818770080000
      9374   13       54.079851994484     134.542819145604     106.818770080000
      9375   14       56.046392067210     134.542819145604     106.818770080000
      9376   13       57.029662109033     132.839745489576     106.818770080000
      9377   14       53.096581963583     136.245892809822     106.818770080000
      9378   13       54.079851994484     137.948966465849     106.818770080000
      9379   14       56.046392067210     137.948966465849     106.818770080000
      9380   13       57.029662109033     136.245892809822     106.818770080000
      9381   14       53.096581963583     139.652040130067     106.818770080000
      9382   13       54.079851994484     141.355113786095     106.818770080000
      9383   14       56.046392067210     141.355113786095     106.818770080000
      9384   13       57.029662109033     139.652040130067     106.818770080000
      9385   14       53.096581963583     143.058187450313     106.818770080000
      9386   13       54.079851994484     144.761261106340     106.818770080000
      9387   14       56.046392067210     144.761261106340     106.818770080000
      9388   13       57.029662109033     143.058187450313     106.818770080000
      9389   14       53.096581963583     146.464334770558     106.818770080000
      9390   13       54.079851994484     148.167408426586     106.818770080000
      9391   14       56.046392067210     148.167408426586     106.818770080000
      9392   13       57.029662109033     146.464334770558     106.818770080000
      9393   14       58.996202181758     112.402861568103     106.818770080000
      9394   13       59.979472212660     114.105935224130     106.818770080000
      9395   14       61.946012285386     114.105935224130     106.818770080000
      9396   13       62.929282327209     112.402861568103     106.818770080000
      9397   14       58.996202181758     115.809008888349     106.818770080000
      9398   13       59.979472212660     117.512082544376     106.818770080000
      9399   14       61.946012285386     117.512082544376     106.818770080000
      9400   13       62.929282327209     115.809008888349     106.818770080000
      9401   14       58.996202181758     119.215156208594     106.818770080000
      9402   13       59.979472212660     120.918229864621     106.818770080000
      9403   14       61.946012285386     120.918229864621     106.818770080000
      9404   13       62.929282327209     119.215156208594     106.818770080000
      9405   14       58.996202181758     122.621303528840     106.818770080000
      9406   13       59.979472212660     124.324377184867     106.818770080000
      9407   14       61.946012285386     124.324377184867     106.818770080000
      9408   13       62.929282327209     122.621303528840     106.818770080000
      9409   14       58.996202181758     126.027450849085     106.818770080000
      9410   13       59.979472212660     127.730524505113     106.818770080000
      9411   14       61.946012285386     127.730524505113     106.818770080000
      9412   13       62.929282327209     126.027450849085     106.818770080000
      9413   14       58.996202181758     129.433598169331     106.818770080000
      9414   13       59.979472212660     131.136671825358     106.818770080000
      9415   14       61.946012285386     131.136671825358     106.818770080000
      9416   13       62.929282327209     129.433598169331     106.818770080000
      9417   14       58.996202181758     132.839745489576     106.818770080000
      9418   13       59.979472212660     134.542819145604     106.818770080000
      9419   14       61.946012285386     134.542819145604     106.818770080000
      9420   13       62.929282327209     132.839745489576     106.818770080000
      9421   14       58.996202181758     136.245892809822     106.818770080000
      9422   13       59.979472212660     137.948966465849     106.818770080000
      9423   14       61.946012285386     137.948966465849     106.818770080000
      9424   13       62.929282327209     136.245892809822     106.818770080000
      9425   14       58.996202181758     139.652040130067     106.818770080000
      9426   13       59.979472212660     141.355113786095     106.818770080000
      9427   14       61.946012285386     141.355113786095     106.818770080000
      9428   13       62.929282327209     139.652040130067     106.818770080000
      9429   14       58.996202181758     143.058187450313     106.818770080000
      9430   13       59.979472212660     144.761261106340     106.818770080000
      9431   14       61.946012285386     144.761261106340     106.818770080000
      9432   13       62.929282327209     143.058187450313     106.818770080000
      9433   14       58.996202181758     146.464334770558     106.818770080000
      9434   13       59.979472212660     148.167408426586     106.818770080000
      9435   14       61.946012285386     148.167408426586     106.818770080000
      9436   13       62.929282327209     146.464334770558     106.818770080000
      9437    3       64.895822399934     112.402861568103     100.000000000000
      9438    1       64.895822399934     112.402861568103     103.118770080000
      9439    9       64.895822399934     115.525163280831     100.000000000000
      9440    7       64.895822399934     115.525163280831     103.118770080000
      9441    2       65.797153261594     113.964012419461     101.559385040000
      9442    8       65.797153261594     117.086314132189     101.559385040000
      9443    6       67.599814994926     113.964012419461     100.000000000000
      9444    4       67.599814994926     113.964012419461     103.118770080000
      9445   12       67.599814994926     117.086314132189     100.000000000000
      9446   10       67.599814994926     117.086314132189     103.118770080000
      9447    5       68.501145866597     112.402861568103     101.559385040000
      9448   11       68.501145866597     115.525163280831     101.559385040000
      9449    3       64.895822399934     118.647464988553     100.000000000000
      9450    1       64.895822399934     118.647464988553     103.118770080000
      9451    9       64.895822399934     121.769766701281     100.000000000000
      9452    7       64.895822399934     121.769766701281     103.118770080000
      9453    2       65.797153261594     120.208615839911     101.559385040000
      9454    8       65.797153261594     123.330917552639     101.559385040000
      9455    6       67.599814994926     120.208615839911     100.000000000000
      9456    4       67.599814994926     120.208615839911     103.118770080000
      9457   12       67.599814994926     123.330917552639     100.000000000000
      9458   10       67.599814994926     123.330917552639     103.118770080000
      9459    5       68.501145866597     118.647464988553     101.559385040000
      9460   11       68.501145866597     121.769766701281     101.559385040000
      9461    3       64.895822399934     124.892068409003     100.000000000000
      9462    1       64.895822399934     124.892068409003     103.118770080000
      9463    9       64.895822399934     128.014370121731     100.000000000000
      9464    7       64.895822399934     128.014370121731     103.118770080000
      9465    2       65.797153261594     126.453219260362     101.559385040000
      9466    8       65.797153261594     129.575520973090     101.559385040000
      9467    6       67.599814994926     126.453219260362     100.000000000000
      9468    4       67.599814994926     126.453219260362     103.118770080000
      9469   12       67.599814994926     129.575520973090     100.000000000000
      9470   10       67.599814994926     129.575520973090     103.118770080000
      9471    5       68.501145866597     124.892068409003     101.559385040000
      9472   11       68.501145866597     128.014370121731     101.559385040000
      9473    3       64.895822399934     131.136671829453     100.000000000000
      9474    1       64.895822399934     131.136671829453     103.118770080000
      9475    9       64.895822399934     134.258973542181     100.000000000000
      9476    7       64.895822399934     134.258973542181     103.118770080000
      9477    2       65.797153261594     132.697822680812     101.559385040000
      9478    8       65.797153261594     135.820124393540     101.559385040000
      9479    6       67.599814994926     132.697822680812     100.000000000000
      9480    4       67.599814994926     132.697822680812     103.118770080000
      9481   12       67.599814994926     135.820124393540     100.000000000000
      9482   10       67.599814994926     135.820124393540     103.118770080000
      9483    5       68.501145866597     131.136671829453     101.559385040000
      9484   11       68.501145866597     134.258973542181     101.559385040000
      9485    3       64.895822399934     137.381275249904     100.000000000000
      9486    1       64.895822399934     137.381275249904     103.118770080000
      9487    9       64.895822399934     140.503576962632     100.000000000000
      9488    7       64.895822399934     140.503576962632     103.118770080000
      9489    2       65.797153261594     138.942426101262     101.559385040000
      9490    8       65.797153261594     142.064727813990     101.559385040000
      9491    6       67.599814994926     138.942426101262     100.000000000000
      9492    4       67.599814994926     138.942426101262     103.118770080000
      9493   12       67.599814994926     142.064727813990     100.000000000000
      9494   10       67.599814994926     142.064727813990     103.118770080000
      9495    5       68.501145866597     137.381275249904     101.559385040000
      9496   11       68.501145866597     140.503576962632     101.559385040000
      9497    3       64.895822399934     143.625878670354     100.000000000000
      9498    1       64.895822399934     143.625878670354     103.118770080000
      9499    9       64.895822399934     146.748180383082     100.000000000000
      9500    7       64.895822399934     146.748180383082     103.118770080000
      9501    2       65.797153261594     145.187029521712     101.559385040000
      9502    8       65.797153261594     148.309331234440     101.559385040000
      9503    6       67.599814994926     145.187029521712     100.000000000000
      9504    4       67.599814994926     145.187029521712     103.118770080000
      9505   12       67.599814994926     148.309331234440     100.000000000000
      9506   10       67.599814994926     148.309331234440     103.118770080000
      9507    5       68.501145866597     143.625878670354     101.559385040000
      9508   11       68.501145866597     146.748180383082     101.559385040000
      9509    3       70.303807599929     112.402861568103     100.000000000000
      9510    1       70.303807599929     112.402861568103     103.118770080000
      9511    9       70.303807599929     115.525163280831     100.000000000000
      9512    7       70.303807599929     115.525163280831     103.118770080000
      9513    2       71.205138461589     113.964012419461     101.559385040000
      9514    8       71.205138461589     117.086314132189     101.559385040000
      9515    6       73.007800194920     113.964012419461     100.000000000000
      9516    4       73.007800194920     113.964012419461     103.118770080000
      9517   12       73.007800194920     117.086314132189     100.000000000000
      9518   10       73.007800194920     117.086314132189     103.118770080000
      9519    5       73.909131066592     112.402861568103     101.559385040000
      9520   11       73.909131066592     115.525163280831     101.559385040000
      9521    3       70.303807599929     118.647464988553     100.000000000000
      9522    1       70.303807599929     118.647464988553     103.118770080000
      9523    9       70.303807599929     121.769766701281     100.000000000000
      9524    7       70.303807599929     121.769766701281     103.118770080000
      9525    2       71.205138461589     120.208615839911     101.559385040000
      9526    8       71.205138461589     123.330917552639     101.559385040000
      9527    6       73.007800194920     120.208615839911     100.000000000000
      9528    4       73.007800194920     120.208615839911     103.118770080000
      9529   12       73.007800194920     123.330917552639     100.000000000000
      9530   10       73.007800194920     123.330917552639     103.118770080000
      9531    5       73.909131066592     118.647464988553     101.559385040000
      9532   11       73.909131066592     121.769766701281     101.559385040000
      9533    3       70.303807599929     124.892068409003     100.000000000000
      9534    1       70.303807599929     124.892068409003     103.118770080000
      9535    9       70.303807599929     128.014370121731     100.000000000000
      9536    7       70.303807599929     128.014370121731     103.118770080000
      9537    2       71.205138461589     126.453219260362     101.559385040000
      9538    8       71.205138461589     129.575520973090     101.559385040000
      9539    6       73.007800194920     126.453219260362     100.000000000000
      9540    4       73.007800194920     126.453219260362     103.118770080000
      9541   12       73.007800194920     129.575520973090     100.000000000000
      9542   10       73.007800194920     129.575520973090     103.118770080000
      9543    5       73.909131066592     124.892068409003     101.559385040000
      9544   11       73.909131066592     128.014370121731     101.559385040000
      9545    3       70.303807599929     131.136671829453     100.000000000000
      9546    1       70.303807599929     131.136671829453     103.118770080000
      9547    9       70.303807599929     134.258973542181     100.000000000000
      9548    7       70.303807599929     134.258973542181     103.118770080000
      9549    2       71.205138461589     132.697822680812     101.559385040000
      9550    8       71.205138461589     135.820124393540     101.559385040000
      9551    6       73.007800194920     132.697822680812     100.000000000000
      9552    4       73.007800194920     132.697822680812     103.118770080000
      9553   12       73.007800194920     135.820124393540     100.000000000000
      9554   10       73.007800194920     135.820124393540     103.118770080000
      9555    5       73.909131066592     131.136671829453     101.559385040000
      9556   11       73.909131066592     134.258973542181     101.559385040000
      9557    3       70.303807599929     137.381275249904     100.000000000000
      9558    1       70.303807599929     137.381275249904     103.118770080000
      9559    9       70.303807599929     140.503576962632     100.000000000000
      9560    7       70.303807599929     140.503576962632     103.118770080000
      9561    2       71.205138461589     138.942426101262     101.559385040000
      9562    8       71.205138461589     142.064727813990     101.559385040000
      9563    6       73.007800194920     138.942426101262     100.000000000000
      9564    4       73.007800194920     138.942426101262     103.118770080000
      9565   12       73.007800194920     142.064727813990     100.000000000000
      9566   10       73.007800194920     142.064727813990     103.118770080000
      9567    5       73.909131066592     137.381275249904     101.559385040000
      9568   11       73.909131066592     140.503576962632     101.559385040000
      9569    3       70.303807599929     143.625878670354     100.000000000000
      9570    1       70.303807599929     143.625878670354     103.118770080000
      9571    9       70.303807599929     146.748180383082     100.000000000000
      9572    7       70.303807599929     146.748180383082     103.118770080000
      9573    2       71.205138461589     145.187029521712     101.559385040000
      9574    8       71.205138461589     148.309331234440     101.559385040000
      9575    6       73.007800194920     145.187029521712     100.000000000000
      9576    4       73.007800194920     145.187029521712     103.118770080000
      9577   12       73.007800194920     148.309331234440     100.000000000000
      9578   10       73.007800194920     148.309331234440     103.118770080000
      9579    5       73.909131066592     143.625878670354     101.559385040000
      9580   11       73.909131066592     146.748180383082     101.559385040000
      9581    3       75.711792799923     112.402861568103     100.000000000000
      9582    1       75.711792799923     112.402861568103     103.118770080000
      9583    9       75.711792799923     115.525163280831     100.000000000000
      9584    7       75.711792799923     115.525163280831     103.118770080000
      9585    2       76.613123661583     113.964012419461     101.559385040000
      9586    8       76.613123661583     117.086314132189     101.559385040000
      9587    6       78.415785394915     113.964012419461     100.000000000000
      9588    4       78.415785394915     113.964012419461     103.118770080000
      9589   12       78.415785394915     117.086314132189     100.000000000000
      9590   10       78.415785394915     117.086314132189     103.118770080000
      9591    5       79.317116266586     112.402861568103     101.559385040000
      9592   11       79.317116266586     115.525163280831     101.559385040000
      9593    3       75.711792799923     118.647464988553     100.000000000000
      9594    1       75.711792799923     118.647464988553     103.118770080000
      9595    9       75.711792799923     121.769766701281     100.000000000000
      9596    7       75.711792799923     121.769766701281     103.118770080000
      9597    2       76.613123661583     120.208615839911     101.559385040000
      9598    8       76.613123661583     123.330917552639     101.559385040000
      9599    6       78.415785394915     120.208615839911     100.000000000000
      9600    4       78.415785394915     120.208615839911     103.118770080000
      9601   12       78.415785394915     123.330917552639     100.000000000000
      9602   10       78.415785394915     123.330917552639     103.118770080000
      9603    5       79.317116266586     118.647464988553     101.559385040000
      9604   11       79.317116266586     121.769766701281     101.559385040000
      9605    3       75.711792799923     124.892068409003     100.000000000000
      9606    1       75.711792799923     124.892068409003     103.118770080000
      9607    9       75.711792799923     128.014370121731     100.000000000000
      9608    7       75.711792799923     128.014370121731     103.118770080000
      9609    2       76.613123661583     126.453219260362     101.559385040000
      9610    8       76.613123661583     129.575520973090     101.559385040000
      9611    6       78.415785394915     126.453219260362     100.000000000000
      9612    4       78.415785394915     126.453219260362     103.118770080000
      9613   12       78.415785394915     129.575520973090     100.000000000000
      9614   10       78.415785394915     129.575520973090     103.118770080000
      9615    5       79.317116266586     124.892068409003     101.559385040000
      9616   11       79.317116266586     128.014370121731     101.559385040000
      9617    3       75.711792799923     131.136671829453     100.000000000000
      9618    1       75.711792799923     131.136671829453     103.118770080000
      9619    9       75.711792799923     134.258973542181     100.000000000000
      9620    7       75.711792799923     134.258973542181     103.118770080000
      9621    2       76.613123661583     132.697822680812     101.559385040000
      9622    8       76.613123661583     135.820124393540     101.559385040000
      9623    6       78.415785394915     132.697822680812     100.000000000000
      9624    4       78.415785394915     132.697822680812     103.118770080000
      9625   12       78.415785394915     135.820124393540     100.000000000000
      9626   10       78.415785394915     135.820124393540     103.118770080000
      9627    5       79.317116266586     131.136671829453     101.559385040000
      9628   11       79.317116266586     134.258973542181     101.559385040000
      9629    3       75.711792799923     137.381275249904     100.000000000000
      9630    1       75.711792799923     137.381275249904     103.118770080000
      9631    9       75.711792799923     140.503576962632     100.000000000000
      9632    7       75.711792799923     140.503576962632     103.118770080000
      9633    2       76.613123661583     138.942426101262     101.559385040000
      9634    8       76.613123661583     142.064727813990     101.559385040000
      9635    6       78.415785394915     138.942426101262     100.000000000000
      9636    4       78.415785394915     138.942426101262     103.118770080000
      9637   12       78.415785394915     142.064727813990     100.000000000000
      9638   10       78.415785394915     142.064727813990     103.118770080000
      9639    5       79.317116266586     137.381275249904     101.559385040000
      9640   11       79.317116266586     140.503576962632     101.559385040000
      9641    3       75.711792799923     143.625878670354     100.000000000000
      9642    1       75.711792799923     143.625878670354     103.118770080000
      9643    9       75.711792799923     146.748180383082     100.000000000000
      9644    7       75.711792799923     146.748180383082     103.118770080000
      9645    2       76.613123661583     145.187029521712     101.559385040000
      9646    8       76.613123661583     148.309331234440     101.559385040000
      9647    6       78.415785394915     145.187029521712     100.000000000000
      9648    4       78.415785394915     145.187029521712     103.118770080000
      9649   12       78.415785394915     148.309331234440     100.000000000000
      9650   10       78.415785394915     148.309331234440     103.118770080000
      9651    5       79.317116266586     143.625878670354     101.559385040000
      9652   11       79.317116266586     146.748180383082     101.559385040000
      9653    3       81.119777999918     112.402861568103     100.000000000000
      9654    1       81.119777999918     112.402861568103     103.118770080000
      9655    9       81.119777999918     115.525163280831     100.000000000000
      9656    7       81.119777999918     115.525163280831     103.118770080000
      9657    2       82.021108861578     113.964012419461     101.559385040000
      9658    8       82.021108861578     117.086314132189     101.559385040000
      9659    6       83.823770594909     113.964012419461     100.000000000000
      9660    4       83.823770594909     113.964012419461     103.118770080000
      9661   12       83.823770594909     117.086314132189     100.000000000000
      9662   10       83.823770594909     117.086314132189     103.118770080000
      9663    5       84.725101466581     112.402861568103     101.559385040000
      9664   11       84.725101466581     115.525163280831     101.559385040000
      9665    3       81.119777999918     118.647464988553     100.000000000000
      9666    1       81.119777999918     118.647464988553     103.118770080000
      9667    9       81.119777999918     121.769766701281     100.000000000000
      9668    7       81.119777999918     121.769766701281     103.118770080000
      9669    2       82.021108861578     120.208615839911     101.559385040000
      9670    8       82.021108861578     123.330917552639     101.559385040000
      9671    6       83.823770594909     120.208615839911     100.000000000000
      9672    4       83.823770594909     120.208615839911     103.118770080000
      9673   12       83.823770594909     123.330917552639     100.000000000000
      9674   10       83.823770594909     123.330917552639     103.118770080000
      9675    5       84.725101466581     118.647464988553     101.559385040000
      9676   11       84.725101466581     121.769766701281     101.559385040000
      9677    3       81.119777999918     124.892068409003     100.000000000000
      9678    1       81.119777999918     124.892068409003     103.118770080000
      9679    9       81.119777999918     128.014370121731     100.000000000000
      9680    7       81.119777999918     128.014370121731     103.118770080000
      9681    2       82.021108861578     126.453219260362     101.559385040000
      9682    8       82.021108861578     129.575520973090     101.559385040000
      9683    6       83.823770594909     126.453219260362     100.000000000000
      9684    4       83.823770594909     126.453219260362     103.118770080000
      9685   12       83.823770594909     129.575520973090     100.000000000000
      9686   10       83.823770594909     129.575520973090     103.118770080000
      9687    5       84.725101466581     124.892068409003     101.559385040000
      9688   11       84.725101466581     128.014370121731     101.559385040000
      9689    3       81.119777999918     131.136671829453     100.000000000000
      9690    1       81.119777999918     131.136671829453     103.118770080000
      9691    9       81.119777999918     134.258973542181     100.000000000000
      9692    7       81.119777999918     134.258973542181     103.118770080000
      9693    2       82.021108861578     132.697822680812     101.559385040000
      9694    8       82.021108861578     135.820124393540     101.559385040000
      9695    6       83.823770594909     132.697822680812     100.000000000000
      9696    4       83.823770594909     132.697822680812     103.118770080000
      9697   12       83.823770594909     135.820124393540     100.000000000000
      9698   10       83.823770594909     135.820124393540     103.118770080000
      9699    5       84.725101466581     131.136671829453     101.559385040000
      9700   11       84.725101466581     134.258973542181     101.559385040000
      9701    3       81.119777999918     137.381275249904     100.000000000000
      9702    1       81.119777999918     137.381275249904     103.118770080000
      9703    9       81.119777999918     140.503576962632     100.000000000000
      9704    7       81.119777999918     140.503576962632     103.118770080000
      9705    2       82.021108861578     138.942426101262     101.559385040000
      9706    8       82.021108861578     142.064727813990     101.559385040000
      9707    6       83.823770594909     138.942426101262     100.000000000000
      9708    4       83.823770594909     138.942426101262     103.118770080000
      9709   12       83.823770594909     142.064727813990     100.000000000000
      9710   10       83.823770594909     142.064727813990     103.118770080000
      9711    5       84.725101466581     137.381275249904     101.559385040000
      9712   11       84.725101466581     140.503576962632     101.559385040000
      9713    3       81.119777999918     143.625878670354     100.000000000000
      9714    1       81.119777999918     143.625878670354     103.118770080000
      9715    9       81.119777999918     146.748180383082     100.000000000000
      9716    7       81.119777999918     146.748180383082     103.118770080000
      9717    2       82.021108861578     145.187029521712     101.559385040000
      9718    8       82.021108861578     148.309331234440     101.559385040000
      9719    6       83.823770594909     145.187029521712     100.000000000000
      9720    4       83.823770594909     145.187029521712     103.118770080000
      9721   12       83.823770594909     148.309331234440     100.000000000000
      9722   10       83.823770594909     148.309331234440     103.118770080000
      9723    5       84.725101466581     143.625878670354     101.559385040000
      9724   11       84.725101466581     146.748180383082     101.559385040000
      9725    3       86.527763199912     112.402861568103     100.000000000000
      9726    1       86.527763199912     112.402861568103     103.118770080000
      9727    9       86.527763199912     115.525163280831     100.000000000000
      9728    7       86.527763199912     115.525163280831     103.118770080000
      9729    2       87.429094061572     113.964012419461     101.559385040000
      9730    8       87.429094061572     117.086314132189     101.559385040000
      9731    6       89.231755794904     113.964012419461     100.000000000000
      9732    4       89.231755794904     113.964012419461     103.118770080000
      9733   12       89.231755794904     117.086314132189     100.000000000000
      9734   10       89.231755794904     117.086314132189     103.118770080000
      9735    5       90.133086666575     112.402861568103     101.559385040000
      9736   11       90.133086666575     115.525163280831     101.559385040000
      9737    3       86.527763199912     118.647464988553     100.000000000000
      9738    1       86.527763199912     118.647464988553     103.118770080000
      9739    9       86.527763199912     121.769766701281     100.000000000000
      9740    7       86.527763199912     121.769766701281     103.118770080000
      9741    2       87.429094061572     120.208615839911     101.559385040000
      9742    8       87.429094061572     123.330917552639     101.559385040000
      9743    6       89.231755794904     120.208615839911     100.000000000000
      9744    4       89.231755794904     120.208615839911     103.118770080000
      9745   12       89.231755794904     123.330917552639     100.000000000000
      9746   10       89.231755794904     123.330917552639     103.118770080000
      9747    5       90.133086666575     118.647464988553     101.559385040000
      9748   11       90.133086666575     121.769766701281     101.559385040000
      9749    3       86.527763199912     124.892068409003     100.000000000000
      9750    1       86.527763199912     124.892068409003     103.118770080000
      9751    9       86.527763199912     128.014370121731     100.000000000000
      9752    7       86.527763199912     128.014370121731     103.118770080000
      9753    2       87.429094061572     126.453219260362     101.559385040000
      9754    8       87.429094061572     129.575520973090     101.559385040000
      9755    6       89.231755794904     126.453219260362     100.000000000000
      9756    4       89.231755794904     126.453219260362     103.118770080000
      9757   12       89.231755794904     129.575520973090     100.000000000000
      9758   10       89.231755794904     129.575520973090     103.118770080000
      9759    5       90.133086666575     124.892068409003     101.559385040000
      9760   11       90.133086666575     128.014370121731     101.559385040000
      9761    3       86.527763199912     131.136671829453     100.000000000000
      9762    1       86.527763199912     131.136671829453     103.118770080000
      9763    9       86.527763199912     134.258973542181     100.000000000000
      9764    7       86.527763199912     134.258973542181     103.118770080000
      9765    2       87.429094061572     132.697822680812     101.559385040000
      9766    8       87.429094061572     135.820124393540     101.559385040000
      9767    6       89.231755794904     132.697822680812     100.000000000000
      9768    4       89.231755794904     132.697822680812     103.118770080000
      9769   12       89.231755794904     135.820124393540     100.000000000000
      9770   10       89.231755794904     135.820124393540     103.118770080000
      9771    5       90.133086666575     131.136671829453     101.559385040000
      9772   11       90.133086666575     134.258973542181     101.559385040000
      9773    3       86.527763199912     137.381275249904     100.000000000000
      9774    1       86.527763199912     137.381275249904     103.118770080000
      9775    9       86.527763199912     140.503576962632     100.000000000000
      9776    7       86.527763199912     140.503576962632     103.118770080000
      9777    2       87.429094061572     138.942426101262     101.559385040000
      9778    8       87.429094061572     142.064727813990     101.559385040000
      9779    6       89.231755794904     138.942426101262     100.000000000000
      9780    4       89.231755794904     138.942426101262     103.118770080000
      9781   12       89.231755794904     142.064727813990     100.000000000000
      9782   10       89.231755794904     142.064727813990     103.118770080000
      9783    5       90.133086666575     137.381275249904     101.559385040000
      9784   11       90.133086666575     140.503576962632     101.559385040000
      9785    3       86.527763199912     143.625878670354     100.000000000000
      9786    1       86.527763199912     143.625878670354     103.118770080000
      9787    9       86.527763199912     146.748180383082     100.000000000000
      9788    7       86.527763199912     146.748180383082     103.118770080000
      9789    2       87.429094061572     145.187029521712     101.559385040000
      9790    8       87.429094061572     148.309331234440     101.559385040000
      9791    6       89.231755794904     145.187029521712     100.000000000000
      9792    4       89.231755794904     145.187029521712     103.118770080000
      9793   12       89.231755794904     148.309331234440     100.000000000000
      9794   10       89.231755794904     148.309331234440     103.118770080000
      9795    5       90.133086666575     143.625878670354     101.559385040000
      9796   11       90.133086666575     146.748180383082     101.559385040000
      9797    3       91.935748399907     112.402861568103     100.000000000000
      9798    1       91.935748399907     112.402861568103     103.118770080000
      9799    9       91.935748399907     115.525163280831     100.000000000000
      9800    7       91.935748399907     115.525163280831     103.118770080000
      9801    2       92.837079261567     113.964012419461     101.559385040000
      9802    8       92.837079261567     117.086314132189     101.559385040000
      9803    6       94.639740994898     113.964012419461     100.000000000000
      9804    4       94.639740994898     113.964012419461     103.118770080000
      9805   12       94.639740994898     117.086314132189     100.000000000000
      9806   10       94.639740994898     117.086314132189     103.118770080000
      9807    5       95.541071866570     112.402861568103     101.559385040000
      9808   11       95.541071866570     115.525163280831     101.559385040000
      9809    3       91.935748399907     118.647464988553     100.000000000000
      9810    1       91.935748399907     118.647464988553     103.118770080000
      9811    9       91.935748399907     121.769766701281     100.000000000000
      9812    7       91.935748399907     121.769766701281     103.118770080000
      9813    2       92.837079261567     120.208615839911     101.559385040000
      9814    8       92.837079261567     123.330917552639     101.559385040000
      9815    6       94.639740994898     120.208615839911     100.000000000000
      9816    4       94.639740994898     120.208615839911     103.118770080000
      9817   12       94.639740994898     123.330917552639     100.000000000000
      9818   10       94.639740994898     123.330917552639     103.118770080000
      9819    5       95.541071866570     118.647464988553     101.559385040000
      9820   11       95.541071866570     121.769766701281     101.559385040000
      9821    3       91.935748399907     124.892068409003     100.000000000000
      9822    1       91.935748399907     124.892068409003     103.118770080000
      9823    9       91.935748399907     128.014370121731     100.000000000000
      9824    7       91.935748399907     128.014370121731     103.118770080000
      9825    2       92.837079261567     126.453219260362     101.559385040000
      9826    8       92.837079261567     129.575520973090     101.559385040000
      9827    6       94.639740994898     126.453219260362     100.000000000000
      9828    4       94.639740994898     126.453219260362     103.118770080000
      9829   12       94.639740994898     129.575520973090     100.000000000000
      9830   10       94.639740994898     129.575520973090     103.118770080000
      9831    5       95.541071866570     124.892068409003     101.559385040000
      9832   11       95.541071866570     128.014370121731     101.559385040000
      9833    3       91.935748399907     131.136671829453     100.000000000000
      9834    1       91.935748399907     131.136671829453     103.118770080000
      9835    9       91.935748399907     134.258973542181     100.000000000000
      9836    7       91.935748399907     134.258973542181     103.118770080000
      9837    2       92.837079261567     132.697822680812     101.559385040000
      9838    8       92.837079261567     135.820124393540     101.559385040000
      9839    6       94.639740994898     132.697822680812     100.000000000000
      9840    4       94.639740994898     132.697822680812     103.118770080000
      9841   12       94.639740994898     135.820124393540     100.000000000000
      9842   10       94.639740994898     135.820124393540     103.118770080000
      9843    5       95.541071866570     131.136671829453     101.559385040000
      9844   11       95.541071866570     134.258973542181     101.559385040000
      9845    3       91.935748399907     137.381275249904     100.000000000000
      9846    1       91.935748399907     137.381275249904     103.118770080000
      9847    9       91.935748399907     140.503576962632     100.000000000000
      9848    7       91.935748399907     140.503576962632     103.118770080000
      9849    2       92.837079261567     138.942426101262     101.559385040000
      9850    8       92.837079261567     142.064727813990     101.559385040000
      9851    6       94.639740994898     138.942426101262     100.000000000000
      9852    4       94.639740994898     138.942426101262     103.118770080000
      9853   12       94.639740994898     142.064727813990     100.000000000000
      9854   10       94.639740994898     142.064727813990     103.118770080000
      9855    5       95.541071866570     137.381275249904     101.559385040000
      9856   11       95.541071866570     140.503576962632     101.559385040000
      9857    3       91.935748399907     143.625878670354     100.000000000000
      9858    1       91.935748399907     143.625878670354     103.118770080000
      9859    9       91.935748399907     146.748180383082     100.000000000000
      9860    7       91.935748399907     146.748180383082     103.118770080000
      9861    2       92.837079261567     145.187029521712     101.559385040000
      9862    8       92.837079261567     148.309331234440     101.559385040000
      9863    6       94.639740994898     145.187029521712     100.000000000000
      9864    4       94.639740994898     145.187029521712     103.118770080000
      9865   12       94.639740994898     148.309331234440     100.000000000000
      9866   10       94.639740994898     148.309331234440     103.118770080000
      9867    5       95.541071866570     143.625878670354     101.559385040000
      9868   11       95.541071866570     146.748180383082     101.559385040000
      9869    3       97.343733599901     112.402861568103     100.000000000000
      9870    1       97.343733599901     112.402861568103     103.118770080000
      9871    9       97.343733599901     115.525163280831     100.000000000000
      9872    7       97.343733599901     115.525163280831     103.118770080000
      9873    2       98.245064461561     113.964012419461     101.559385040000
      9874    8       98.245064461561     117.086314132189     101.559385040000
      9875    6      100.047726194893     113.964012419461     100.000000000000
      9876    4      100.047726194893     113.964012419461     103.118770080000
      9877   12      100.047726194893     117.086314132189     100.000000000000
      9878   10      100.047726194893     117.086314132189     103.118770080000
      9879    5      100.949057066564     112.402861568103     101.559385040000
      9880   11      100.949057066564     115.525163280831     101.559385040000
      9881    3       97.343733599901     118.647464988553     100.000000000000
      9882    1       97.343733599901     118.647464988553     103.118770080000
      9883    9       97.343733599901     121.769766701281     100.000000000000
      9884    7       97.343733599901     121.769766701281     103.118770080000
      9885    2       98.245064461561     120.208615839911     101.559385040000
      9886    8       98.245064461561     123.330917552639     101.559385040000
      9887    6      100.047726194893     120.208615839911     100.000000000000
      9888    4      100.047726194893     120.208615839911     103.118770080000
      9889   12      100.047726194893     123.330917552639     100.000000000000
      9890   10      100.047726194893     123.330917552639     103.118770080000
      9891    5      100.949057066564     118.647464988553     101.559385040000
      9892   11      100.949057066564     121.769766701281     101.559385040000
      9893    3       97.343733599901     124.892068409003     100.000000000000
      9894    1       97.343733599901     124.892068409003     103.118770080000
      9895    9       97.343733599901     128.014370121731     100.000000000000
      9896    7       97.343733599901     128.014370121731     103.118770080000
      9897    2       98.245064461561     126.453219260362     101.559385040000
      9898    8       98.245064461561     129.575520973090     101.559385040000
      9899    6      100.047726194893     126.453219260362     100.000000000000
      9900    4      100.047726194893     126.453219260362     103.118770080000
      9901   12      100.047726194893     129.575520973090     100.000000000000
      9902   10      100.047726194893     129.575520973090     103.118770080000
      9903    5      100.949057066564     124.892068409003     101.559385040000
      9904   11      100.949057066564     128.014370121731     101.559385040000
      9905    3       97.343733599901     131.136671829453     100.000000000000
      9906    1       97.343733599901     131.136671829453     103.118770080000
      9907    9       97.343733599901     134.258973542181     100.000000000000
      9908    7       97.343733599901     134.258973542181     103.118770080000
      9909    2       98.245064461561     132.697822680812     101.559385040000
      9910    8       98.245064461561     135.820124393540     101.559385040000
      9911    6      100.047726194893     132.697822680812     100.000000000000
      9912    4      100.047726194893     132.697822680812     103.118770080000
      9913   12      100.047726194893     135.820124393540     100.000000000000
      9914   10      100.047726194893     135.820124393540     103.118770080000
      9915    5      100.949057066564     131.136671829453     101.559385040000
      9916   11      100.949057066564     134.258973542181     101.559385040000
      9917    3       97.343733599901     137.381275249904     100.000000000000
      9918    1       97.343733599901     137.381275249904     103.118770080000
      9919    9       97.343733599901     140.503576962632     100.000000000000
      9920    7       97.343733599901     140.503576962632     103.118770080000
      9921    2       98.245064461561     138.942426101262     101.559385040000
      9922    8       98.245064461561     142.064727813990     101.559385040000
      9923    6      100.047726194893     138.942426101262     100.000000000000
      9924    4      100.047726194893     138.942426101262     103.118770080000
      9925   12      100.047726194893     142.064727813990     100.000000000000
      9926   10      100.047726194893     142.064727813990     103.118770080000
      9927    5      100.949057066564     137.381275249904     101.559385040000
      9928   11      100.949057066564     140.503576962632     101.559385040000
      9929    3       97.343733599901     143.625878670354     100.000000000000
      9930    1       97.343733599901     143.625878670354     103.118770080000
      9931    9       97.343733599901     146.748180383082     100.000000000000
      9932    7       97.343733599901     146.748180383082     103.118770080000
      9933    2       98.245064461561     145.187029521712     101.559385040000
      9934    8       98.245064461561     148.309331234440     101.559385040000
      9935    6      100.047726194893     145.187029521712     100.000000000000
      9936    4      100.047726194893     145.187029521712     103.118770080000
      9937   12      100.047726194893     148.309331234440     100.000000000000
      9938   10      100.047726194893     148.309331234440     103.118770080000
      9939    5      100.949057066564     143.625878670354     101.559385040000
      9940   11      100.949057066564     146.748180383082     101.559385040000
      9941    3      102.751718799896     112.402861568103     100.000000000000
      9942    1      102.751718799896     112.402861568103     103.118770080000
      9943    9      102.751718799896     115.525163280831     100.000000000000
      9944    7      102.751718799896     115.525163280831     103.118770080000
      9945    2      103.653049661556     113.964012419461     101.559385040000
      9946    8      103.653049661556     117.086314132189     101.559385040000
      9947    6      105.455711394887     113.964012419461     100.000000000000
      9948    4      105.455711394887     113.964012419461     103.118770080000
      9949   12      105.455711394887     117.086314132189     100.000000000000
      9950   10      105.455711394887     117.086314132189     103.118770080000
      9951    5      106.357042266559     112.402861568103     101.559385040000
      9952   11      106.357042266559     115.525163280831     101.559385040000
      9953    3      102.751718799896     118.647464988553     100.000000000000
      9954    1      102.751718799896     118.647464988553     103.118770080000
      9955    9      102.751718799896     121.769766701281     100.000000000000
      9956    7      102.751718799896     121.769766701281     103.118770080000
      9957    2      103.653049661556     120.208615839911     101.559385040000
      9958    8      103.653049661556     123.330917552639     101.559385040000
      9959    6      105.455711394887     120.208615839911     100.000000000000
      9960    4      105.455711394887     120.208615839911     103.118770080000
      9961   12      105.455711394887     123.330917552639     100.000000000000
      9962   10      105.455711394887     123.330917552639     103.118770080000
      9963    5      106.357042266559     118.647464988553     101.559385040000
      9964   11      106.357042266559     121.769766701281     101.559385040000
      9965    3      102.751718799896     124.892068409003     100.000000000000
      9966    1      102.751718799896     124.892068409003     103.118770080000
      9967    9      102.751718799896     128.014370121731     100.000000000000
      9968    7      102.751718799896     128.014370121731     103.118770080000
      9969    2      103.653049661556     126.453219260362     101.559385040000
      9970    8      103.653049661556     129.575520973090     101.559385040000
      9971    6      105.455711394887     126.453219260362     100.000000000000
      9972    4      105.455711394887     126.453219260362     103.118770080000
      9973   12      105.455711394887     129.575520973090     100.000000000000
      9974   10      105.455711394887     129.575520973090     103.118770080000
      9975    5      106.357042266559     124.892068409003     101.559385040000
      9976   11      106.357042266559     128.014370121731     101.559385040000
      9977    3      102.751718799896     131.136671829453     100.000000000000
      9978    1      102.751718799896     131.136671829453     103.118770080000
      9979    9      102.751718799896     134.258973542181     100.000000000000
      9980    7      102.751718799896     134.258973542181     103.118770080000
      9981    2      103.653049661556     132.697822680812     101.559385040000
      9982    8      103.653049661556     135.820124393540     101.559385040000
      9983    6      105.455711394887     132.697822680812     100.000000000000
      9984    4      105.455711394887     132.697822680812     103.118770080000
      9985   12      105.455711394887     135.820124393540     100.000000000000
      9986   10      105.455711394887     135.820124393540     103.118770080000
      9987    5      106.357042266559     131.136671829453     101.559385040000
      9988   11      106.357042266559     134.258973542181     101.559385040000
      9989    3      102.751718799896     137.381275249904     100.000000000000
      9990    1      102.751718799896     137.381275249904     103.118770080000
      9991    9      102.751718799896     140.503576962632     100.000000000000
      9992    7      102.751718799896     140.503576962632     103.118770080000
      9993    2      103.653049661556     138.942426101262     101.559385040000
      9994    8      103.653049661556     142.064727813990     101.559385040000
      9995    6      105.455711394887     138.942426101262     100.000000000000
      9996    4      105.455711394887     138.942426101262     103.118770080000
      9997   12      105.455711394887     142.064727813990     100.000000000000
      9998   10      105.455711394887     142.064727813990     103.118770080000
      9999    5      106.357042266559     137.381275249904     101.559385040000
     10000   11      106.357042266559     140.503576962632     101.559385040000
     10001    3      102.751718799896     143.625878670354     100.000000000000
     10002    1      102.751718799896     143.625878670354     103.118770080000
     10003    9      102.751718799896     146.748180383082     100.000000000000
     10004    7      102.751718799896     146.748180383082     103.118770080000
     10005    2      103.653049661556     145.187029521712     101.559385040000
     10006    8      103.653049661556     148.309331234440     101.559385040000
     10007    6      105.455711394887     145.187029521712     100.000000000000
     10008    4      105.455711394887     145.187029521712     103.118770080000
     10009   12      105.455711394887     148.309331234440     100.000000000000
     10010   10      105.455711394887     148.309331234440     103.118770080000
     10011    5      106.357042266559     143.625878670354     101.559385040000
     10012   11      106.357042266559     146.748180383082     101.559385040000
     10013    3      108.159703999890     112.402861568103     100.000000000000
     10014    1      108.159703999890     112.402861568103     103.118770080000
     10015    9      108.159703999890     115.525163280831     100.000000000000
     10016    7      108.159703999890     115.525163280831     103.118770080000
     10017    2      109.061034861550     113.964012419461     101.559385040000
     10018    8      109.061034861550     117.086314132189     101.559385040000
     10019    6      110.863696594882     113.964012419461     100.000000000000
     10020    4      110.863696594882     113.964012419461     103.118770080000
     10021   12      110.863696594882     117.086314132189     100.000000000000
     10022   10      110.863696594882     117.086314132189     103.118770080000
     10023    5      111.765027466553     112.402861568103     101.559385040000
     10024   11      111.765027466553     115.525163280831     101.559385040000
     10025    3      108.159703999890     118.647464988553     100.000000000000
     10026    1      108.159703999890     118.647464988553     103.118770080000
     10027    9      108.159703999890     121.769766701281     100.000000000000
     10028    7      108.159703999890     121.769766701281     103.118770080000
     10029    2      109.061034861550     120.208615839911     101.559385040000
     10030    8      109.061034861550     123.330917552639     101.559385040000
     10031    6      110.863696594882     120.208615839911     100.000000000000
     10032    4      110.863696594882     120.208615839911     103.118770080000
     10033   12      110.863696594882     123.330917552639     100.000000000000
     10034   10      110.863696594882     123.330917552639     103.118770080000
     10035    5      111.765027466553     118.647464988553     101.559385040000
     10036   11      111.765027466553     121.769766701281     101.559385040000
     10037    3      108.159703999890     124.892068409003     100.000000000000
     10038    1      108.159703999890     124.892068409003     103.118770080000
     10039    9      108.159703999890     128.014370121731     100.000000000000
     10040    7      108.159703999890     128.014370121731     103.118770080000
     10041    2      109.061034861550     126.453219260362     101.559385040000
     10042    8      109.061034861550     129.575520973090     101.559385040000
     10043    6      110.863696594882     126.453219260362     100.000000000000
     10044    4      110.863696594882     126.453219260362     103.118770080000
     10045   12      110.863696594882     129.575520973090     100.000000000000
     10046   10      110.863696594882     129.575520973090     103.118770080000
     10047    5      111.765027466553     124.892068409003     101.559385040000
     10048   11      111.765027466553     128.014370121731     101.559385040000
     10049    3      108.159703999890     131.136671829453     100.000000000000
     10050    1      108.159703999890     131.136671829453     103.118770080000
     10051    9      108.159703999890     134.258973542181     100.000000000000
     10052    7      108.159703999890     134.258973542181     103.118770080000
     10053    2      109.061034861550     132.697822680812     101.559385040000
     10054    8      109.061034861550     135.820124393540     101.559385040000
     10055    6      110.863696594882     132.697822680812     100.000000000000
     10056    4      110.863696594882     132.697822680812     103.118770080000
     10057   12      110.863696594882     135.820124393540     100.000000000000
     10058   10      110.863696594882     135.820124393540     103.118770080000
     10059    5      111.765027466553     131.136671829453     101.559385040000
     10060   11      111.765027466553     134.258973542181     101.559385040000
     10061    3      108.159703999890     137.381275249904     100.000000000000
     10062    1      108.159703999890     137.381275249904     103.118770080000
     10063    9      108.159703999890     140.503576962632     100.000000000000
     10064    7      108.159703999890     140.503576962632     103.118770080000
     10065    2      109.061034861550     138.942426101262     101.559385040000
     10066    8      109.061034861550     142.064727813990     101.559385040000
     10067    6      110.863696594882     138.942426101262     100.000000000000
     10068    4      110.863696594882     138.942426101262     103.118770080000
     10069   12      110.863696594882     142.064727813990     100.000000000000
     10070   10      110.863696594882     142.064727813990     103.118770080000
     10071    5      111.765027466553     137.381275249904     101.559385040000
     10072   11      111.765027466553     140.503576962632     101.559385040000
     10073    3      108.159703999890     143.625878670354     100.000000000000
     10074    1      108.159703999890     143.625878670354     103.118770080000
     10075    9      108.159703999890     146.748180383082     100.000000000000
     10076    7      108.159703999890     146.748180383082     103.118770080000
     10077    2      109.061034861550     145.187029521712     101.559385040000
     10078    8      109.061034861550     148.309331234440     101.559385040000
     10079    6      110.863696594882     145.187029521712     100.000000000000
     10080    4      110.863696594882     145.187029521712     103.118770080000
     10081   12      110.863696594882     148.309331234440     100.000000000000
     10082   10      110.863696594882     148.309331234440     103.118770080000
     10083    5      111.765027466553     143.625878670354     101.559385040000
     10084   11      111.765027466553     146.748180383082     101.559385040000
     10085    3      113.567689199885     112.402861568103     100.000000000000
     10086    1      113.567689199885     112.402861568103     103.118770080000
     10087    9      113.567689199885     115.525163280831     100.000000000000
     10088    7      113.567689199885     115.525163280831     103.118770080000
     10089    2      114.469020061545     113.964012419461     101.559385040000
     10090    8      114.469020061545     117.086314132189     101.559385040000
     10091    6      116.271681794876     113.964012419461     100.000000000000
     10092    4      116.271681794876     113.964012419461     103.118770080000
     10093   12      116.271681794876     117.086314132189     100.000000000000
     10094   10      116.271681794876     117.086314132189     103.118770080000
     10095    5      117.173012666548     112.402861568103     101.559385040000
     10096   11      117.173012666548     115.525163280831     101.559385040000
     10097    3      113.567689199885     118.647464988553     100.000000000000
     10098    1      113.567689199885     118.647464988553     103.118770080000
     10099    9      113.567689199885     121.769766701281     100.000000000000
     10100    7      113.567689199885     121.769766701281     103.118770080000
     10101    2      114.469020061545     120.208615839911     101.559385040000
     10102    8      114.469020061545     123.330917552639     101.559385040000
     10103    6      116.271681794876     120.208615839911     100.000000000000
     10104    4      116.271681794876     120.208615839911     103.118770080000
     10105   12      116.271681794876     123.330917552639     100.000000000000
     10106   10      116.271681794876     123.330917552639     103.118770080000
     10107    5      117.173012666548     118.647464988553     101.559385040000
     10108   11      117.173012666548     121.769766701281     101.559385040000
     10109    3      113.567689199885     124.892068409003     100.000000000000
     10110    1      113.567689199885     124.892068409003     103.118770080000
     10111    9      113.567689199885     128.014370121731     100.000000000000
     10112    7      113.567689199885     128.014370121731     103.118770080000
     10113    2      114.469020061545     126.453219260362     101.559385040000
     10114    8      114.469020061545     129.575520973090     101.559385040000
     10115    6      116.271681794876     126.453219260362     100.000000000000
     10116    4      116.271681794876     126.453219260362     103.118770080000
     10117   12      116.271681794876     129.575520973090     100.000000000000
     10118   10      116.271681794876     129.575520973090     103.118770080000
     10119    5      117.173012666548     124.892068409003     101.559385040000
     10120   11      117.173012666548     128.014370121731     101.559385040000
     10121    3      113.567689199885     131.136671829453     100.000000000000
     10122    1      113.567689199885     131.136671829453     103.118770080000
     10123    9      113.567689199885     134.258973542181     100.000000000000
     10124    7      113.567689199885     134.258973542181     103.118770080000
     10125    2      114.469020061545     132.697822680812     101.559385040000
     10126    8      114.469020061545     135.820124393540     101.559385040000
     10127    6      116.271681794876     132.697822680812     100.000000000000
     10128    4      116.271681794876     132.697822680812     103.118770080000
     10129   12      116.271681794876     135.820124393540     100.000000000000
     10130   10      116.271681794876     135.820124393540     103.118770080000
     10131    5      117.173012666548     131.136671829453     101.559385040000
     10132   11      117.173012666548     134.258973542181     101.559385040000
     10133    3      113.567689199885     137.381275249904     100.000000000000
     10134    1      113.567689199885     137.381275249904     103.118770080000
     10135    9      113.567689199885     140.503576962632     100.000000000000
     10136    7      113.567689199885     140.503576962632     103.118770080000
     10137    2      114.469020061545     138.942426101262     101.559385040000
     10138    8      114.469020061545     142.064727813990     101.559385040000
     10139    6      116.271681794876     138.942426101262     100.000000000000
     10140    4      116.271681794876     138.942426101262     103.118770080000
     10141   12      116.271681794876     142.064727813990     100.000000000000
     10142   10      116.271681794876     142.064727813990     103.118770080000
     10143    5      117.173012666548     137.381275249904     101.559385040000
     10144   11      117.173012666548     140.503576962632     101.559385040000
     10145    3      113.567689199885     143.625878670354     100.000000000000
     10146    1      113.567689199885     143.625878670354     103.118770080000
     10147    9      113.567689199885     146.748180383082     100.000000000000
     10148    7      113.567689199885     146.748180383082     103.118770080000
     10149    2      114.469020061545     145.187029521712     101.559385040000
     10150    8      114.469020061545     148.309331234440     101.559385040000
     10151    6      116.271681794876     145.187029521712     100.000000000000
     10152    4      116.271681794876     145.187029521712     103.118770080000
     10153   12      116.271681794876     148.309331234440     100.000000000000
     10154   10      116.271681794876     148.309331234440     103.118770080000
     10155    5      117.173012666548     143.625878670354     101.559385040000
     10156   11      117.173012666548     146.748180383082     101.559385040000
     10157    3      118.975674399879     112.402861568103     100.000000000000
     10158    1      118.975674399879     112.402861568103     103.118770080000
     10159    9      118.975674399879     115.525163280831     100.000000000000
     10160    7      118.975674399879     115.525163280831     103.118770080000
     10161    2      119.877005261539     113.964012419461     101.559385040000
     10162    8      119.877005261539     117.086314132189     101.559385040000
     10163    6      121.679666994871     113.964012419461     100.000000000000
     10164    4      121.679666994871     113.964012419461     103.118770080000
     10165   12      121.679666994871     117.086314132189     100.000000000000
     10166   10      121.679666994871     117.086314132189     103.118770080000
     10167    5      122.580997866542     112.402861568103     101.559385040000
     10168   11      122.580997866542     115.525163280831     101.559385040000
     10169    3      118.975674399879     118.647464988553     100.000000000000
     10170    1      118.975674399879     118.647464988553     103.118770080000
     10171    9      118.975674399879     121.769766701281     100.000000000000
     10172    7      118.975674399879     121.769766701281     103.118770080000
     10173    2      119.877005261539     120.208615839911     101.559385040000
     10174    8      119.877005261539     123.330917552639     101.559385040000
     10175    6      121.679666994871     120.208615839911     100.000000000000
     10176    4      121.679666994871     120.208615839911     103.118770080000
     10177   12      121.679666994871     123.330917552639     100.000000000000
     10178   10      121.679666994871     123.330917552639     103.118770080000
     10179    5      122.580997866542     118.647464988553     101.559385040000
     10180   11      122.580997866542     121.769766701281     101.559385040000
     10181    3      118.975674399879     124.892068409003     100.000000000000
     10182    1      118.975674399879     124.892068409003     103.118770080000
     10183    9      118.975674399879     128.014370121731     100.000000000000
     10184    7      118.975674399879     128.014370121731     103.118770080000
     10185    2      119.877005261539     126.453219260362     101.559385040000
     10186    8      119.877005261539     129.575520973090     101.559385040000
     10187    6      121.679666994871     126.453219260362     100.000000000000
     10188    4      121.679666994871     126.453219260362     103.118770080000
     10189   12      121.679666994871     129.575520973090     100.000000000000
     10190   10      121.679666994871     129.575520973090     103.118770080000
     10191    5      122.580997866542     124.892068409003     101.559385040000
     10192   11      122.580997866542     128.014370121731     101.559385040000
     10193    3      118.975674399879     131.136671829453     100.000000000000
     10194    1      118.975674399879     131.136671829453     103.118770080000
     10195    9      118.975674399879     134.258973542181     100.000000000000
     10196    7      118.975674399879     134.258973542181     103.118770080000
     10197    2      119.877005261539     132.697822680812     101.559385040000
     10198    8      119.877005261539     135.820124393540     101.559385040000
     10199    6      121.679666994871     132.697822680812     100.000000000000
     10200    4      121.679666994871     132.697822680812     103.118770080000
     10201   12      121.679666994871     135.820124393540     100.000000000000
     10202   10      121.679666994871     135.820124393540     103.118770080000
     10203    5      122.580997866542     131.136671829453     101.559385040000
     10204   11      122.580997866542     134.258973542181     101.559385040000
     10205    3      118.975674399879     137.381275249904     100.000000000000
     10206    1      118.975674399879     137.381275249904     103.118770080000
     10207    9      118.975674399879     140.503576962632     100.000000000000
     10208    7      118.975674399879     140.503576962632     103.118770080000
     10209    2      119.877005261539     138.942426101262     101.559385040000
     10210    8      119.877005261539     142.064727813990     101.559385040000
     10211    6      121.679666994871     138.942426101262     100.000000000000
     10212    4      121.679666994871     138.942426101262     103.118770080000
     10213   12      121.679666994871     142.064727813990     100.000000000000
     10214   10      121.679666994871     142.064727813990     103.118770080000
     10215    5      122.580997866542     137.381275249904     101.559385040000
     10216   11      122.580997866542     140.503576962632     101.559385040000
     10217    3      118.975674399879     143.625878670354     100.000000000000
     10218    1      118.975674399879     143.625878670354     103.118770080000
     10219    9      118.975674399879     146.748180383082     100.000000000000
     10220    7      118.975674399879     146.748180383082     103.118770080000
     10221    2      119.877005261539     145.187029521712     101.559385040000
     10222    8      119.877005261539     148.309331234440     101.559385040000
     10223    6      121.679666994871     145.187029521712     100.000000000000
     10224    4      121.679666994871     145.187029521712     103.118770080000
     10225   12      121.679666994871     148.309331234440     100.000000000000
     10226   10      121.679666994871     148.309331234440     103.118770080000
     10227    5      122.580997866542     143.625878670354     101.559385040000
     10228   11      122.580997866542     146.748180383082     101.559385040000
     10229    3      124.383659599874     112.402861568103     100.000000000000
     10230    1      124.383659599874     112.402861568103     103.118770080000
     10231    9      124.383659599874     115.525163280831     100.000000000000
     10232    7      124.383659599874     115.525163280831     103.118770080000
     10233    2      125.284990461534     113.964012419461     101.559385040000
     10234    8      125.284990461534     117.086314132189     101.559385040000
     10235    6      127.087652194865     113.964012419461     100.000000000000
     10236    4      127.087652194865     113.964012419461     103.118770080000
     10237   12      127.087652194865     117.086314132189     100.000000000000
     10238   10      127.087652194865     117.086314132189     103.118770080000
     10239    5      127.988983066537     112.402861568103     101.559385040000
     10240   11      127.988983066537     115.525163280831     101.559385040000
     10241    3      124.383659599874     118.647464988553     100.000000000000
     10242    1      124.383659599874     118.647464988553     103.118770080000
     10243    9      124.383659599874     121.769766701281     100.000000000000
     10244    7      124.383659599874     121.769766701281     103.118770080000
     10245    2      125.284990461534     120.208615839911     101.559385040000
     10246    8      125.284990461534     123.330917552639     101.559385040000
     10247    6      127.087652194865     120.208615839911     100.000000000000
     10248    4      127.087652194865     120.208615839911     103.118770080000
     10249   12      127.087652194865     123.330917552639     100.000000000000
     10250   10      127.087652194865     123.330917552639     103.118770080000
     10251    5      127.988983066537     118.647464988553     101.559385040000
     10252   11      127.988983066537     121.769766701281     101.559385040000
     10253    3      124.383659599874     124.892068409003     100.000000000000
     10254    1      124.383659599874     124.892068409003     103.118770080000
     10255    9      124.383659599874     128.014370121731     100.000000000000
     10256    7      124.383659599874     128.014370121731     103.118770080000
     10257    2      125.284990461534     126.453219260362     101.559385040000
     10258    8      125.284990461534     129.575520973090     101.559385040000
     10259    6      127.087652194865     126.453219260362     100.000000000000
     10260    4      127.087652194865     126.453219260362     103.118770080000
     10261   12      127.087652194865     129.575520973090     100.000000000000
     10262   10      127.087652194865     129.575520973090     103.118770080000
     10263    5      127.988983066537     124.892068409003     101.559385040000
     10264   11      127.988983066537     128.014370121731     101.559385040000
     10265    3      124.383659599874     131.136671829453     100.000000000000
     10266    1      124.383659599874     131.136671829453     103.118770080000
     10267    9      124.383659599874     134.258973542181     100.000000000000
     10268    7      124.383659599874     134.258973542181     103.118770080000
     10269    2      125.284990461534     132.697822680812     101.559385040000
     10270    8      125.284990461534     135.820124393540     101.559385040000
     10271    6      127.087652194865     132.697822680812     100.000000000000
     10272    4      127.087652194865     132.697822680812     103.118770080000
     10273   12      127.087652194865     135.820124393540     100.000000000000
     10274   10      127.087652194865     135.820124393540     103.118770080000
     10275    5      127.988983066537     131.136671829453     101.559385040000
     10276   11      127.988983066537     134.258973542181     101.559385040000
     10277    3      124.383659599874     137.381275249904     100.000000000000
     10278    1      124.383659599874     137.381275249904     103.118770080000
     10279    9      124.383659599874     140.503576962632     100.000000000000
     10280    7      124.383659599874     140.503576962632     103.118770080000
     10281    2      125.284990461534     138.942426101262     101.559385040000
     10282    8      125.284990461534     142.064727813990     101.559385040000
     10283    6      127.087652194865     138.942426101262     100.000000000000
     10284    4      127.087652194865     138.942426101262     103.118770080000
     10285   12      127.087652194865     142.064727813990     100.000000000000
     10286   10      127.087652194865     142.064727813990     103.118770080000
     10287    5      127.988983066537     137.381275249904     101.559385040000
     10288   11      127.988983066537     140.503576962632     101.559385040000
     10289    3      124.383659599874     143.625878670354     100.000000000000
     10290    1      124.383659599874     143.625878670354     103.118770080000
     10291    9      124.383659599874     146.748180383082     100.000000000000
     10292    7      124.383659599874     146.748180383082     103.118770080000
     10293    2      125.284990461534     145.187029521712     101.559385040000
     10294    8      125.284990461534     148.309331234440     101.559385040000
     10295    6      127.087652194865     145.187029521712     100.000000000000
     10296    4      127.087652194865     145.187029521712     103.118770080000
     10297   12      127.087652194865     148.309331234440     100.000000000000
     10298   10      127.087652194865     148.309331234440     103.118770080000
     10299    5      127.988983066537     143.625878670354     101.559385040000
     10300   11      127.988983066537     146.748180383082     101.559385040000
     10301   14       64.895822399934     112.402861568103     106.818770080000
     10302   13       65.879092430836     114.105935224130     106.818770080000
     10303   14       67.845632503561     114.105935224130     106.818770080000
     10304   13       68.828902545385     112.402861568103     106.818770080000
     10305   14       64.895822399934     115.809008888349     106.818770080000
     10306   13       65.879092430836     117.512082544376     106.818770080000
     10307   14       67.845632503561     117.512082544376     106.818770080000
     10308   13       68.828902545385     115.809008888349     106.818770080000
     10309   14       64.895822399934     119.215156208594     106.818770080000
     10310   13       65.879092430836     120.918229864621     106.818770080000
     10311   14       67.845632503561     120.918229864621     106.818770080000
     10312   13       68.828902545385     119.215156208594     106.818770080000
     10313   14       64.895822399934     122.621303528840     106.818770080000
     10314   13       65.879092430836     124.324377184867     106.818770080000
     10315   14       67.845632503561     124.324377184867     106.818770080000
     10316   13       68.828902545385     122.621303528840     106.818770080000
     10317   14       64.895822399934     126.027450849085     106.818770080000
     10318   13       65.879092430836     127.730524505113     106.818770080000
     10319   14       67.845632503561     127.730524505113     106.818770080000
     10320   13       68.828902545385     126.027450849085     106.818770080000
     10321   14       64.895822399934     129.433598169331     106.818770080000
     10322   13       65.879092430836     131.136671825358     106.818770080000
     10323   14       67.845632503561     131.136671825358     106.818770080000
     10324   13       68.828902545385     129.433598169331     106.818770080000
     10325   14       64.895822399934     132.839745489576     106.818770080000
     10326   13       65.879092430836     134.542819145604     106.818770080000
     10327   14       67.845632503561     134.542819145604     106.818770080000
     10328   13       68.828902545385     132.839745489576     106.818770080000
     10329   14       64.895822399934     136.245892809822     106.818770080000
     10330   13       65.879092430836     137.948966465849     106.818770080000
     10331   14       67.845632503561     137.948966465849     106.818770080000
     10332   13       68.828902545385     136.245892809822     106.818770080000
     10333   14       64.895822399934     139.652040130067     106.818770080000
     10334   13       65.879092430836     141.355113786095     106.818770080000
     10335   14       67.845632503561     141.355113786095     106.818770080000
     10336   13       68.828902545385     139.652040130067     106.818770080000
     10337   14       64.895822399934     143.058187450313     106.818770080000
     10338   13       65.879092430836     144.761261106340     106.818770080000
     10339   14       67.845632503561     144.761261106340     106.818770080000
     10340   13       68.828902545385     143.058187450313     106.818770080000
     10341   14       64.895822399934     146.464334770558     106.818770080000
     10342   13       65.879092430836     148.167408426586     106.818770080000
     10343   14       67.845632503561     148.167408426586     106.818770080000
     10344   13       68.828902545385     146.464334770558     106.818770080000
     10345   14       70.795442618110     112.402861568103     106.818770080000
     10346   13       71.778712649012     114.105935224130     106.818770080000
     10347   14       73.745252721737     114.105935224130     106.818770080000
     10348   13       74.728522763561     112.402861568103     106.818770080000
     10349   14       70.795442618110     115.809008888349     106.818770080000
     10350   13       71.778712649012     117.512082544376     106.818770080000
     10351   14       73.745252721737     117.512082544376     106.818770080000
     10352   13       74.728522763561     115.809008888349     106.818770080000
     10353   14       70.795442618110     119.215156208594     106.818770080000
     10354   13       71.778712649012     120.918229864621     106.818770080000
     10355   14       73.745252721737     120.918229864621     106.818770080000
     10356   13       74.728522763561     119.215156208594     106.818770080000
     10357   14       70.795442618110     122.621303528840     106.818770080000
     10358   13       71.778712649012     124.324377184867     106.818770080000
     10359   14       73.745252721737     124.324377184867     106.818770080000
     10360   13       74.728522763561     122.621303528840     106.818770080000
     10361   14       70.795442618110     126.027450849085     106.818770080000
     10362   13       71.778712649012     127.730524505113     106.818770080000
     10363   14       73.745252721737     127.730524505113     106.818770080000
     10364   13       74.728522763561     126.027450849085     106.818770080000
     10365   14       70.795442618110     129.433598169331     106.818770080000
     10366   13       71.778712649012     131.136671825358     106.818770080000
     10367   14       73.745252721737     131.136671825358     106.818770080000
     10368   13       74.728522763561     129.433598169331     106.818770080000
     10369   14       70.795442618110     132.839745489576     106.818770080000
     10370   13       71.778712649012     134.542819145604     106.818770080000
     10371   14       73.745252721737     134.542819145604     106.818770080000
     10372   13       74.728522763561     132.839745489576     106.818770080000
     10373   14       70.795442618110     136.245892809822     106.818770080000
     10374   13       71.778712649012     137.948966465849     106.818770080000
     10375   14       73.745252721737     137.948966465849     106.818770080000
     10376   13       74.728522763561     136.245892809822     106.818770080000
     10377   14       70.795442618110     139.652040130067     106.818770080000
     10378   13       71.778712649012     141.355113786095     106.818770080000
     10379   14       73.745252721737     141.355113786095     106.818770080000
     10380   13       74.728522763561     139.652040130067     106.818770080000
     10381   14       70.795442618110     143.058187450313     106.818770080000
     10382   13       71.778712649012     144.761261106340     106.818770080000
     10383   14       73.745252721737     144.761261106340     106.818770080000
     10384   13       74.728522763561     143.058187450313     106.818770080000
     10385   14       70.795442618110     146.464334770558     106.818770080000
     10386   13       71.778712649012     148.167408426586     106.818770080000
     10387   14       73.745252721737     148.167408426586     106.818770080000
     10388   13       74.728522763561     146.464334770558     106.818770080000
     10389   14       76.695062836286     112.402861568103     106.818770080000
     10390   13       77.678332867188     114.105935224130     106.818770080000
     10391   14       79.644872939913     114.105935224130     106.818770080000
     10392   13       80.628142981737     112.402861568103     106.818770080000
     10393   14       76.695062836286     115.809008888349     106.818770080000
     10394   13       77.678332867188     117.512082544376     106.818770080000
     10395   14       79.644872939913     117.512082544376     106.818770080000
     10396   13       80.628142981737     115.809008888349     106.818770080000
     10397   14       76.695062836286     119.215156208594     106.818770080000
     10398   13       77.678332867188     120.918229864621     106.818770080000
     10399   14       79.644872939913     120.918229864621     106.818770080000
     10400   13       80.628142981737     119.215156208594     106.818770080000
     10401   14       76.695062836286     122.621303528840     106.818770080000
     10402   13       77.678332867188     124.324377184867     106.818770080000
     10403   14       79.644872939913     124.324377184867     106.818770080000
     10404   13       80.628142981737     122.621303528840     106.818770080000
     10405   14       76.695062836286     126.027450849085     106.818770080000
     10406   13       77.678332867188     127.730524505113     106.818770080000
     10407   14       79.644872939913     127.730524505113     106.818770080000
     10408   13       80.628142981737     126.027450849085     106.818770080000
     10409   14       76.695062836286     129.433598169331     106.818770080000
     10410   13       77.678332867188     131.136671825358     106.818770080000
     10411   14       79.644872939913     131.136671825358     106.818770080000
     10412   13       80.628142981737     129.433598169331     106.818770080000
     10413   14       76.695062836286     132.839745489576     106.818770080000
     10414   13       77.678332867188     134.542819145604     106.818770080000
     10415   14       79.644872939913     134.542819145604     106.818770080000
     10416   13       80.628142981737     132.839745489576     106.818770080000
     10417   14       76.695062836286     136.245892809822     106.818770080000
     10418   13       77.678332867188     137.948966465849     106.818770080000
     10419   14       79.644872939913     137.948966465849     106.818770080000
     10420   13       80.628142981737     136.245892809822     106.818770080000
     10421   14       76.695062836286     139.652040130067     106.818770080000
     10422   13       77.678332867188     141.355113786095     106.818770080000
     10423   14       79.644872939913     141.355113786095     106.818770080000
     10424   13       80.628142981737     139.652040130067     106.818770080000
     10425   14       76.695062836286     143.058187450313     106.818770080000
     10426   13       77.678332867188     144.761261106340     106.818770080000
     10427   14       79.644872939913     144.761261106340     106.818770080000
     10428   13       80.628142981737     143.058187450313     106.818770080000
     10429   14       76.695062836286     146.464334770558     106.818770080000
     10430   13       77.678332867188     148.167408426586     106.818770080000
     10431   14       79.644872939913     148.167408426586     106.818770080000
     10432   13       80.628142981737     146.464334770558     106.818770080000
     10433   14       82.594683054462     112.402861568103     106.818770080000
     10434   13       83.577953085363     114.105935224130     106.818770080000
     10435   14       85.544493158089     114.105935224130     106.818770080000
     10436   13       86.527763199912     112.402861568103     106.818770080000
     10437   14       82.594683054462     115.809008888349     106.818770080000
     10438   13       83.577953085363     117.512082544376     106.818770080000
     10439   14       85.544493158089     117.512082544376     106.818770080000
     10440   13       86.527763199912     115.809008888349     106.818770080000
     10441   14       82.594683054462     119.215156208594     106.818770080000
     10442   13       83.577953085363     120.918229864621     106.818770080000
     10443   14       85.544493158089     120.918229864621     106.818770080000
     10444   13       86.527763199912     119.215156208594     106.818770080000
     10445   14       82.594683054462     122.621303528840     106.818770080000
     10446   13       83.577953085363     124.324377184867     106.818770080000
     10447   14       85.544493158089     124.324377184867     106.818770080000
     10448   13       86.527763199912     122.621303528840     106.818770080000
     10449   14       82.594683054462     126.027450849085     106.818770080000
     10450   13       83.577953085363     127.730524505113     106.818770080000
     10451   14       85.544493158089     127.730524505113     106.818770080000
     10452   13       86.527763199912     126.027450849085     106.818770080000
     10453   14       82.594683054462     129.433598169331     106.818770080000
     10454   13       83.577953085363     131.136671825358     106.818770080000
     10455   14       85.544493158089     131.136671825358     106.818770080000
     10456   13       86.527763199912     129.433598169331     106.818770080000
     10457   14       82.594683054462     132.839745489576     106.818770080000
     10458   13       83.577953085363     134.542819145604     106.818770080000
     10459   14       85.544493158089     134.542819145604     106.818770080000
     10460   13       86.527763199912     132.839745489576     106.818770080000
     10461   14       82.594683054462     136.245892809822     106.818770080000
     10462   13       83.577953085363     137.948966465849     106.818770080000
     10463   14       85.544493158089     137.948966465849     106.818770080000
     10464   13       86.527763199912     136.245892809822     106.818770080000
     10465   14       82.594683054462     139.652040130067     106.818770080000
     10466   13       83.577953085363     141.355113786095     106.818770080000
     10467   14       85.544493158089     141.355113786095     106.818770080000
     10468   13       86.527763199912     139.652040130067     106.818770080000
     10469   14       82.594683054462     143.058187450313     106.818770080000
     10470   13       83.577953085363     144.761261106340     106.818770080000
     10471   14       85.544493158089     144.761261106340     106.818770080000
     10472   13       86.527763199912     143.058187450313     106.818770080000
     10473   14       82.594683054462     146.464334770558     106.818770080000
     10474   13       83.577953085363     148.167408426586     106.818770080000
     10475   14       85.544493158089     148.167408426586     106.818770080000
     10476   13       86.527763199912     146.464334770558     106.818770080000
     10477   14       88.494303272637     112.402861568103     106.818770080000
     10478   13       89.477573303539     114.105935224130     106.818770080000
     10479   14       91.444113376265     114.105935224130     106.818770080000
     10480   13       92.427383418088     112.402861568103     106.818770080000
     10481   14       88.494303272637     115.809008888349     106.818770080000
     10482   13       89.477573303539     117.512082544376     106.818770080000
     10483   14       91.444113376265     117.512082544376     106.818770080000
     10484   13       92.427383418088     115.809008888349     106.818770080000
     10485   14       88.494303272637     119.215156208594     106.818770080000
     10486   13       89.477573303539     120.918229864621     106.818770080000
     10487   14       91.444113376265     120.918229864621     106.818770080000
     10488   13       92.427383418088     119.215156208594     106.818770080000
     10489   14       88.494303272637     122.621303528840     106.818770080000
     10490   13       89.477573303539     124.324377184867     106.818770080000
     10491   14       91.444113376265     124.324377184867     106.818770080000
     10492   13       92.427383418088     122.621303528840     106.818770080000
     10493   14       88.494303272637     126.027450849085     106.818770080000
     10494   13       89.477573303539     127.730524505113     106.818770080000
     10495   14       91.444113376265     127.730524505113     106.818770080000
     10496   13       92.427383418088     126.027450849085     106.818770080000
     10497   14       88.494303272637     129.433598169331     106.818770080000
     10498   13       89.477573303539     131.136671825358     106.818770080000
     10499   14       91.444113376265     131.136671825358     106.818770080000
     10500   13       92.427383418088     129.433598169331     106.818770080000
     10501   14       88.494303272637     132.839745489576     106.818770080000
     10502   13       89.477573303539     134.542819145604     106.818770080000
     10503   14       91.444113376265     134.542819145604     106.818770080000
     10504   13       92.427383418088     132.839745489576     106.818770080000
     10505   14       88.494303272637     136.245892809822     106.818770080000
     10506   13       89.477573303539     137.948966465849     106.818770080000
     10507   14       91.444113376265     137.948966465849     106.818770080000
     10508   13       92.427383418088     136.245892809822     106.818770080000
     10509   14       88.494303272637     139.652040130067     106.818770080000
     10510   13       89.477573303539     141.355113786095     106.818770080000
     10511   14       91.444113376265     141.355113786095     106.818770080000
     10512   13       92.427383418088     139.652040130067     106.818770080000
     10513   14       88.494303272637     143.058187450313     106.818770080000
     10514   13       89.477573303539     144.761261106340     106.818770080000
     10515   14       91.444113376265     144.761261106340     106.818770080000
     10516   13       92.427383418088     143.058187450313     106.818770080000
     10517   14       88.494303272637     146.464334770558     106.818770080000
     10518   13       89.477573303539     148.167408426586     106.818770080000
     10519   14       91.444113376265     148.167408426586     106.818770080000
     10520   13       92.427383418088     146.464334770558     106.818770080000
     10521   14       94.393923490813     112.402861568103     106.818770080000
     10522   13       95.377193521715     114.105935224130     106.818770080000
     10523   14       97.343733594441     114.105935224130     106.818770080000
     10524   13       98.327003636264     112.402861568103     106.818770080000
     10525   14       94.393923490813     115.809008888349     106.818770080000
     10526   13       95.377193521715     117.512082544376     106.818770080000
     10527   14       97.343733594441     117.512082544376     106.818770080000
     10528   13       98.327003636264     115.809008888349     106.818770080000
     10529   14       94.393923490813     119.215156208594     106.818770080000
     10530   13       95.377193521715     120.918229864621     106.818770080000
     10531   14       97.343733594441     120.918229864621     106.818770080000
     10532   13       98.327003636264     119.215156208594     106.818770080000
     10533   14       94.393923490813     122.621303528840     106.818770080000
     10534   13       95.377193521715     124.324377184867     106.818770080000
     10535   14       97.343733594441     124.324377184867     106.818770080000
     10536   13       98.327003636264     122.621303528840     106.818770080000
     10537   14       94.393923490813     126.027450849085     106.818770080000
     10538   13       95.377193521715     127.730524505113     106.818770080000
     10539   14       97.343733594441     127.730524505113     106.818770080000
     10540   13       98.327003636264     126.027450849085     106.818770080000
     10541   14       94.393923490813     129.433598169331     106.818770080000
     10542   13       95.377193521715     131.136671825358     106.818770080000
     10543   14       97.343733594441     131.136671825358     106.818770080000
     10544   13       98.327003636264     129.433598169331     106.818770080000
     10545   14       94.393923490813     132.839745489576     106.818770080000
     10546   13       95.377193521715     134.542819145604     106.818770080000
     10547   14       97.343733594441     134.542819145604     106.818770080000
     10548   13       98.327003636264     132.839745489576     106.818770080000
     10549   14       94.393923490813     136.245892809822     106.818770080000
     10550   13       95.377193521715     137.948966465849     106.818770080000
     10551   14       97.343733594441     137.948966465849     106.818770080000
     10552   13       98.327003636264     136.245892809822     106.818770080000
     10553   14       94.393923490813     139.652040130067     106.818770080000
     10554   13       95.377193521715     141.355113786095     106.818770080000
     10555   14       97.343733594441     141.355113786095     106.818770080000
     10556   13       98.327003636264     139.652040130067     106.818770080000
     10557   14       94.393923490813     143.058187450313     106.818770080000
     10558   13       95.377193521715     144.761261106340     106.818770080000
     10559   14       97.343733594441     144.761261106340     106.818770080000
     10560   13       98.327003636264     143.058187450313     106.818770080000
     10561   14       94.393923490813     146.464334770558     106.818770080000
     10562   13       95.377193521715     148.167408426586     106.818770080000
     10563   14       97.343733594441     148.167408426586     106.818770080000
     10564   13       98.327003636264     146.464334770558     106.818770080000
     10565   14      100.293543708989     112.402861568103     106.818770080000
     10566   13      101.276813739891     114.105935224130     106.818770080000
     10567   14      103.243353812616     114.105935224130     106.818770080000
     10568   13      104.226623854440     112.402861568103     106.818770080000
     10569   14      100.293543708989     115.809008888349     106.818770080000
     10570   13      101.276813739891     117.512082544376     106.818770080000
     10571   14      103.243353812616     117.512082544376     106.818770080000
     10572   13      104.226623854440     115.809008888349     106.818770080000
     10573   14      100.293543708989     119.215156208594     106.818770080000
     10574   13      101.276813739891     120.918229864621     106.818770080000
     10575   14      103.243353812616     120.918229864621     106.818770080000
     10576   13      104.226623854440     119.215156208594     106.818770080000
     10577   14      100.293543708989     122.621303528840     106.818770080000
     10578   13      101.276813739891     124.324377184867     106.818770080000
     10579   14      103.243353812616     124.324377184867     106.818770080000
     10580   13      104.226623854440     122.621303528840     106.818770080000
     10581   14      100.293543708989     126.027450849085     106.818770080000
     10582   13      101.276813739891     127.730524505113     106.818770080000
     10583   14      103.243353812616     127.730524505113     106.818770080000
     10584   13      104.226623854440     126.027450849085     106.818770080000
     10585   14      100.293543708989     129.433598169331     106.818770080000
     10586   13      101.276813739891     131.136671825358     106.818770080000
     10587   14      103.243353812616     131.136671825358     106.818770080000
     10588   13      104.226623854440     129.433598169331     106.818770080000
     10589   14      100.293543708989     132.839745489576     106.818770080000
     10590   13      101.276813739891     134.542819145604     106.818770080000
     10591   14      103.243353812616     134.542819145604     106.818770080000
     10592   13      104.226623854440     132.839745489576     106.818770080000
     10593   14      100.293543708989     136.245892809822     106.818770080000
     10594   13      101.276813739891     137.948966465849     106.818770080000
     10595   14      103.243353812616     137.948966465849     106.818770080000
     10596   13      104.226623854440     136.245892809822     106.818770080000
     10597   14      100.293543708989     139.652040130067     106.818770080000
     10598   13      101.276813739891     141.355113786095     106.818770080000
     10599   14      103.243353812616     141.355113786095     106.818770080000
     10600   13      104.226623854440     139.652040130067     106.818770080000
     10601   14      100.293543708989     143.058187450313     106.818770080000
     10602   13      101.276813739891     144.761261106340     106.818770080000
     10603   14      103.243353812616     144.761261106340     106.818770080000
     10604   13      104.226623854440     143.058187450313     106.818770080000
     10605   14      100.293543708989     146.464334770558     106.818770080000
     10606   13      101.276813739891     148.167408426586     106.818770080000
     10607   14      103.243353812616     148.167408426586     106.818770080000
     10608   13      104.226623854440     146.464334770558     106.818770080000
     10609   14      106.193163927165     112.402861568103     106.818770080000
     10610   13      107.176433958067     114.105935224130     106.818770080000
     10611   14      109.142974030792     114.105935224130     106.818770080000
     10612   13      110.126244072616     112.402861568103     106.818770080000
     10613   14      106.193163927165     115.809008888349     106.818770080000
     10614   13      107.176433958067     117.512082544376     106.818770080000
     10615   14      109.142974030792     117.512082544376     106.818770080000
     10616   13      110.126244072616     115.809008888349     106.818770080000
     10617   14      106.193163927165     119.215156208594     106.818770080000
     10618   13      107.176433958067     120.918229864621     106.818770080000
     10619   14      109.142974030792     120.918229864621     106.818770080000
     10620   13      110.126244072616     119.215156208594     106.818770080000
     10621   14      106.193163927165     122.621303528840     106.818770080000
     10622   13      107.176433958067     124.324377184867     106.818770080000
     10623   14      109.142974030792     124.324377184867     106.818770080000
     10624   13      110.126244072616     122.621303528840     106.818770080000
     10625   14      106.193163927165     126.027450849085     106.818770080000
     10626   13      107.176433958067     127.730524505113     106.818770080000
     10627   14      109.142974030792     127.730524505113     106.818770080000
     10628   13      110.126244072616     126.027450849085     106.818770080000
     10629   14      106.193163927165     129.433598169331     106.818770080000
     10630   13      107.176433958067     131.136671825358     106.818770080000
     10631   14      109.142974030792     131.136671825358     106.818770080000
     10632   13      110.126244072616     129.433598169331     106.818770080000
     10633   14      106.193163927165     132.839745489576     106.818770080000
     10634   13      107.176433958067     134.542819145604     106.818770080000
     10635   14      109.142974030792     134.542819145604     106.818770080000
     10636   13      110.126244072616     132.839745489576     106.818770080000
     10637   14      106.193163927165     136.245892809822     106.818770080000
     10638   13      107.176433958067     137.948966465849     106.818770080000
     10639   14      109.142974030792     137.948966465849     106.818770080000
     10640   13      110.126244072616     136.245892809822     106.818770080000
     10641   14      106.193163927165     139.652040130067     106.818770080000
     10642   13      107.176433958067     141.355113786095     106.818770080000
     10643   14      109.142974030792     141.355113786095     106.818770080000
     10644   13      110.126244072616     139.652040130067     106.818770080000
     10645   14      106.193163927165     143.058187450313     106.818770080000
     10646   13      107.176433958067     144.761261106340     106.818770080000
     10647   14      109.142974030792     144.761261106340     106.818770080000
     10648   13      110.126244072616     143.058187450313     106.818770080000
     10649   14      106.193163927165     146.464334770558     106.818770080000
     10650   13      107.176433958067     148.167408426586     106.818770080000
     10651   14      109.142974030792     148.167408426586     106.818770080000
     10652   13      110.126244072616     146.464334770558     106.818770080000
     10653   14      112.092784145341     112.402861568103     106.818770080000
     10654   13      113.076054176243     114.105935224130     106.818770080000
     10655   14      115.042594248968     114.105935224130     106.818770080000
     10656   13      116.025864290792     112.402861568103     106.818770080000
     10657   14      112.092784145341     115.809008888349     106.818770080000
     10658   13      113.076054176243     117.512082544376     106.818770080000
     10659   14      115.042594248968     117.512082544376     106.818770080000
     10660   13      116.025864290792     115.809008888349     106.818770080000
     10661   14      112.092784145341     119.215156208594     106.818770080000
     10662   13      113.076054176243     120.918229864621     106.818770080000
     10663   14      115.042594248968     120.918229864621     106.818770080000
     10664   13      116.025864290792     119.215156208594     106.818770080000
     10665   14      112.092784145341     122.621303528840     106.818770080000
     10666   13      113.076054176243     124.324377184867     106.818770080000
     10667   14      115.042594248968     124.324377184867     106.818770080000
     10668   13      116.025864290792     122.621303528840     106.818770080000
     10669   14      112.092784145341     126.027450849085     106.818770080000
     10670   13      113.076054176243     127.730524505113     106.818770080000
     10671   14      115.042594248968     127.730524505113     106.818770080000
     10672   13      116.025864290792     126.027450849085     106.818770080000
     10673   14      112.092784145341     129.433598169331     106.818770080000
     10674   13      113.076054176243     131.136671825358     106.818770080000
     10675   14      115.042594248968     131.136671825358     106.818770080000
     10676   13      116.025864290792     129.433598169331     106.818770080000
     10677   14      112.092784145341     132.839745489576     106.818770080000
     10678   13      113.076054176243     134.542819145604     106.818770080000
     10679   14      115.042594248968     134.542819145604     106.818770080000
     10680   13      116.025864290792     132.839745489576     106.818770080000
     10681   14      112.092784145341     136.245892809822     106.818770080000
     10682   13      113.076054176243     137.948966465849     106.818770080000
     10683   14      115.042594248968     137.948966465849     106.818770080000
     10684   13      116.025864290792     136.245892809822     106.818770080000
     10685   14      112.092784145341     139.652040130067     106.818770080000
     10686   13      113.076054176243     141.355113786095     106.818770080000
     10687   14      115.042594248968     141.355113786095     106.818770080000
     10688   13      116.025864290792     139.652040130067     106.818770080000
     10689   14      112.092784145341     143.058187450313     106.818770080000
     10690   13      113.076054176243     144.761261106340     106.818770080000
     10691   14      115.042594248968     144.761261106340     106.818770080000
     10692   13      116.025864290792     143.058187450313     106.818770080000
     10693   14      112.092784145341     146.464334770558     106.818770080000
     10694   13      113.076054176243     148.167408426586     106.818770080000
     10695   14      115.042594248968     148.167408426586     106.818770080000
     10696   13      116.025864290792     146.464334770558     106.818770080000
     10697   14      117.992404363517     112.402861568103     106.818770080000
     10698   13      118.975674394418     114.105935224130     106.818770080000
     10699   14      120.942214467144     114.105935224130     106.818770080000
     10700   13      121.925484508967     112.402861568103     106.818770080000
     10701   14      117.992404363517     115.809008888349     106.818770080000
     10702   13      118.975674394418     117.512082544376     106.818770080000
     10703   14      120.942214467144     117.512082544376     106.818770080000
     10704   13      121.925484508967     115.809008888349     106.818770080000
     10705   14      117.992404363517     119.215156208594     106.818770080000
     10706   13      118.975674394418     120.918229864621     106.818770080000
     10707   14      120.942214467144     120.918229864621     106.818770080000
     10708   13      121.925484508967     119.215156208594     106.818770080000
     10709   14      117.992404363517     122.621303528840     106.818770080000
     10710   13      118.975674394418     124.324377184867     106.818770080000
     10711   14      120.942214467144     124.324377184867     106.818770080000
     10712   13      121.925484508967     122.621303528840     106.818770080000
     10713   14      117.992404363517     126.027450849085     106.818770080000
     10714   13      118.975674394418     127.730524505113     106.818770080000
     10715   14      120.942214467144     127.730524505113     106.818770080000
     10716   13      121.925484508967     126.027450849085     106.818770080000
     10717   14      117.992404363517     129.433598169331     106.818770080000
     10718   13      118.975674394418     131.136671825358     106.818770080000
     10719   14      120.942214467144     131.136671825358     106.818770080000
     10720   13      121.925484508967     129.433598169331     106.818770080000
     10721   14      117.992404363517     132.839745489576     106.818770080000
     10722   13      118.975674394418     134.542819145604     106.818770080000
     10723   14      120.942214467144     134.542819145604     106.818770080000
     10724   13      121.925484508967     132.839745489576     106.818770080000
     10725   14      117.992404363517     136.245892809822     106.818770080000
     10726   13      118.975674394418     137.948966465849     106.818770080000
     10727   14      120.942214467144     137.948966465849     106.818770080000
     10728   13      121.925484508967     136.245892809822     106.818770080000
     10729   14      117.992404363517     139.652040130067     106.818770080000
     10730   13      118.975674394418     141.355113786095     106.818770080000
     10731   14      120.942214467144     141.355113786095     106.818770080000
     10732   13      121.925484508967     139.652040130067     106.818770080000
     10733   14      117.992404363517     143.058187450313     106.818770080000
     10734   13      118.975674394418     144.761261106340     106.818770080000
     10735   14      120.942214467144     144.761261106340     106.818770080000
     10736   13      121.925484508967     143.058187450313     106.818770080000
     10737   14      117.992404363517     146.464334770558     106.818770080000
     10738   13      118.975674394418     148.167408426586     106.818770080000
     10739   14      120.942214467144     148.167408426586     106.818770080000
     10740   13      121.925484508967     146.464334770558     106.818770080000
     10741   14      123.892024581692     112.402861568103     106.818770080000
     10742   13      124.875294612594     114.105935224130     106.818770080000
     10743   14      126.841834685320     114.105935224130     106.818770080000
     10744   13      127.825104727143     112.402861568103     106.818770080000
     10745   14      123.892024581692     115.809008888349     106.818770080000
     10746   13      124.875294612594     117.512082544376     106.818770080000
     10747   14      126.841834685320     117.512082544376     106.818770080000
     10748   13      127.825104727143     115.809008888349     106.818770080000
     10749   14      123.892024581692     119.215156208594     106.818770080000
     10750   13      124.875294612594     120.918229864621     106.818770080000
     10751   14      126.841834685320     120.918229864621     106.818770080000
     10752   13      127.825104727143     119.215156208594     106.818770080000
     10753   14      123.892024581692     122.621303528840     106.818770080000
     10754   13      124.875294612594     124.324377184867     106.818770080000
     10755   14      126.841834685320     124.324377184867     106.818770080000
     10756   13      127.825104727143     122.621303528840     106.818770080000
     10757   14      123.892024581692     126.027450849085     106.818770080000
     10758   13      124.875294612594     127.730524505113     106.818770080000
     10759   14      126.841834685320     127.730524505113     106.818770080000
     10760   13      127.825104727143     126.027450849085     106.818770080000
     10761   14      123.892024581692     129.433598169331     106.818770080000
     10762   13      124.875294612594     131.136671825358     106.818770080000
     10763   14      126.841834685320     131.136671825358     106.818770080000
     10764   13      127.825104727143     129.433598169331     106.818770080000
     10765   14      123.892024581692     132.839745489576     106.818770080000
     10766   13      124.875294612594     134.542819145604     106.818770080000
     10767   14      126.841834685320     134.542819145604     106.818770080000
     10768   13      127.825104727143     132.839745489576     106.818770080000
     10769   14      123.892024581692     136.245892809822     106.818770080000
     10770   13      124.875294612594     137.948966465849     106.818770080000
     10771   14      126.841834685320     137.948966465849     106.818770080000
     10772   13      127.825104727143     136.245892809822     106.818770080000
     10773   14      123.892024581692     139.652040130067     106.818770080000
     10774   13      124.875294612594     141.355113786095     106.818770080000
     10775   14      126.841834685320     141.355113786095     106.818770080000
     10776   13      127.825104727143     139.652040130067     106.818770080000
     10777   14      123.892024581692     143.058187450313     106.818770080000
     10778   13      124.875294612594     144.761261106340     106.818770080000
     10779   14      126.841834685320     144.761261106340     106.818770080000
     10780   13      127.825104727143     143.058187450313     106.818770080000
     10781   14      123.892024581692     146.464334770558     106.818770080000
     10782   13      124.875294612594     148.167408426586     106.818770080000
     10783   14      126.841834685320     148.167408426586     106.818770080000
     10784   13      127.825104727143     146.464334770558     106.818770080000
